TITLE="results for TO code"
VARIABLES = "x", "y", "z", "density", "sigmaxx", "sigmayy", "sigmazz", "sigmaxy", "sigmaxz", "sigmayz"
ZONE T="load step 1", NODES= 12221, ELEMENTS= 10000, DATAPACKING=POINT, ZONETYPE=FEBRICK
               0.00000000                0.00000000                0.00000000                1.00000000                0.00000000                0.00000000                1.83466287               -0.00000000                0.53498297                1.10012658
               1.00000000                0.00000000                0.00000000                1.00000000                0.00000000               -0.00000000                1.26007299               -0.00000000                0.02993163                0.74792476
               2.00000000                0.00000000                0.00000000                1.00000000                0.00000000               -0.00000000                0.66883091                0.00000000               -0.16152955                0.37975804
               3.00000000                0.00000000                0.00000000                1.00000000                0.00000000                0.00000000                0.14498106                0.00000000               -0.14557520                0.08645893
               4.00000000                0.00000000                0.00000000                1.00000000               -0.00000000               -0.00000000               -0.01396037               -0.00000000               -0.03214046               -0.00751039
               5.00000000                0.00000000                0.00000000                1.00000000                0.00000000                0.00000000               -0.00586425               -0.00000000                0.00172450               -0.00513335
               6.00000000                0.00000000                0.00000000                1.00000000               -0.00000000               -0.00000000               -0.01410383               -0.00000000               -0.00439038               -0.00156524
               7.00000000                0.00000000                0.00000000                1.00000000                0.00000000               -0.00000000               -0.08663845               -0.00000000               -0.05324286               -0.09107163
               8.00000000                0.00000000                0.00000000                1.00000000                0.00000000                0.00000000               -0.76294543                0.00000000               -0.05053907               -0.47063154
               9.00000000                0.00000000                0.00000000                1.00000000                0.00000000                0.00000000               -1.56395366                0.00000000                0.24233892               -0.86818222
              10.00000000                0.00000000                0.00000000                1.00000000               -0.00000000               -0.00000000               -2.25076049                0.00000000                0.86672013               -1.20737659
               0.00000000                1.00000000                0.00000000                1.00000000               -0.00000000               -0.00000000                1.48678209               -0.00000000                0.73923507                0.58801368
               1.00000000                1.00000000                0.00000000                1.00000000               -0.00000000               -0.00000000                0.93256644               -0.00000000                0.26601820                0.36812284
               2.00000000                1.00000000                0.00000000                1.00000000               -0.00000000                0.00000000                0.40493776               -0.00000000                0.05480183                0.12097098
               3.00000000                1.00000000                0.00000000                1.00000000               -0.00000000               -0.00000000                0.04605876                0.00000000                0.00937338               -0.00665422
               4.00000000                1.00000000                0.00000000                1.00000000                0.00000000                0.00000000               -0.00113295                0.00000000                0.00452834               -0.01455008
               5.00000000                1.00000000                0.00000000                1.00000000                0.00000000               -0.00000000               -0.00089874               -0.00000000                0.00709386               -0.00373384
               6.00000000                1.00000000                0.00000000                1.00000000                0.00000000                0.00000000               -0.00743468               -0.00000000                0.02324421                0.00378032
               7.00000000                1.00000000                0.00000000                1.00000000               -0.00000000                0.00000000               -0.00851064               -0.00000000                0.06667117               -0.01847856
               8.00000000                1.00000000                0.00000000                1.00000000                0.00000000               -0.00000000               -0.37698815               -0.00000000                0.15340639               -0.15721991
               9.00000000                1.00000000                0.00000000                1.00000000                0.00000000               -0.00000000               -1.08495083                0.00000000                0.45815729               -0.38963884
              10.00000000                1.00000000                0.00000000                1.00000000                0.00000000                0.00000000               -1.86327014                0.00000000                1.04573035               -0.56913518
               0.00000000                2.00000000                0.00000000                1.00000000                0.00000000                0.00000000                1.44200052                0.00000000                0.81513210                0.31044627
               1.00000000                2.00000000                0.00000000                1.00000000               -0.00000000                0.00000000                0.78913142               -0.00000000                0.32700294                0.17007061
               2.00000000                2.00000000                0.00000000                1.00000000               -0.00000000                0.00000000                0.17997414                0.00000000                0.11416616                0.01259254
               3.00000000                2.00000000                0.00000000                1.00000000                0.00000000               -0.00000000               -0.01656030               -0.00000000                0.04936155               -0.01081622
               4.00000000                2.00000000                0.00000000                1.00000000               -0.00000000               -0.00000000                0.00355767                0.00000000                0.01973697               -0.00890312
               5.00000000                2.00000000                0.00000000                1.00000000               -0.00000000               -0.00000000               -0.00055118                0.00000000                0.01272482               -0.00384443
               6.00000000                2.00000000                0.00000000                1.00000000               -0.00000000               -0.00000000               -0.00146326                0.00000000                0.02530333               -0.00302652
               7.00000000                2.00000000                0.00000000                1.00000000                0.00000000               -0.00000000               -0.00004357               -0.00000000                0.06407964               -0.01920000
               8.00000000                2.00000000                0.00000000                1.00000000                0.00000000               -0.00000000               -0.06685960                0.00000000                0.15574990               -0.02685784
               9.00000000                2.00000000                0.00000000                1.00000000               -0.00000000                0.00000000               -0.69578446               -0.00000000                0.43283455               -0.13476649
              10.00000000                2.00000000                0.00000000                1.00000000                0.00000000               -0.00000000               -1.76179909                0.00000000                1.03994301               -0.20789998
               0.00000000                3.00000000                0.00000000                1.00000000               -0.00000000                0.00000000                1.38462140               -0.00000000                0.80996065                0.13493908
               1.00000000                3.00000000                0.00000000                1.00000000                0.00000000                0.00000000                0.65481571                0.00000000                0.33483602                0.05488801
               2.00000000                3.00000000                0.00000000                1.00000000                0.00000000               -0.00000000                0.03973631               -0.00000000                0.15726961               -0.03596653
               3.00000000                3.00000000                0.00000000                1.00000000               -0.00000000               -0.00000000                0.00329237                0.00000000                0.06257560               -0.00957991
               4.00000000                3.00000000                0.00000000                1.00000000               -0.00000000               -0.00000000                0.00118081                0.00000000                0.02538918               -0.00449390
               5.00000000                3.00000000                0.00000000                1.00000000               -0.00000000                0.00000000               -0.00000305               -0.00000000                0.01509858               -0.00309592
               6.00000000                3.00000000                0.00000000                1.00000000                0.00000000                0.00000000               -0.00064324               -0.00000000                0.02205582               -0.00531428
               7.00000000                3.00000000                0.00000000                1.00000000               -0.00000000                0.00000000               -0.00894658                0.00000000                0.04908072               -0.01156217
               8.00000000                3.00000000                0.00000000                1.00000000               -0.00000000               -0.00000000                0.03153387                0.00000000                0.11955003               -0.02288954
               9.00000000                3.00000000                0.00000000                1.00000000                0.00000000                0.00000000               -0.41150629               -0.00000000                0.32649818               -0.04302622
              10.00000000                3.00000000                0.00000000                1.00000000                0.00000000               -0.00000000               -1.57197510                0.00000000                0.88581926               -0.00651250
               0.00000000                4.00000000                0.00000000                1.00000000                0.00000000                0.00000000                1.31884917                0.00000000                0.77673874                0.01643181
               1.00000000                4.00000000                0.00000000                1.00000000               -0.00000000               -0.00000000                0.51072339               -0.00000000                0.32568002               -0.02295107
               2.00000000                4.00000000                0.00000000                1.00000000               -0.00000000                0.00000000               -0.07260810                0.00000000                0.17836725               -0.05004259
               3.00000000                4.00000000                0.00000000                1.00000000                0.00000000               -0.00000000                0.01272472               -0.00000000                0.06981747               -0.00554955
               4.00000000                4.00000000                0.00000000                1.00000000                0.00000000               -0.00000000                0.00091745               -0.00000000                0.02677332               -0.00206028
               5.00000000                4.00000000                0.00000000                1.00000000                0.00000000               -0.00000000                0.00024104                0.00000000                0.01478974               -0.00212527
               6.00000000                4.00000000                0.00000000                1.00000000               -0.00000000               -0.00000000               -0.00093417                0.00000000                0.01815620               -0.00414589
               7.00000000                4.00000000                0.00000000                1.00000000                0.00000000               -0.00000000               -0.00415458               -0.00000000                0.04008921               -0.00914947
               8.00000000                4.00000000                0.00000000                1.00000000               -0.00000000                0.00000000                0.01383883               -0.00000000                0.09793773               -0.01626199
               9.00000000                4.00000000                0.00000000                1.00000000               -0.00000000               -0.00000000               -0.30547166                0.00000000                0.27359737                0.01023504
              10.00000000                4.00000000                0.00000000                1.00000000               -0.00000000               -0.00000000               -1.38554960               -0.00000000                0.75302673                0.08371380
               0.00000000                5.00000000                0.00000000                1.00000000               -0.00000000               -0.00000000                1.24028157               -0.00000000                0.72247675               -0.06900532
               1.00000000                5.00000000                0.00000000                1.00000000                0.00000000                0.00000000                0.34270042                0.00000000                0.29380483               -0.06618385
               2.00000000                5.00000000                0.00000000                1.00000000               -0.00000000               -0.00000000               -0.11731423                0.00000000                0.16603752               -0.03869561
               3.00000000                5.00000000                0.00000000                1.00000000                0.00000000                0.00000000                0.01587739                0.00000000                0.06684471               -0.00195781
               4.00000000                5.00000000                0.00000000                1.00000000                0.00000000               -0.00000000                0.00063451                0.00000000                0.02589090               -0.00024992
               5.00000000                5.00000000                0.00000000                1.00000000               -0.00000000                0.00000000                0.00035365               -0.00000000                0.01354572               -0.00121745
               6.00000000                5.00000000                0.00000000                1.00000000                0.00000000                0.00000000               -0.00054887                0.00000000                0.01500036               -0.00325779
               7.00000000                5.00000000                0.00000000                1.00000000               -0.00000000                0.00000000               -0.00352178               -0.00000000                0.03130500               -0.00777960
               8.00000000                5.00000000                0.00000000                1.00000000                0.00000000                0.00000000                0.00943320                0.00000000                0.07751903               -0.01366766
               9.00000000                5.00000000                0.00000000                1.00000000                0.00000000               -0.00000000               -0.20804174                0.00000000                0.22232311                0.04554567
              10.00000000                5.00000000                0.00000000                1.00000000                0.00000000                0.00000000               -1.19803305                0.00000000                0.64553696                0.15022972
               0.00000000                6.00000000                0.00000000                1.00000000                0.00000000                0.00000000                1.13109267                0.00000000                0.64596041               -0.12476508
               1.00000000                6.00000000                0.00000000                1.00000000               -0.00000000               -0.00000000                0.20360406                0.00000000                0.25614116               -0.08360805
               2.00000000                6.00000000                0.00000000                1.00000000                0.00000000               -0.00000000               -0.11063837               -0.00000000                0.14488539               -0.02851279
               3.00000000                6.00000000                0.00000000                1.00000000               -0.00000000                0.00000000                0.01375466                0.00000000                0.06092464               -0.00065059
               4.00000000                6.00000000                0.00000000                1.00000000               -0.00000000                0.00000000                0.00077263               -0.00000000                0.02401287                0.00063877
               5.00000000                6.00000000                0.00000000                1.00000000               -0.00000000               -0.00000000                0.00039147                0.00000000                0.01209636               -0.00056555
               6.00000000                6.00000000                0.00000000                1.00000000               -0.00000000               -0.00000000               -0.00041285               -0.00000000                0.01209007               -0.00244437
               7.00000000                6.00000000                0.00000000                1.00000000               -0.00000000                0.00000000               -0.00219759                0.00000000                0.02319553               -0.00587713
               8.00000000                6.00000000                0.00000000                1.00000000               -0.00000000               -0.00000000                0.00400494                0.00000000                0.05251219               -0.00944103
               9.00000000                6.00000000                0.00000000                1.00000000                0.00000000                0.00000000               -0.11546035               -0.00000000                0.14383741                0.05704085
              10.00000000                6.00000000                0.00000000                1.00000000               -0.00000000                0.00000000               -0.88301930                0.00000000                0.51714623                0.20468758
               0.00000000                7.00000000                0.00000000                1.00000000                0.00000000               -0.00000000                0.99855513                0.00000000                0.56567172               -0.15692631
               1.00000000                7.00000000                0.00000000                1.00000000               -0.00000000               -0.00000000                0.10477638                0.00000000                0.23067939               -0.08853484
               2.00000000                7.00000000                0.00000000                1.00000000                0.00000000                0.00000000               -0.11629629                0.00000000                0.13988381               -0.02145172
               3.00000000                7.00000000                0.00000000                1.00000000                0.00000000               -0.00000000                0.01309225               -0.00000000                0.05865465                0.00079122
               4.00000000                7.00000000                0.00000000                1.00000000               -0.00000000               -0.00000000                0.00068647                0.00000000                0.02231295                0.00163593
               5.00000000                7.00000000                0.00000000                1.00000000                0.00000000               -0.00000000                0.00040153               -0.00000000                0.01048082               -0.00000511
               6.00000000                7.00000000                0.00000000                1.00000000                0.00000000                0.00000000               -0.00028690                0.00000000                0.00963538               -0.00190596
               7.00000000                7.00000000                0.00000000                1.00000000               -0.00000000               -0.00000000               -0.00123704                0.00000000                0.01771362               -0.00351391
               8.00000000                7.00000000                0.00000000                1.00000000                0.00000000               -0.00000000               -0.00033585                0.00000000                0.03655060                0.00081320
               9.00000000                7.00000000                0.00000000                1.00000000               -0.00000000                0.00000000               -0.04413736                0.00000000                0.08521057                0.06149768
              10.00000000                7.00000000                0.00000000                1.00000000               -0.00000000                0.00000000               -0.52658738               -0.00000000                0.35324961                0.17769680
               0.00000000                8.00000000                0.00000000                1.00000000               -0.00000000               -0.00000000                0.85948119                0.00000000                0.49486455               -0.18941193
               1.00000000                8.00000000                0.00000000                1.00000000                0.00000000                0.00000000                0.02653018                0.00000000                0.21539977               -0.07879752
               2.00000000                8.00000000                0.00000000                1.00000000               -0.00000000               -0.00000000               -0.15166810               -0.00000000                0.15043421               -0.00039627
               3.00000000                8.00000000                0.00000000                1.00000000                0.00000000                0.00000000                0.01100329                0.00000000                0.06120017                0.01047809
               4.00000000                8.00000000                0.00000000                1.00000000                0.00000000               -0.00000000                0.00006635                0.00000000                0.02026673                0.00473442
               5.00000000                8.00000000                0.00000000                1.00000000               -0.00000000                0.00000000                0.00052688               -0.00000000                0.00870972                0.00025823
               6.00000000                8.00000000                0.00000000                1.00000000                0.00000000                0.00000000               -0.00015663                0.00000000                0.00769385               -0.00195733
               7.00000000                8.00000000                0.00000000                1.00000000               -0.00000000               -0.00000000               -0.00091603                0.00000000                0.01449751               -0.00345973
               8.00000000                8.00000000                0.00000000                1.00000000               -0.00000000                0.00000000               -0.00146160               -0.00000000                0.03747474                0.00702088
               9.00000000                8.00000000                0.00000000                1.00000000                0.00000000               -0.00000000               -0.00721088               -0.00000000                0.08109268                0.08177605
              10.00000000                8.00000000                0.00000000                1.00000000               -0.00000000                0.00000000               -0.40126037                0.00000000                0.27040451                0.14588834
               0.00000000                9.00000000                0.00000000                1.00000000               -0.00000000               -0.00000000                0.69300897               -0.00000000                0.39215215               -0.26705635
               1.00000000                9.00000000                0.00000000                1.00000000               -0.00000000                0.00000000               -0.03637041               -0.00000000                0.19211251               -0.04279143
               2.00000000                9.00000000                0.00000000                1.00000000                0.00000000               -0.00000000               -0.28470255                0.00000000                0.17087767                0.08440369
               3.00000000                9.00000000                0.00000000                1.00000000                0.00000000                0.00000000               -0.02462163                0.00000000                0.06934239                0.05040888
               4.00000000                9.00000000                0.00000000                1.00000000               -0.00000000               -0.00000000                0.00351970               -0.00000000                0.01894927                0.00971283
               5.00000000                9.00000000                0.00000000                1.00000000                0.00000000               -0.00000000                0.00029274               -0.00000000                0.00961876               -0.00083891
               6.00000000                9.00000000                0.00000000                1.00000000                0.00000000               -0.00000000               -0.00005331               -0.00000000                0.00684646               -0.00183870
               7.00000000                9.00000000                0.00000000                1.00000000               -0.00000000                0.00000000               -0.00037762               -0.00000000                0.01003561               -0.00560903
               8.00000000                9.00000000                0.00000000                1.00000000               -0.00000000               -0.00000000               -0.00407612                0.00000000                0.03553047               -0.00771119
               9.00000000                9.00000000                0.00000000                1.00000000               -0.00000000               -0.00000000                0.08073041               -0.00000000                0.11880631                0.08910951
              10.00000000                9.00000000                0.00000000                1.00000000               -0.00000000                0.00000000               -0.45568253                0.00000000                0.26536500                0.20308485
               0.00000000               10.00000000                0.00000000                1.00000000                0.00000000                0.00000000                0.65210117                0.00000000                0.10536694               -0.44844809
               1.00000000               10.00000000                0.00000000                1.00000000                0.00000000               -0.00000000               -0.07736952                0.00000000               -0.01478325                0.01386469
               2.00000000               10.00000000                0.00000000                1.00000000                0.00000000                0.00000000               -0.50667440                0.00000000                0.10125418                0.33725581
               3.00000000               10.00000000                0.00000000                1.00000000               -0.00000000               -0.00000000               -0.13840703               -0.00000000                0.12885923                0.16006068
               4.00000000               10.00000000                0.00000000                1.00000000                0.00000000                0.00000000               -0.00008270                0.00000000                0.05200117                0.02104419
               5.00000000               10.00000000                0.00000000                1.00000000               -0.00000000                0.00000000               -0.00093750                0.00000000                0.01774698                0.00256152
               6.00000000               10.00000000                0.00000000                1.00000000               -0.00000000               -0.00000000                0.00082635                0.00000000                0.00938472               -0.00168110
               7.00000000               10.00000000                0.00000000                1.00000000                0.00000000               -0.00000000                0.00261412               -0.00000000                0.01161195               -0.00794527
               8.00000000               10.00000000                0.00000000                1.00000000               -0.00000000               -0.00000000                0.01337178               -0.00000000                0.01526116               -0.02890175
               9.00000000               10.00000000                0.00000000                1.00000000               -0.00000000                0.00000000                0.10536232                0.00000000                0.01131318                0.01894693
              10.00000000               10.00000000                0.00000000                1.00000000                0.00000000               -0.00000000               -0.57378455               -0.00000000                0.07748029                0.38656722
               0.00534983                0.01100127                1.01834663                1.00000000               -0.50505134               -0.51211290                1.78122052               -0.14794972               -0.05334454                0.50188672
               1.00029932                0.00747925                1.01260073                1.00000000               -0.34825626               -0.37980192                1.26454601               -0.12409770               -0.27683849                0.24957499
               1.99838470                0.00379758                1.00668831                0.88292638               -0.08775341               -0.25878706                0.72591415               -0.11440153               -0.39778622                0.02781469
               2.99854425                0.00086459                1.00144981                0.46534838                0.06469454               -0.09311315                0.23407406               -0.03868563               -0.24931087               -0.09234178
               3.99967860               -0.00007510                0.99986040                0.37941666                0.07364985               -0.00703969               -0.04189955               -0.00912734                0.17510118               -0.08920927
               5.00001724               -0.00005133                0.99994136                0.38197893                0.01387504                0.00139951               -0.12902543                0.00834193                0.38939027               -0.07739410
               5.99995610               -0.00001565                0.99985896                0.43884682               -0.02748368                0.00534556               -0.25637121               -0.01533455                0.32623402               -0.06896756
               6.99946757               -0.00091072                0.99913362                0.61282308               -0.02307434                0.07259307               -0.54140225               -0.11461911               -0.06724968               -0.12147967
               7.99949461               -0.00470632                0.99237055                1.00000000                0.14779089                0.31341162               -0.94759347               -0.18460984               -0.35163266               -0.04407217
               9.00242339               -0.00868182                0.98436046                1.00000000                0.45862960                0.47854338               -1.53348233               -0.15255416               -0.15996082               -0.19359083
              10.00866720               -0.01207377                0.97749240                1.00000000                0.62438122                0.63824141               -2.15412325               -0.16018415                0.14991681               -0.51822087
               0.00739235                1.00588014                1.01486782                1.00000000               -0.47321687               -0.39484015                1.57805677               -0.07981628                0.18922566                0.40861103
               1.00266018                1.00368123                1.00932566                1.00000000               -0.34221662               -0.28892708                1.05381629               -0.08498569               -0.00792172                0.16374795
               2.00054802                1.00120971                1.00404938                0.39549151               -0.12832241               -0.18358275                0.56785814               -0.04954067               -0.04441321               -0.06767479
               3.00009373                0.99993346                1.00046059                0.00010000               -0.02513674               -0.04863757                0.18871331                0.02970784                0.14951444               -0.13501905
               4.00004528                0.99985450                0.99998867                0.00010000               -0.00113976               -0.00069637                0.01160707                0.02739890                0.31440284               -0.13809199
               5.00007094                0.99996266                0.99999101                0.00010000                0.00935793                0.00064446               -0.05393510                0.01466536                0.36824010               -0.05575494
               6.00023244                1.00003780                0.99992565                0.00010000                0.02978866               -0.00073064               -0.16878962                0.00747450                0.43177958                0.03897669
               7.00066671                0.99981521                0.99991489                0.01130471                0.06508109                0.03593582               -0.39692279               -0.02183886                0.33309460                0.00738735
               8.00153406                0.99842780                0.99623012                0.82577845                0.19574306                0.22188685               -0.77001601               -0.08243565                0.05908745                0.09125391
               9.00458157                0.99610361                0.98915049                1.00000000                0.44616198                0.36670787               -1.33384741               -0.11070982                0.04553356               -0.02595331
              10.01045730                0.99430865                0.98136730                1.00000000                0.58757307                0.49973830               -1.89280951               -0.09288491                0.26136942               -0.37661776
               0.00815132                2.00310446                1.01442001                1.00000000               -0.48812917               -0.22653730                1.48278260               -0.10501287                0.21553314                0.34474866
               1.00327003                2.00170071                1.00789131                1.00000000               -0.35048297               -0.15661742                0.88775917               -0.11451796                0.03319276                0.11138493
               2.00114166                2.00012593                1.00179974                0.05679078               -0.13882069               -0.07846876                0.30063041               -0.03920952                0.14809214               -0.10160498
               3.00049362                1.99989184                0.99983440                0.00010000               -0.04721460               -0.00146285                0.02658151                0.01585328                0.55484836               -0.17795918
               4.00019737                1.99991097                1.00003558                0.00010000               -0.01831837                0.00502809               -0.01437265                0.01391631                0.64455923               -0.11093713
               5.00012725                1.99996156                0.99999449                0.00010000                0.00278318                0.00031896               -0.07607015                0.00694066                0.62255391               -0.07411112
               6.00025303                1.99996973                0.99998537                0.00010000                0.02567741               -0.00454730               -0.14309788               -0.00827198                0.68656784               -0.02826358
               7.00064080                1.99980800                0.99999956                0.00010000                0.06522328                0.00345819               -0.37532748               -0.02071089                0.80039083                0.02382974
               8.00155750                1.99973142                0.99933140                0.15271799                0.18437746                0.06716519               -0.62730360               -0.07471142                0.43481830                0.10780291
               9.00432835                1.99865234                0.99304216                1.00000000                0.44209655                0.17330631               -1.08249933               -0.15635062                0.07020295                0.05765794
              10.01039943                1.99792100                0.98238201                1.00000000                0.60710845                0.28131134               -1.70339557               -0.15308904                0.08169586               -0.21905844
               0.00809961                3.00134939                1.01384621                1.00000000               -0.47512464               -0.14700723                1.41204552               -0.09924776                0.20561197                0.18771366
               1.00334836                3.00054888                1.00654816                1.00000000               -0.32634552               -0.09651084                0.74128178               -0.08611426                0.06382225                0.00879355
               2.00157270                2.99964033                1.00039736                0.00010000               -0.13613021               -0.03131756                0.06224253               -0.00013341                0.33071863               -0.10855591
               3.00062576                2.99990420                1.00003292                0.00010000               -0.06594022                0.00263334               -0.27475316                0.02596428                0.79723636               -0.19214404
               4.00025389                2.99995506                1.00001181                0.00010000               -0.02373851                0.00342142               -0.03931716                0.00676017                0.81973648               -0.07339967
               5.00015099                2.99996904                0.99999997                0.00010000               -0.00166668                0.00085958               -0.08261195                0.00062227                0.82224449               -0.06474312
               6.00022056                2.99994686                0.99999357                0.00010000                0.01699107               -0.00055968               -0.13862263               -0.00780670                0.83655609               -0.03771732
               7.00049081                2.99988438                0.99991053                0.00010000                0.04874711                0.00502527               -0.15229053               -0.02078285                0.89181618                0.00478577
               8.00119550                2.99977110                1.00031534                0.03760028                0.13870873                0.00529793               -0.61672717               -0.04463811                0.85321183                0.04565104
               9.00326498                2.99956974                0.99588494                1.00000000                0.38313462                0.07250077               -0.72343540               -0.07143007                0.11951016                0.02452245
              10.00885819                2.99993488                0.98428025                1.00000000                0.55932109                0.14580689               -1.54698025               -0.10694442               -0.01934127                0.01097642
               0.00776739                4.00016432                1.01318849                1.00000000               -0.45105872               -0.10197220                1.33173405               -0.08312483                0.16504307                0.07444516
               1.00325680                3.99977049                1.00510723                0.89663543               -0.29918574               -0.06053593                0.60888838               -0.05375279                0.09163069               -0.08022398
               2.00178367                3.99949957                0.99927392                0.00010000               -0.12793127               -0.00136454               -0.13007396                0.01308472                0.49761681               -0.10346750
               3.00069817                3.99994450                1.00012725                0.00010000               -0.07579697                0.00381105               -0.08116305                0.02612570                0.90724079               -0.07767718
               4.00026773                3.99997940                1.00000917                0.00010000               -0.02751387                0.00212199               -0.09138051                0.00196300                0.93523341               -0.06993098
               5.00014790                3.99997875                1.00000241                0.00010000               -0.00430856                0.00093923               -0.08629415               -0.00181923                0.97506019               -0.04566139
               6.00018156                3.99995854                0.99999066                0.00010000                0.01264973                0.00102825               -0.09586547               -0.00703982                0.98561383               -0.01968400
               7.00040089                3.99990851                0.99995845                0.00010000                0.03989077                0.00189129               -0.10031939               -0.01494591                1.01104952                0.00860030
               8.00097938                3.99983738                1.00013839                0.02444424                0.11675408                0.00461094               -0.03773290               -0.01132324                0.81455186                0.09364386
               9.00273597                4.00010235                0.99694528                1.00000000                0.32754450                0.04428595               -0.51931066               -0.00209964                0.19950413                0.01963717
              10.00753027                4.00083714                0.98614450                1.00000000                0.47942935                0.07837111               -1.37803124               -0.04666240                0.00485972                0.12274387
               0.00722477                4.99930995                1.01240282                1.00000000               -0.42867192               -0.07059844                1.23656177               -0.06256769                0.09518227               -0.02337705
               1.00293805                4.99933816                1.00342700                0.73610101               -0.27821961               -0.03032849                0.47588739               -0.01961458                0.14845638               -0.12952549
               2.00166038                4.99961304                0.99882686                0.00010000               -0.11348006                0.01076490               -0.34078220                0.01537209                0.66023280               -0.07173222
               3.00066845                4.99998042                1.00015877                0.00010000               -0.07007331                0.00244948               -0.19544254                0.01477643                1.06851464               -0.11670785
               4.00025891                4.99999750                1.00000635                0.00010000               -0.02664949                0.00134953               -0.12622950               -0.00101005                1.07380143               -0.06060351
               5.00013546                4.99998783                1.00000354                0.00010000               -0.00544527                0.00077986               -0.08648335               -0.00285062                1.10635556               -0.03030209
               6.00015000                4.99996742                0.99999451                0.00010000                0.00887964                0.00085076               -0.05627018               -0.00631413                1.11055399               -0.00822025
               7.00031305                4.99992220                0.99996478                0.00010000                0.03125934                0.00163617                0.00417240               -0.01365178                1.08022439                0.02522408
               8.00077519                4.99986332                1.00009433                0.03019139                0.09550905                0.00341048                0.40234142                0.00394986                0.79249143                0.14482785
               9.00222323                5.00045546                0.99791958                0.93793666                0.28400896                0.02340290               -0.36497083                0.01706871                0.26407545                0.08388741
              10.00645537                5.00150230                0.98801967                1.00000000                0.42321385                0.06048689               -1.26141575               -0.01325620                0.03676931                0.27170598
               0.00645960                5.99875235                1.01131093                1.00000000               -0.38981926               -0.04396050                1.13071973               -0.03724549                0.06103448               -0.11024633
               1.00256141                5.99916392                1.00203604                0.66147803               -0.25053751               -0.01117550                0.31517379                0.01656343                0.22944034               -0.12738976
               2.00144885                5.99971487                0.99889362                0.08026638               -0.09760826                0.00862195               -0.57685241                0.02840188                0.78044008               -0.05622164
               3.00060925                5.99999349                1.00013755                0.00010000               -0.06043626                0.00137452               -0.80852284                0.01048075                1.21052488               -0.10036885
               4.00024013                6.00000639                1.00000773                0.00010000               -0.02441414                0.00094292               -0.14762376               -0.00174646                1.20143673               -0.03395161
               5.00012096                5.99999434                1.00000391                0.00010000               -0.00596140                0.00060617               -0.09070408               -0.00307402                1.21743665               -0.01291454
               6.00012090                5.99997556                0.99999587                0.00010000                0.00554958                0.00067592               -0.01627882               -0.00533828                1.20892617                0.00189575
               7.00023196                5.99994123                0.99997802                0.00010000                0.02021106                0.00213284                0.09313130               -0.01029402                1.13684561                0.03132093
               8.00052512                5.99990559                1.00004005                0.04760890                0.06032094                0.00724043                0.80215412                0.01097477                0.76928523                0.16576469
               9.00143837                6.00057041                0.99884540                0.76817678                0.23231702                0.00797601               -0.24228292                0.03850804                0.37966889                0.13212308
              10.00517146                6.00204688                0.99116981                1.00000000                0.37330882                0.01373354               -1.22430749                0.00150305                0.18890172                0.43674348
               0.00565672                6.99843074                1.00998555                1.00000000               -0.33499232               -0.03232343                1.01387367               -0.00715647                0.06441533               -0.17394636
               1.00230679                6.99911465                1.00104776                0.65834930               -0.21289396                0.00240527                0.15805947                0.04736660                0.28906531               -0.10725882
               2.00139884                6.99978548                0.99883704                0.18383535               -0.08601237                0.01405826               -0.76995613                0.04743744                0.85026778               -0.04021095
               3.00058655                7.00000791                1.00013092                0.00010000               -0.05878543                0.00556434               -1.23488729                0.01168159                1.26470155                0.05204181
               4.00022313                7.00001636                1.00000686                0.00010000               -0.02408691                0.00204783               -0.18042443               -0.00227124                1.28080554                0.00866732
               5.00010481                6.99999995                1.00000402                0.00010000               -0.00633878                0.00041189               -0.10113408               -0.00346427                1.29982764                0.01075909
               6.00009635                6.99998094                0.99999713                0.00010000                0.00361640                0.00024352                0.01609961               -0.00395251                1.28822553                0.00757350
               7.00017714                6.99996486                0.99998763                0.00010000                0.01345761                0.00120870                0.16896135               -0.00298943                1.17911537                0.02331334
               8.00036551                7.00000813                0.99999664                0.08080685                0.03374847                0.00823096                1.16180616                0.02498707                0.74288799                0.14324573
               9.00085211                7.00061498                0.99955863                0.69856842                0.15834950                0.01236760               -0.08243477                0.05706944                0.51948116                0.15676137
              10.00353250                7.00177697                0.99473413                1.00000000                0.26803904               -0.02939962               -1.17518812               -0.00717174                0.39162168                0.38698032
               0.00494865                7.99810588                1.00859481                1.00000000               -0.27946478               -0.05506502                0.88620675                0.02385463                0.06865020               -0.24000558
               1.00215400                7.99921202                1.00026530                0.72365619               -0.17221517                0.02287171                0.04022375                0.07522439                0.31438702               -0.08149563
               2.00150434                7.99999604                0.99848332                0.31372804               -0.07709980                0.05292770               -0.88389030                0.06013474                0.88487391               -0.02214499
               3.00061200                8.00010478                1.00011003                0.00010000               -0.06508374                0.02480883               -1.17440693                0.00790921                1.31657106                0.15003766
               4.00020267                8.00004734                1.00000066                0.00010000               -0.02624523                0.00403845               -0.22493647               -0.00679177                1.29752692                0.08328448
               5.00008710                8.00000258                1.00000527                0.00010000               -0.00628644               -0.00041690               -0.11976981               -0.00377691                1.35546066                0.03704140
               6.00007694                7.99998043                0.99999843                0.00010000                0.00289390                0.00003363                0.04149091               -0.00325344                1.34878352                0.00670254
               7.00014498                7.99996540                0.99999084                0.00010000                0.01489045               -0.00104756                0.22612650                0.00065010                1.21584691                0.00458706
               8.00037475                8.00007021                0.99998538                0.14698819                0.03329759               -0.00426220                1.41481310                0.04210783                0.73185706                0.04949301
               9.00081093                8.00081776                0.99992789                0.75584392                0.11646489                0.01380592                0.11984679                0.08623160                0.55845656                0.18621139
              10.00270405                8.00145888                0.99598740                1.00000000                0.18931183                0.01269403               -0.98310607                0.02016998                0.43205786                0.19756150
               0.00392152                8.99732944                1.00693009                1.00000000               -0.20003964               -0.12951808                0.75208776                0.02951612                0.06261006               -0.26323697
               1.00192113                8.99957209                0.99963630                0.88775876               -0.11063724                0.04633111               -0.04934938                0.06063851                0.24870056               -0.04369418
               2.00170878                9.00084404                0.99715297                0.52137408               -0.06138506                0.16882604               -0.85643291                0.02201014                0.84694357               -0.01503382
               3.00069342                9.00050409                0.99975378                0.00010000               -0.07596420                0.07479129               -1.11056976               -0.00351590                1.27618454                0.19529057
               4.00018949                9.00009713                1.00003520                0.00010000               -0.02986182                0.00815488               -0.26676706               -0.00975668                1.27968997                0.16889269
               5.00009619                8.99999161                1.00000293                0.00010000               -0.00605141                0.00115164               -0.14243818               -0.00125714                1.39766165                0.06423293
               6.00006846                8.99998161                0.99999947                0.00010000                0.00020843                0.00013812                0.05875632               -0.00153962                1.39764626                0.00370727
               7.00010036                8.99994391                0.99999622                0.00010000                0.01434200               -0.00224277                0.27952744               -0.00437903                1.23219464               -0.04038906
               8.00035530                8.99992289                0.99995924                0.31152956                0.05438535               -0.01796132                1.48472057                0.03625249                0.77287386               -0.02860712
               9.00118806                9.00089110                1.00080730                1.00000000                0.11491727               -0.03141456                0.25113105                0.07050827                0.50827656                0.14556260
              10.00265365                9.00203085                0.99544317                1.00000000                0.14655869                0.12033944               -0.69152475                0.01751323                0.23860810                0.09759410
               0.00105367                9.99551552                1.00652101                1.00000000               -0.12015019               -0.18139174                0.65360352                0.17552757               -0.16179242               -0.29238206
               0.99985217               10.00013865                0.99922630                1.00000000               -0.00205638                0.05665612               -0.13293005                0.18595619               -0.03426098               -0.00430164
               2.00101254               10.00337256                0.99493326                0.84044701                0.07182124                0.25285212               -0.89033263                0.00347450                0.64155203                0.07797577
               3.00128859               10.00160061                0.99861593                0.37166400               -0.02462650                0.10965180               -1.25229245               -0.09858897                1.25685730                0.31012261
               4.00052001               10.00021044                0.99999917                0.35039586               -0.05555613                0.01133136               -0.32359763               -0.04569768                1.37703417                0.27603040
               5.00017747               10.00002562                0.99999063                0.36425350               -0.02130823                0.00340043               -0.18010339               -0.00323443                1.48224910                0.10695571
               6.00009385                9.99998319                1.00000826                0.39931924               -0.00306751                0.00015761                0.06167723               -0.00271514                1.47138805                0.00430279
               7.00011612                9.99992055                1.00002614                0.46948887                0.00293822               -0.00233624                0.31121694               -0.01203399                1.26843673               -0.10393527
               8.00015261                9.99971098                1.00013372                0.74193359               -0.00014939               -0.02119056                1.58457217               -0.00682320                0.68677275               -0.10782555
               9.00011313               10.00018947                1.00105362                1.00000000                0.03110957               -0.07016258                0.29530432                0.10024135                0.30342779                0.03175988
              10.00077480               10.00386567                0.99426215                1.00000000                0.06616712                0.18348237               -0.55469561                0.17973559               -0.08260374                0.13716206
               0.01042491                0.01699535                2.03562441                1.00000000               -0.43033570               -0.48965058                1.72799152               -0.10097996               -0.25349939                0.23619130
               1.00612155                0.01154163                2.02529092                1.00000000               -0.36148559               -0.35572562                1.26362034               -0.10421375               -0.24656577                0.01258395
               2.00319519                0.00583416                2.01451828                0.95512045               -0.21399272               -0.22990849                0.76582598               -0.09233927               -0.26700099               -0.09689207
               3.00184170                0.00013161                2.00468148                0.49668513                0.09076409               -0.12165777                0.29632897                0.12718552               -0.06904295               -0.11707815
               4.00501048               -0.00204073                1.99916201                0.40682487                0.29737724               -0.08962865               -0.01173012                0.08577540                0.45992200               -0.05391454
               5.00778924               -0.00164719                1.99741949                0.41313126                0.11609728                0.04789627               -0.22510621               -0.00974210                0.78407390               -0.01173799
               6.00733242               -0.00151273                1.99487258                0.48791038               -0.08229088                0.21658624               -0.49898506                0.02068094                0.60547490                0.00998416
               7.00614342               -0.00399215                1.98917196                0.70505902                0.02040383                0.32739478               -0.82452025                0.06700769                0.30804169                0.02743392
               8.00774050               -0.00860059                1.98104813                1.00000000                0.27677559                0.34648089               -1.13220280               -0.05242096                0.08545006                0.00089306
               9.01167893               -0.01345187                1.96933035                1.00000000                0.44969870                0.42511149               -1.52443673               -0.06622607               -0.08836552               -0.08769453
              10.01673447               -0.01811422                1.95691754                1.00000000                0.50555387                0.56922552               -1.99611575               -0.06030494               -0.17635610               -0.11450997
               0.01486883                1.01209884                2.03156114                1.00000000               -0.42088174               -0.45393849                1.65691486               -0.06429006               -0.04115893                0.34645724
               1.01066001                1.00798437                2.02107633                1.00000000               -0.34460069               -0.32682125                1.16884291               -0.07006016                0.02361220                0.06535044
               2.00797681                1.00353507                2.01135716                0.62617866               -0.18045064               -0.21071210                0.69515471               -0.06228885                0.14208379               -0.18863742
               3.00705100                0.99891503                2.00377427                0.00010000               -0.06095903               -0.16315650                0.24969411                0.22736722                0.41394231               -0.22922889
               4.00675763                0.99706298                2.00023214                0.00010000                0.01884117               -0.01005732                0.01941320                0.38186774                0.71154954               -0.19896138
               5.00742782                0.99883177                1.99892130                0.00010000                0.09770393                0.00780065               -0.14136557                0.41510980                0.81722242               -0.11285482
               6.00871171                1.00065313                1.99662421                0.00010000                0.14648037                0.04397741               -0.37200703                0.34219430                0.75397415                0.03073799
               7.01035743                0.99928180                1.99206154                0.20616885                0.16172203                0.22365519               -0.70264086                0.23647246                0.58793800               -0.02198459
               8.01194615                0.99486422                1.98459968                1.00000000                0.27080323                0.33357134               -1.04538085               -0.02846402                0.33170739               -0.03010046
               9.01577349                0.99079924                1.97332305                1.00000000                0.44238119                0.39352933               -1.48139076               -0.03058347                0.16537680               -0.06007399
              10.02079377                0.98757803                1.96214381                1.00000000                0.50202835                0.54100526               -1.89697465               -0.01113425                0.12082138               -0.22284756
               0.01736804                2.00791658                2.02965565                1.00000000               -0.40839257               -0.35565288                1.53205931               -0.09916107                0.02098582                0.39620703
               1.01328412                2.00500521                2.01775518                1.00000000               -0.31746423               -0.25122117                0.99485820               -0.11156891                0.07451856                0.07231317
               2.01101876                2.00161991                2.00601261                0.22096402               -0.02114935               -0.15901839                0.44759099               -0.14919661                0.39160615               -0.30842635
               3.01286113                1.99686848                2.00053163                0.00010000                0.08561667               -0.15253818               -0.00472800                0.27087456                0.91910091               -0.49436349
               4.01273109                1.99775812                1.99971255                0.00010000               -0.01799222                0.07477145               -0.04577779                0.56551962                1.25470976               -0.20875292
               5.01250129                1.99850882                1.99847860                0.00010000                0.04975936               -0.00672776               -0.16789291                0.53220026                1.27436998               -0.18394877
               6.01372628                1.99936681                1.99713804                0.00010000                0.20802462               -0.07063827               -0.34818091                0.50404900                1.18791020               -0.09768739
               7.01666178                2.00048095                1.99249345                0.00010000                0.09637471                0.04275136               -0.42969195                0.29305749                1.02160162                0.17853079
               8.01565377                1.99807084                1.98745393                0.43760928                0.08458370                0.26209083               -0.89612949                0.15407210                0.80280643               -0.13985113
               9.01835345                1.99441871                1.97835001                1.00000000                0.36502175                0.28940395               -1.34992103               -0.13565777                0.43503676                0.15065872
              10.02295421                1.99270588                1.96593209                1.00000000                0.46007559                0.44395013               -1.67972069               -0.06984447                0.19287558               -0.25169552
               0.01870835                3.00498579                2.02824091                1.00000000               -0.39830573               -0.24921393                1.43313032               -0.09781692                0.04505066                0.32012072
               1.01472530                3.00295995                2.01482564                1.00000000               -0.27893736               -0.17442663                0.82521071               -0.10840075                0.09123289                0.03851759
               2.01312961                3.00035470                2.00124485                0.07564307                0.08024932               -0.10593798                0.15364367               -0.15910596                0.43460836               -0.28426827
               3.01633028                2.99586427                1.99450494                0.00010000                0.16490390                0.07260629               -0.37328659                0.13760665                1.40434025               -0.15438227
               4.01642768                2.99855841                1.99921366                0.00010000                0.00664241                0.04243617               -0.14402099                0.44656790                1.86103692               -0.19935156
               5.01646313                2.99869722                1.99834776                0.00010000                0.01964367                0.02871922               -0.19185197                0.38501933                1.63787359               -0.13904976
               6.01682056                2.99924036                1.99722755                0.00010000                0.05257111                0.01192811               -0.26521137                0.37347811                1.69196419               -0.06768428
               7.01751455                3.00013683                1.99695419                0.00010000                0.21346382               -0.01815981               -0.42999545                0.21385771                1.32028195                0.14759214
               8.02108983                3.00010604                1.98766546                0.29929919                0.04553702                0.20115230               -0.54800563                0.00504643                1.08077641                0.38209373
               9.01842529                2.99658732                1.98553129                1.00000000                0.08663586                0.19696922               -1.05977050               -0.20092450                0.75887062                0.19414411
              10.02282255                2.99645703                1.96906039                1.00000000                0.43972579                0.30047881               -1.51202249               -0.07580156               -0.02857084               -0.15015807
               0.01946338                4.00293230                2.02663468                1.00000000               -0.37161905               -0.17878813                1.33561936               -0.08421704                0.08415741                0.21729078
               1.01574719                4.00151667                2.01217777                1.00000000               -0.22655270               -0.12396338                0.67158974               -0.08056782                0.12930003               -0.00125965
               2.01493232                3.99950116                1.99739852                0.05723135                0.08311870               -0.07045229               -0.11223631                0.00736065                0.92811540               -0.29524204
               3.01740956                3.99832061                1.99837674                0.00010000                0.19485911                0.08956373               -0.24659455                0.14831055                1.84993907                0.05564865
               4.01882951                3.99860684                1.99817239                0.00010000                0.10550799                0.01154847               -0.22220060                0.29830905                1.93216991               -0.15859998
               5.01951972                3.99908321                1.99827412                0.00010000                0.04633638                0.03476193               -0.20024235                0.33371738                1.99818156               -0.09411735
               6.01975623                3.99960538                1.99808269                0.00010000                0.02767701                0.02950095               -0.20257270                0.32319149                2.00685507               -0.01639403
               7.02007326                4.00011776                1.99799361                0.00010000               -0.02260124                0.01740432               -0.18298864                0.32393111                2.03005102                0.06137648
               8.01930421                4.00209388                1.99924534                0.29182058               -0.10446467                0.14444296               -0.01445134               -0.24772327                1.36791665                0.86761774
               9.01798397                3.99835810                1.98961379                1.00000000                0.11972727                0.15951571               -0.77826173               -0.22237742                0.43624916                0.08824208
              10.02169875                3.99871546                1.97243938                1.00000000                0.37147864                0.19758915               -1.35977143               -0.07863102               -0.00101396               -0.06561162
               0.01985527                5.00141002                2.02473124                1.00000000               -0.33101828               -0.13599819                1.23075277               -0.07757981                0.12624610                0.12400667
               1.01654509                5.00048068                2.00951775                1.00000000               -0.16911911               -0.08426141                0.52560628               -0.06027175                0.14345852               -0.07111551
               2.01647289                4.99894566                1.99318436                0.09725935                0.18228599               -0.03178838               -0.39521471               -0.01250836                1.09567895               -0.35450989
               3.02019081                4.99765554                1.99609115                0.00010000                0.25791899               -0.01500659               -0.41866191                0.27652735                2.16771715               -0.65894788
               4.02163127                4.99878938                1.99747541                0.00010000                0.09740698                0.03568024               -0.29785622                0.35348858                2.23503754               -0.06556812
               5.02213894                4.99939245                1.99827033                0.00010000                0.03092841                0.03290126               -0.20489583                0.29409357                2.29249879               -0.05710735
               6.02224983                4.99983038                1.99887460                0.00010000               -0.03171389                0.02149595               -0.11452157                0.27703196                2.31569018                0.00786944
               7.02150467                5.00048491                2.00008345                0.00010000               -0.21774030                0.02429066                0.06682175                0.28919940                2.56687435                0.12393485
               8.01789503                5.00299490                2.00804683                0.30294241               -0.20742478                0.06595501                0.45438861               -0.17465762                1.50877781                0.75441717
               9.01735617                4.99977764                1.99270058                1.00000000                0.13200921                0.13226599               -0.54858893               -0.20532131                0.17606004                0.09387674
              10.02053521                5.00040882                1.97477168                1.00000000                0.31790410                0.16524780               -1.25749083               -0.06535886               -0.02012065               -0.10057281
               0.01977046                6.00021234                2.02261439                1.00000000               -0.27643445               -0.10864182                1.12044728               -0.07265859                0.10687136                0.03584238
               1.01700612                5.99983145                2.00630348                0.92498970               -0.11315830               -0.04275605                0.35470385               -0.04811076                0.10643467               -0.12840306
               2.01750730                5.99886539                1.98846295                0.17433372                0.30451353                0.03302100               -0.68059112               -0.01808300                0.75172158               -0.32417252
               3.02309639                5.99802047                1.98382954                0.00010000                0.33275355                0.17064031               -0.97289823                0.21942292                2.30222824               -0.90147737
               4.02416237                5.99932045                1.99704752                0.00010000                0.06321000                0.06955156               -0.42745628                0.29162540                2.93153648               -0.01652757
               5.02436059                5.99974123                1.99818592                0.00010000                0.00210237                0.04106869               -0.21319653                0.22910943                2.52466290               -0.02991542
               6.02420441                6.00003530                1.99967442                0.00010000               -0.08339267                0.01592630               -0.03127500                0.21967015                2.57359865                0.02376682
               7.02269273                6.00060357                2.00186263                0.00010000               -0.38430409               -0.00157304                0.29801582                0.27279094                3.02994849                0.11448755
               8.01651833                6.00341298                2.01604308                0.32793092               -0.31145571               -0.00376578                0.86690576               -0.11042092                1.61910109                0.70729425
               9.01646362                6.00100342                1.99515434                1.00000000                0.13054405                0.11375488               -0.33971815               -0.15483021               -0.11434055                0.16440734
              10.01912921                6.00202041                1.97551385                1.00000000                0.26655932                0.12566003               -1.22095820               -0.05098941               -0.13873557               -0.10276920
               0.01916388                6.99923719                2.02027747                1.00000000               -0.22340612               -0.09784939                1.00737195               -0.04808440                0.06599402               -0.05363108
               1.01692982                6.99962556                2.00316119                0.90821436               -0.06208424               -0.00249449                0.17255668               -0.01189966                0.06477669               -0.10828585
               2.01792220                6.99960608                1.98460088                0.27725248                0.35971915                0.11878874               -0.92889915                0.08941195                0.53127351               -0.17877063
               3.02412420                7.00106835                1.97530225                0.00010000                0.39104106                0.26787089               -1.35256709                0.11460099                2.36664703               -0.26503684
               4.02574302                7.00018041                1.99639151                0.00010000                0.09410415                0.11584545               -0.58174333                0.05192069                3.39145929                0.00720305
               5.02600629                7.00021383                1.99797732                0.00010000                0.00189391                0.05003428               -0.23943885                0.13596770                2.72178895               -0.01192094
               6.02578090                7.00014891                2.00032199                0.00010000               -0.12117448                0.00482097                0.03809732                0.15126544                2.79123761                0.02663843
               7.02358280                7.00045345                2.00337923                0.00010000               -0.52470666               -0.02602121                0.50074498                0.22039630                3.43673524                0.08414994
               8.01528676                7.00291958                2.02323612                0.37084735               -0.39653292               -0.11928607                1.24559841               -0.01094806                1.75490583                0.55541509
               9.01565214                7.00205273                1.99835130                1.00000000                0.10973354                0.07360661               -0.11743165               -0.06470321               -0.37774434                0.27129544
              10.01748143                7.00292202                1.97649624                1.00000000                0.18292954                0.06108843               -1.18152311               -0.04342486               -0.29691465                0.11399815
               0.01803202                7.99825535                2.01772414                1.00000000               -0.16327908               -0.12140634                0.89285275               -0.01358411                0.05733185               -0.13333384
               1.01639923                7.99978156                2.00080448                0.97949790               -0.00896385                0.02697754                0.02101432                0.04035593                0.04626306               -0.05589932
               2.01785275                8.00124116                1.98232219                0.41373711                0.42074216                0.18216541               -1.05230908                0.12477618                0.67595282                0.07573205
               3.02481408                8.00337789                1.97651186                0.00010000                0.41012777                0.21657824               -1.33587552               -0.05432703                2.31244107                0.31989289
               4.02605530                8.00163736                1.99550127                0.00010000                0.11486832                0.15994676               -0.74377120               -0.15171693                3.36799624                0.04723694
               5.02711144                8.00074192                1.99760460                0.00010000                0.04673985                0.05427373               -0.28074862                0.02385172                2.90114241                0.01216104
               6.02699010                8.00013171                2.00082982                0.00010000               -0.13907276               -0.00422961                0.09348705                0.07599819                2.97400484                0.02314779
               7.02432999                8.00008315                2.00452253                0.01662585               -0.61450049               -0.06482669                0.66459531                0.09984361                3.72300885                0.03992569
               8.01470009                8.00102726                2.02829626                0.44909557               -0.45814346               -0.18200282                1.53315648                0.08760184                1.91278628                0.23291836
               9.01516712                8.00247555                2.00239694                1.00000000                0.09110287               -0.01336064                0.12314988                0.06221877               -0.45509063                0.23794995
              10.01652215                8.00324218                1.98033788                1.00000000                0.13550282                0.03775534               -0.99634969               -0.02238751               -0.31763723                0.40253238
               0.01583979                8.99680906                2.01504176                1.00000000               -0.10886624               -0.16424176                0.79154242                0.00168231                0.05484113               -0.14963927
               1.01475113                9.00016511                1.99901301                1.00000000                0.04907974                0.04761970               -0.10480229                0.04718142                0.09470719               -0.02502989
               2.01682138                9.00324939                1.98287134                0.63285126                0.39451710                0.23788949               -1.05195347                0.04117350                0.68821664                0.21489478
               3.02264147                9.00539991                1.97778860                0.00010000                0.42616360                0.25501340               -1.28815956               -0.23064449                2.12183214                0.31219924
               4.02534466                9.00337934                1.99466466                0.00010000                0.26737474                0.19776494               -0.91718409               -0.19949633                3.35044740                0.10411278
               5.02798896                9.00129930                1.99715124                0.00010000                0.13074867                0.07109015               -0.32319503               -0.03952901                3.06884761                0.02929818
               6.02795963                9.00006432                2.00117513                0.00010000               -0.16524211               -0.00316261                0.13411629                0.01298801                3.14779845                0.01731168
               7.02468412                8.99915692                2.00559055                0.04662916               -0.66566160               -0.11108436                0.80670326                0.00642502                3.80497740               -0.00745915
               8.01464640                8.99927952                2.02969441                0.61050623               -0.50012628               -0.17663660                1.61442985                0.03182430                1.91681529                0.00706322
               9.01468160                9.00178552                2.00502262                1.00000000                0.04270119               -0.11664953                0.31176170                0.05853002               -0.33854367                0.06759507
              10.01550042                9.00367712                1.98616950                1.00000000                0.08188254                0.09315500               -0.73412914               -0.04040382               -0.09558778                0.37876616
               0.01135357                9.99497051                2.01307207                1.00000000               -0.04510293               -0.18385460                0.62491016                0.12772111               -0.03134972               -0.11465838
               1.01090254               10.00073395                1.99734140                1.00000000                0.10439252                0.05688361               -0.25141607                0.16656284                0.03681010                0.00228127
               2.01344142               10.00599895                1.98219335                0.88939177                0.45843465                0.27495659               -1.06298365                0.04921377                0.46674619                0.18746259
               3.02007123               10.00847816                1.97495415                0.37658328                0.63622862                0.30782456               -1.34210328               -0.27733876                1.94301026                0.16705701
               4.02616599               10.00559266                1.99352805                0.35224940                0.47823313                0.22133115               -1.02022747               -0.23358880                3.54260666                0.08661107
               5.02963589               10.00216372                1.99639793                0.37210805                0.16131284                0.08644165               -0.35604157               -0.11151682                3.24222653                0.04875149
               6.02939224               10.00006846                2.00123354                0.42589866               -0.21963056                0.00041470                0.15357855               -0.07185136                3.31877210                0.02946366
               7.02524328                9.99786146                2.00622434                0.53329330               -0.83421360               -0.12954575                0.89193729               -0.07278064                3.95090603               -0.00396999
               8.01270797                9.99749453                2.03169144                0.86324705               -0.66515807               -0.17849927                1.69099218               -0.07978742                1.83449998                0.01475701
               9.01194012               10.00014256                2.00590609                1.00000000               -0.03885552               -0.16429605                0.49030716                0.10638991               -0.40803452               -0.03064969
              10.01193086               10.00510528                1.98890609                1.00000000               -0.00092564                0.14281578               -0.48690288                0.13931642               -0.01532950                0.20707556
               0.02094682                0.02385164                3.05290646                1.00000000               -0.44726941               -0.50736015                1.73164543               -0.10995570               -0.21581374                0.25298666
               1.01647413                0.01616012                3.03787314                1.00000000               -0.36463493               -0.36361414                1.25957035               -0.09725608               -0.26053615               -0.00659288
               2.01365412                0.00818198                3.02200483                0.92653409               -0.19772325               -0.22393432                0.77339544               -0.08736996               -0.23344335               -0.12525973
               3.01251966                0.00033746                3.00737639                0.50366723                0.12424507               -0.08387254                0.30255840                0.12401191                0.18214450               -0.12809062
               4.01613903               -0.00329366                2.99962579                0.43648455                0.37342465               -0.13816071                0.09093340                0.11766357                0.78018939               -0.00985397
               5.01998816               -0.00328971                2.99543923                0.44922515                0.20870527               -0.00638337               -0.17977171                0.00223775                0.96720265                0.00617936
               6.02031313               -0.00331923                2.98987926                0.51480011               -0.02676530                0.17063293               -0.50120135                0.04327939                0.87750511                0.04158448
               7.01945285               -0.00614122                2.98264321                0.70635337                0.03660409                0.21952434               -0.72230233                0.07609896                0.53937967                0.03380069
               8.02104521               -0.01179155                2.96972649                1.00000000                0.26669121                0.32115467               -1.13247858               -0.02784549                0.10261718                0.15776409
               9.02478667               -0.01842111                2.95387173                1.00000000                0.44602518                0.43035814               -1.53158454               -0.09541768               -0.08164573                0.00226964
              10.02996572               -0.02481651                2.93757008                1.00000000                0.51790415                0.56536584               -1.92826905               -0.11289064               -0.10612547               -0.13889708
               0.02753879                1.01877804                3.04800612                1.00000000               -0.42023930               -0.47514066                1.63277371               -0.05414899               -0.01224547                0.34431855
               1.02333640                1.01252397                3.03270252                1.00000000               -0.34235189               -0.33812279                1.15178773               -0.04530439                0.02289963                0.00203286
               2.02069175                1.00594264                3.01795247                0.58691635               -0.19193984               -0.20561345                0.66988745               -0.02410146                0.16519014               -0.28752824
               3.01949760                0.99949873                3.00545447                0.00010000               -0.07812557               -0.05317795                0.21547847                0.10190645                0.62820455               -0.32056156
               4.01912924                0.99532473                3.00037693                0.00010000                0.02628595                0.00240271                0.04948822                0.41766509                1.08327732               -0.16254728
               5.02002332                0.99664646                2.99716370                0.00010000                0.15212184                0.00729120               -0.16884678                0.56316794                1.12664306               -0.14473323
               6.02217168                0.99838710                2.99248551                0.00010000                0.22133395                0.03659401               -0.43341369                0.45454106                1.01418869               -0.09051042
               7.02445000                0.99605403                2.98586208                0.22242177                0.23675125                0.23135934               -0.66626835                0.21684954                0.78687202                0.12295458
               8.02690670                0.99141999                2.97532250                1.00000000                0.29474896                0.28300873               -0.94232431                0.02701485                0.38291216                0.17298131
               9.03034498                0.98588247                2.95952268                1.00000000                0.41627554                0.39391894               -1.37435839               -0.04093024                0.09138338                0.04802503
              10.03523221                0.98083714                2.94342781                1.00000000                0.48872360                0.53935098               -1.83592293               -0.04817906                0.06085258               -0.17132948
               0.03237197                2.01434883                3.04506119                1.00000000               -0.39685303               -0.40026319                1.52572591               -0.08049797                0.03773220                0.44558071
               1.02840344                2.00939766                3.02778848                1.00000000               -0.30873185               -0.28136633                1.00107510               -0.07232193                0.06420760                0.01415508
               2.02619734                2.00406971                3.01075156                0.21464963               -0.16138747               -0.16867899                0.48319851               -0.01149770                0.37917598               -0.44856999
               3.02517569                1.99927390                2.99973984                0.00010000                0.05736303               -0.02636421                0.00644306                0.19654189                1.06741342               -0.52072702
               4.02734460                1.99675440                2.99912002                0.00010000                0.15067287                0.10917267               -0.08939852                0.60423918                1.56575792               -0.25103238
               5.02818915                1.99685612                2.99663663                0.00010000                0.13258928                0.03730330               -0.20952250                0.77647492                1.46723644               -0.22358042
               6.02999638                1.99741265                2.99302175                0.00010000                0.12838954               -0.03692864               -0.37706580                0.74557940                1.52866971               -0.12108264
               7.03075694                1.99848597                2.99140573                0.00010000                0.08803404                0.06410160               -0.24611686                0.42322563                1.14084066                0.01565172
               8.03175706                1.99386862                2.98140881                0.42621221                0.18969886                0.21007855               -0.68926105               -0.08507397                0.57503379                0.26762738
               9.03455092                1.98945727                2.96604373                1.00000000                0.36678633                0.31531873               -1.22822909               -0.05978203                0.22779170                0.20492087
              10.03909279                1.98597050                2.94878760                1.00000000                0.45418710                0.47936417               -1.69075846               -0.04885871                0.11898107               -0.20314492
               0.03583117                3.01077278                3.04250882                1.00000000               -0.36620917               -0.31645099                1.40933138               -0.08799347                0.05464717                0.41633954
               1.03216908                3.00689665                3.02305237                1.00000000               -0.26228037               -0.21722379                0.82694295               -0.07641016                0.07427228                0.00500502
               2.03058556                3.00256906                3.00347024                0.07875063               -0.07126614               -0.12072413                0.24903848                0.00122352                0.49906091               -0.41975578
               3.03074376                2.99897145                2.99256719                0.00010000                0.15231219                0.00986839               -0.13969115                0.33432614                1.59553771               -0.09966048
               4.03363181                2.99750819                2.99713139                0.00010000                0.20754059                0.08956246               -0.21877578                0.50451171                2.15412460               -0.23697261
               5.03489457                2.99739253                2.99616293                0.00010000                0.09108038                0.06588554               -0.23431894                0.60762059                1.90175295               -0.17279456
               6.03545341                2.99764852                2.99468934                0.00010000                0.07819851                0.02854822               -0.28341290                0.52731591                1.79336875               -0.05893465
               7.03645854                2.99733606                2.99131063                0.00010000               -0.06097438               -0.02395971               -0.42472053                0.35276799                1.74935611               -0.05451087
               8.03423393                2.99562157                2.98935523                0.30636648                0.02944593                0.14698704               -0.15726653               -0.00933709                1.00228770                0.49793867
               9.03704746                2.99218885                2.97468953                1.00000000                0.34973219                0.26203157               -1.07573977               -0.07405675                0.31380166                0.26017948
              10.04122857                2.99042443                2.95403980                1.00000000                0.41811142                0.39215555               -1.50319033               -0.03814094               -0.00846334               -0.18371609
               0.03836436                4.00801981                3.03990088                1.00000000               -0.32854015               -0.24812048                1.30002292               -0.07938772                0.07176342                0.34176634
               1.03507896                4.00505318                3.01853903                1.00000000               -0.21086767               -0.15532523                0.64548644               -0.05897802                0.09555184               -0.01879108
               2.03414701                4.00165523                2.99702919                0.02890322                0.09220631               -0.05553207                0.00426744                0.04165361                1.05896220               -0.36406924
               3.03692309                3.99947127                2.99519536                0.00010000                0.24333722                0.11886068               -0.29656790                0.29391985                2.14854078                0.07848594
               4.03901375                3.99854564                2.99556516                0.00010000                0.16390703                0.11514082               -0.27496812                0.39256165                2.27054363               -0.15447240
               5.04020123                3.99817383                2.99599756                0.00010000                0.07927074                0.07706757               -0.24473330                0.45648236                2.26967202               -0.11745373
               6.04059917                3.99798361                2.99593920                0.00010000               -0.01809833                0.04422773               -0.22025326                0.45151136                2.26374610               -0.04231916
               7.03983926                3.99800678                2.99629868                0.00010000               -0.19408163                0.05979139               -0.16881886                0.24222596                2.38158890                0.21411250
               8.03671754                3.99680836                2.99984936                0.30556118               -0.07861687                0.12661805               -0.05618179                0.03954046                1.37218826                0.54976862
               9.03826692                3.99469790                2.98138005                1.00000000                0.25706378                0.23017951               -0.84155398               -0.05113139                0.22409922                0.15580106
              10.04185881                3.99381362                2.95894908                1.00000000                0.35918876                0.29959695               -1.33978079               -0.05431934                0.00993617               -0.17397580
               0.04017666                5.00581037                3.03701787                1.00000000               -0.28225666               -0.20484248                1.19316069               -0.05929702                0.07333154                0.24645680
               1.03735410                5.00379014                3.01393913                0.95002723               -0.15880559               -0.10503836                0.46909624               -0.02946823                0.10726411               -0.05874777
               2.03700055                5.00145842                2.99092256                0.01080310                0.11888189                0.00798362               -0.19349601                0.11843631                1.28230582               -0.31276294
               3.03973174                5.00134866                2.99178554                0.00010000                0.28899616                0.16407882               -0.35585689               -0.02506304                2.51930104               -0.47870237
               4.04278048                4.99981100                2.99404922                0.00010000                0.24272554                0.11070454               -0.35045532                0.15429732                2.60008252               -0.14158321
               5.04458625                4.99893388                2.99590562                0.00010000                0.09351082                0.07576112               -0.25475277                0.32540848                2.61910005               -0.07819986
               6.04465069                4.99853308                2.99770408                0.00010000               -0.10539708                0.05099427               -0.12196235                0.34575039                2.69057498                0.00494857
               7.04247830                4.99853189                3.00130122                0.00010000               -0.31585407                0.04642121                0.06311730                0.21219266                2.93120858                0.21534227
               8.03833361                4.99815393                3.00918210                0.31584211               -0.17293649                0.10269085                0.03814307                0.05792210                1.64072677                0.45031457
               9.03901958                4.99679244                2.98694780                1.00000000                0.17885712                0.17549667               -0.59741705               -0.01618443                0.11471316                0.11814889
              10.04191075                4.99641637                2.96286985                1.00000000                0.28911781                0.22266618               -1.16000423               -0.04666095                0.00321453               -0.16300735
               0.04121887                6.00392296                3.03371987                1.00000000               -0.23773213               -0.17809958                1.07848279               -0.04542919                0.05716237                0.14893363
               1.03884155                6.00295242                3.00913012                0.81443772               -0.11308254               -0.06711039                0.31424320               -0.00916165                0.11856344               -0.08292627
               2.03895722                6.00181490                2.98528179                0.01403560               -0.03861548                0.04462064               -0.34111566                0.13415577                1.09884284               -0.24493427
               3.03806924                6.00275284                2.98067958                0.00010000                0.27786324                0.03380984               -0.07755534               -0.23290242                2.76202227               -0.67085323
               4.04451448                6.00075974                2.99145860                0.00010000                0.49590423                0.09478355               -0.52354766               -0.02335080                3.24130508               -0.18877167
               5.04798732                5.99968905                2.99573998                0.00010000                0.17008415                0.07044838               -0.27342792                0.21338108                2.97434877               -0.06525963
               6.04791617                5.99900350                2.99937037                0.00010000               -0.17625283                0.04126182               -0.02907881                0.25573275                3.07608354                0.01422011
               7.04446227                5.99893520                3.00593834                0.00989896               -0.41503689                0.02280343                0.28189724                0.16890441                3.39760452                0.19386163
               8.03961543                5.99886218                3.01737816                0.33319124               -0.23907354                0.03546640                0.13040678                0.07152836                1.86755713                0.38156602
               9.03968080                5.99820783                2.99205103                0.93920713                0.10311527                0.10029273               -0.34630095                0.02111442                0.04137264                0.11476562
              10.04167773                5.99826694                2.96675064                1.00000000                0.19969383                0.14082684               -0.90530944               -0.02441029                0.02275755               -0.10900484
               0.04120917                7.00224837                3.03013299                1.00000000               -0.19302417               -0.16240184                0.96321343               -0.04425731                0.03723983                0.06786651
               1.03927892                7.00244794                3.00449890                0.74879492               -0.06629610               -0.03551006                0.15186506               -0.01289475                0.12774917               -0.05677169
               2.03988324                7.00235083                2.98025905                0.03766576               -0.15750354                0.07126567               -0.53163771               -0.00321421                1.04679752               -0.11417149
               3.03612885                7.00202486                2.97307958                0.00010000                0.27470038                0.06317233                0.01510051               -0.25158225                2.98238732               -0.26262970
               4.04537725                7.00170667                2.98837200                0.00010000                0.72406267                0.09796003               -0.72342297                0.01366770                3.69865401               -0.22034155
               5.05061011                7.00034284                2.99521524                0.00010000                0.25709732                0.06914172               -0.31189968                0.12228574                3.32148354               -0.07136149
               6.05051920                6.99935831                3.00075908                0.00010000               -0.23061982                0.02933757                0.05239526                0.16840271                3.42595865                0.01283739
               7.04599771                6.99898796                3.01000253                0.02347196               -0.50138263               -0.01913030                0.48644564                0.10906910                3.82046596                0.15091730
               8.04049154                6.99886325                3.02490861                0.35742540               -0.29803029               -0.02959461                0.22596144                0.04754873                2.08334509                0.29580488
               9.04003710                6.99879829                2.99720999                0.89817304                0.04063962                0.03488046               -0.14142821                0.01781754               -0.01415959                0.11205704
              10.04130434                6.99923290                2.97110366                1.00000000                0.12672328                0.07846622               -0.66115921               -0.01695478                0.06327972               -0.01872313
               0.03993460                8.00067492                3.02645187                1.00000000               -0.14534025               -0.16298296                0.85764572               -0.04993746                0.05018630                0.01360376
               1.03848120                8.00224222                3.00068559                0.75455982               -0.03092951                0.00433144               -0.02380334               -0.03639749                0.19188930               -0.00186224
               2.03931601                8.00324021                2.97743714                0.09015490               -0.23997266                0.14599756               -0.74208762               -0.07058268                1.29577157                0.05280697
               3.03368175                8.00401629                2.97339252                0.00010000                0.35769188                0.31404635               -0.52700256               -0.26566908                3.05290928                0.03790548
               4.04646985                8.00271894                2.98512524                0.00010000                0.95498255                0.12229664               -0.92626190               -0.02429225                3.78901660               -0.22951998
               5.05278140                8.00107189                2.99439030                0.00010000                0.30846297                0.07207008               -0.35585631                0.06119392                3.66095873               -0.06338592
               6.05263911                7.99959025                3.00186817                0.00010000               -0.28213447                0.02829029                0.12062100                0.07733167                3.73685773                0.01255624
               7.04713871                7.99855259                3.01328275                0.03871973               -0.59415210               -0.04475188                0.67520807                0.01814742                4.13552125                0.10644218
               8.04075607                7.99827029                3.03064851                0.39098431               -0.37356053               -0.10971417                0.36662059               -0.04395790                2.26149443                0.07369527
               9.03966750                7.99890544                3.00239089                0.89232814               -0.01433259               -0.00322227                0.01077633               -0.02645162               -0.00852619                0.08315307
              10.04046942                7.99983626                2.97606040                0.97898136                0.08019174                0.09025298               -0.55846761               -0.04972849                0.08124891                0.05193285
               0.03707583                8.99898872                3.02276094                1.00000000               -0.10901474               -0.17566006                0.75821230               -0.04774442                0.09191115               -0.00813670
               1.03598568                9.00253456                2.99754025                0.81264410               -0.01891563                0.06426417               -0.20214316               -0.03660219                0.29685237                0.02390641
               2.03669752                9.00527078                2.97611391                0.17665994               -0.23244664                0.26187925               -1.03394263               -0.04050390                1.48020762                0.11318308
               3.03133675                9.00830578                2.97399059                0.00010000                0.55691460                0.32971833               -1.46952341               -0.29929105                2.97129342                0.02813569
               4.04783581                9.00415261                2.98169152                0.00010000                1.18129613                0.07484753               -1.07488452               -0.15315119                3.87312888               -0.16360051
               5.05496267                9.00178425                2.99353903                0.00010000                0.33746561                0.07176843               -0.39450433                0.01533092                3.99938320               -0.04069250
               6.05458512                8.99992412                3.00268179                0.00010000               -0.36410266                0.04326888                0.17955031                0.01562227                4.03035886                0.02041339
               7.04768062                8.99809292                3.01613029                0.04252192               -0.76627915                0.00104864                0.82171535               -0.08587582                4.23670508                0.07111942
               8.03925954                8.99666897                3.03224784                0.41759744               -0.48692614               -0.11291147                0.58380009               -0.14771379                2.34838407               -0.12263050
               9.03794210                8.99873385                3.00704254                0.95185256               -0.04057059               -0.05479493                0.21889047               -0.02803547                0.13069970                0.03840571
              10.03844813                9.00103796                2.98076059                0.96881237                0.05060304                0.13488770               -0.56638071               -0.06964860                0.06465937                0.03932270
               0.03188802                9.99716172                3.01901921                1.00000000               -0.04209249               -0.18269948                0.58171014                0.11779658                0.11386156               -0.00640540
               1.03146709               10.00352750                2.99419798                0.92876448                0.04233482                0.09929350               -0.39494422                0.11394491                0.34403091                0.05011816
               2.03273471               10.00847780                2.97367358                0.62090637               -0.13264975                0.32070196               -1.25016982               -0.04212252                1.52763290                0.15715972
               3.02881410               10.01061065                2.97177386                0.36502668                0.85968249                0.23048707               -1.61367741               -0.46536083                3.09000717                0.13386779
               4.04992836               10.00421589                2.97959462                0.35077291                1.42512028                0.00632790               -1.17354131               -0.19591459                4.07702180               -0.17295074
               5.05731650               10.00250725                2.99286979                0.37082725                0.33572595                0.07230074               -0.38974513                0.04737007                4.21440774               -0.02655367
               6.05664288               10.00045563                3.00307983                0.41822940               -0.43200809                0.05315057                0.23106362                0.00909184                4.23654064                0.03674853
               7.04867634                9.99857357                3.01786489                0.51057130               -0.97410096                0.04806496                0.92691382               -0.12260615                4.40689145                0.15241418
               8.03716086                9.99601206                3.03395356                0.70060540               -0.69692721               -0.06569126                0.73756956               -0.24806864                2.46436299               -0.20796671
               9.03473780                9.99780954                3.01085977                1.00000000               -0.13463266               -0.09243012                0.48809215                0.00566804                0.23750673                0.02491797
              10.03446821               10.00253402                2.98452410                0.99049429               -0.02695868                0.14960553               -0.41090708                0.07445566                0.06764372               -0.01065197
               0.03617528                0.03185577                4.07025732                1.00000000               -0.43628199               -0.50252826                1.72014437               -0.10489338               -0.23491078                0.27516766
               1.03181246                0.02175100                4.05048233                1.00000000               -0.35761013               -0.36413109                1.26281938               -0.08518542               -0.26273972               -0.01372464
               2.02902307                0.01143368                4.02998619                0.92101189               -0.19744185               -0.23959015                0.81372268               -0.06630881               -0.23471383               -0.15389357
               3.02786362                0.00141364                4.01073265                0.51661399                0.17641733               -0.12732836                0.37254716                0.17401188                0.30297832               -0.13861444
               4.03255142               -0.00374009                4.00098068                0.47437072                0.45081032               -0.19420987                0.16286375                0.09694365                1.00651136               -0.00822525
               5.03687983               -0.00497254                3.99382406                0.49659894                0.25635632               -0.02877501               -0.14884803               -0.01044515                1.06938621                0.00471098
               6.03767855               -0.00589355                3.98484855                0.55025974                0.01019800                0.15939799               -0.50652350                0.02278979                0.95940282                0.03292178
               7.03708379               -0.00975387                3.97472591                0.72745981                0.04428882                0.27322429               -0.80719537                0.08022007                0.61677070                0.01118922
               8.03856432               -0.01663733                3.95839856                1.00000000                0.25593213                0.32788525               -1.13700644               -0.00977836                0.13128004                0.20191791
               9.04220243               -0.02470838                3.93869866                1.00000000                0.43254686                0.42961120               -1.51054903               -0.06917175               -0.07635999                0.02095990
              10.04721526               -0.03260762                3.91835215                1.00000000                0.50128320                0.55415429               -1.90090956               -0.09139341               -0.12084475               -0.14965233
               0.04523111                1.02683048                4.06421661                1.00000000               -0.40594599               -0.47651368                1.59856491               -0.04743738               -0.00604174                0.38214605
               1.04117165                1.01810969                4.04411208                1.00000000               -0.33512198               -0.34062711                1.13575617               -0.03636322                0.04355239               -0.01240952
               2.03852867                1.00903777                4.02475491                0.57480927               -0.19905118               -0.21514628                0.69415266               -0.01707448                0.21456400               -0.35798397
               3.03719062                1.00014035                4.00808384                0.00010000               -0.09073605               -0.10362101                0.29741339                0.16286764                0.82701904               -0.41221804
               4.03671395                0.99431781                4.00122191                0.00010000                0.03307392               -0.01384437                0.12203589                0.45986962                1.35231941               -0.22726097
               5.03785210                0.99473971                3.99554436                0.00010000                0.17915811                0.00052621               -0.14728593                0.62235427                1.32543409               -0.16048668
               6.04029711                0.99570043                3.98795593                0.00010000                0.27028879                0.03174413               -0.46251044                0.50453489                1.16966485               -0.05356619
               7.04325788                0.99297838                3.97873618                0.23857386                0.28233426                0.25496539               -0.72635436                0.24744161                0.95651389                0.27267839
               8.04594379                0.98664152                3.96575319                1.00000000                0.31189882                0.30139958               -0.98217355                0.02807394                0.45353070                0.23895368
               9.04949585                0.97958774                3.94583588                1.00000000                0.41283870                0.40293278               -1.36831459               -0.01897590                0.09024661                0.06209456
              10.05420057                0.97293393                3.92542535                1.00000000                0.47047136                0.53193027               -1.77246648               -0.03383860                0.05205935               -0.17954037
               0.05266811                2.02232549                4.06017017                1.00000000               -0.37902136               -0.41787967                1.48842369               -0.06454893                0.04034200                0.49448922
               1.04887790                2.01493846                4.03777669                1.00000000               -0.30085970               -0.29000946                0.99369190               -0.05585319                0.07099450               -0.01683004
               2.04665092                2.00713075                4.01567658                0.23382793               -0.15184803               -0.16779090                0.50654977               -0.02649529                0.43802875               -0.57214592
               3.04584094                1.99934122                4.00066049                0.00010000                0.02492690               -0.08624071                0.13156239                0.31207643                1.42423219               -0.78018966
               4.04714946                1.99598302                3.99792458                0.00010000                0.10516738                0.15280039               -0.08187981                0.74486282                1.91737433               -0.38087210
               5.04794429                1.99503798                3.99428815                0.00010000                0.11905604                0.05703409               -0.22138454                0.89232251                1.78055272               -0.27651257
               6.04953058                1.99474133                3.98959673                0.00010000                0.15736200               -0.02781082               -0.36329131                0.87752921                1.85260664               -0.10915183
               7.05109153                1.99534544                3.98757111                0.00010000                0.14929308                0.05876384               -0.44346825                0.46136189                1.45835902                0.13478860
               8.05251644                1.98939066                3.97366871                0.43589017                0.22194893                0.24913703               -0.80884241               -0.00911341                0.59579230                0.43415833
               9.05553051                1.98335028                3.95378543                1.00000000                0.36648345                0.34334299               -1.22574827               -0.04193871                0.22096156                0.22952429
              10.05984611                1.97803099                3.93211692                1.00000000                0.43156033                0.48436528               -1.64161754               -0.04432059                0.11541257               -0.19389876
               0.05871419                3.01847289                4.05642754                1.00000000               -0.34648695               -0.35334572                1.37108173               -0.06862730                0.04793409                0.48695251
               1.05524933                3.01230950                4.03136449                1.00000000               -0.25590957               -0.23421829                0.83101409               -0.05694624                0.06194966               -0.02304875
               2.05359600                3.00568196                4.00622562                0.09531473               -0.03347203               -0.11816535                0.29426772               -0.05448210                0.58271761               -0.55103060
               3.05457988                2.99841554                3.99171111                0.00010000                0.11592172                0.06653816               -0.08263013                0.38476620                2.02084057               -0.39996841
               4.05591444                2.99737381                3.99483814                0.00010000                0.11801764                0.13082722               -0.19401669                0.68767813                2.57834907               -0.28401950
               5.05694024                2.99588039                3.99366138                0.00010000                0.08128996                0.09767285               -0.25028706                0.71826153                2.27290620               -0.20552833
               6.05754024                2.99514421                3.99155929                0.00010000                0.04477756                0.05014598               -0.31168062                0.67363588                2.16205881               -0.06815229
               7.05783579                2.99415365                3.98845978                0.00010000                0.01082244               -0.04680119               -0.34811215                0.45917003                2.05600059               -0.00987204
               8.05775669                2.99162426                3.98452013                0.30552951                0.10904820                0.19358587               -0.52083501                0.07255547                1.30370384                0.74349654
               9.06001675                2.98645460                3.96401650                1.00000000                0.30980271                0.29327811               -1.05924611               -0.05836499                0.23351792                0.29924120
              10.06395274                2.98262123                3.93899659                1.00000000                0.39359870                0.41874494               -1.48789952               -0.03767079               -0.01215376               -0.19003240
               0.06362235                4.01525858                4.05263514                1.00000000               -0.30924366               -0.29763615                1.25358180               -0.06218910                0.05686193                0.43526709
               1.06052991                4.01025409                4.02508750                1.00000000               -0.20835532               -0.17974308                0.66182033               -0.04773920                0.07204587               -0.02854972
               2.05945524                4.00476744                3.99748387                0.03644645                0.06572485               -0.06220791                0.07475870                0.05472405                1.18563961               -0.48485142
               3.06184441                4.00067198                3.99244538                0.00010000                0.19914656                0.20908651               -0.25940179                0.33512018                2.50840365               -0.01814467
               4.06343817                3.99859956                3.99267303                0.00010000                0.13473562                0.13452304               -0.26798101                0.49589269                2.74831934               -0.21846488
               5.06453912                3.99699144                3.99337945                0.00010000                0.06459330                0.11028224               -0.26176438                0.55352698                2.72191876               -0.15539189
               6.06473004                3.99574425                3.99367763                0.00010000               -0.03721188                0.06769856               -0.23821811                0.52717376                2.70948584               -0.01018061
               7.06379488                3.99440942                3.99461723                0.00010000               -0.15317154                0.04992233               -0.21245240                0.41665754                2.87178846                0.26448564
               8.06166661                3.99326238                3.99812171                0.30703345               -0.02143217                0.14240610               -0.24358285                0.10563586                1.63037804                0.77202199
               9.06336624                3.98921584                3.97278271                1.00000000                0.25464090                0.25075159               -0.85853586               -0.04552790                0.10813891                0.20484783
              10.06675942                3.98640589                3.94564376                1.00000000                0.33931861                0.33629351               -1.31503073               -0.04086224                0.00177057               -0.21242665
               0.06747938                5.01252017                4.04859445                1.00000000               -0.26937062               -0.25913432                1.14048417               -0.05700909                0.07021772                0.35946713
               1.06478568                5.00871464                4.01889967                0.94483297               -0.16033926               -0.13204705                0.50271128               -0.03984066                0.09133828               -0.05185387
               2.06427260                5.00443780                3.98931444                0.01501454                0.13322468               -0.00686157               -0.12955457                0.11810398                1.54603553               -0.43601833
               3.06745017                5.00259727                3.98897401                0.00010000                0.26201178                0.13186920               -0.24196461                0.29710486                3.09253399               -0.36866376
               4.06951283                5.00006428                3.99046630                0.00010000                0.17079588                0.13113372               -0.31983043                0.29893304                3.16353203               -0.28201850
               5.07086609                4.99808604                3.99317528                0.00010000                0.05764522                0.10674895               -0.26647178                0.39152919                3.18960475               -0.13483733
               6.07066574                4.99649819                3.99643535                0.00010000               -0.11076360                0.07602234               -0.15159061                0.39318770                3.26778393                0.03677729
               7.06865081                4.99515210                4.00134579                0.00693600               -0.28013799                0.06850378               -0.05411280                0.34081745                3.49184615                0.27830889
               8.06506298                4.99447238                4.00880969                0.31915089               -0.13440644                0.10277103               -0.07068490                0.12038531                1.88668081                0.58947928
               9.06596269                4.99146963                3.98075224                1.00000000                0.18462142                0.19103492               -0.63033716               -0.02864628                0.07197829                0.15250779
              10.06875541                4.98934710                3.95157160                1.00000000                0.27927194                0.26003089               -1.12321937               -0.04096657                0.00712220               -0.22280860
               0.07009322                6.01007589                4.04418405                1.00000000               -0.22777542               -0.23288216                1.03179434               -0.06139977                0.07019442                0.28278388
               1.06781546                6.00761315                4.01258834                0.80386445               -0.10792654               -0.08899907                0.34340376               -0.04363071                0.11829260               -0.08088608
               2.06793469                6.00463021                3.98164064                0.01744748                0.21722809                0.03647534               -0.34031297                0.08505402                1.72571802               -0.41512106
               3.07216003                6.00330937                3.98227844                0.00010000                0.29966891                0.02527724               -0.02706075                0.24004310                3.71523853               -0.53547045
               4.07392807                6.00122224                3.98657657                0.00010000                0.18878831                0.10213318               -0.37373464                0.19423316                3.77013611               -0.36960324
               5.07593579                5.99912642                3.99271736                0.00010000                0.07998311                0.10251248               -0.28262413                0.26126270                3.72054198               -0.14105316
               6.07552773                5.99726470                3.99909285                0.00010000               -0.16493804                0.07048332               -0.06478693                0.27500569                3.78671108                0.04122608
               7.07263703                5.99577949                4.00750057                0.01734004               -0.38854732                0.04876467                0.09500192                0.26224343                4.05384163                0.24273612
               8.06775678                5.99531780                4.01865122                0.33665679               -0.23592186                0.05464722                0.11262364                0.09701366                2.11979392                0.51792228
               9.06791859                5.99303654                3.98822832                0.94067071                0.12141816                0.12421948               -0.40430679               -0.02500437                0.03598790                0.13282796
              10.07018515                5.99160651                3.95740766                1.00000000                0.22665507                0.19453466               -0.94092520               -0.03278948                0.02439811               -0.18765426
               0.07117686                7.00786252                4.03954174                1.00000000               -0.18181239               -0.20882068                0.92448718               -0.06903211                0.04989660                0.22849900
               1.06935874                7.00693466                4.00619849                0.72855988               -0.04497000               -0.04550972                0.15879215               -0.06294669                0.12282322               -0.07006752
               2.07027746                7.00516731                3.97396812                0.04298162                0.31501328                0.09061194               -0.61200291               -0.03526432                1.88185624               -0.34427744
               3.07565901                7.00310282                3.97560426                0.00010000                0.36514884               -0.00421876               -0.04771214                0.14818839                4.24321505               -0.57662133
               4.07758044                7.00210694                3.98192305                0.00010000                0.21949361                0.12526015               -0.47809272                0.19716323                4.31924496               -0.38439471
               5.08004888                7.00013629                3.99173932                0.00010000                0.09661688                0.10119946               -0.31121719                0.17264015                4.24666858               -0.13937490
               6.07951278                6.99790785                4.00136990                0.00010000               -0.21031470                0.05977121                0.01578461                0.16490912                4.28139733                0.03377500
               7.07584258                6.99612739                4.01310814                0.02774011               -0.48832887                0.01523697                0.24724053                0.16402595                4.57014385                0.20529363
               8.06974620                6.99556533                4.02775535                0.35807596               -0.33343458               -0.00779285                0.29790148                0.04458398                2.34536882                0.43023836
               9.06917389                6.99395402                3.99552274                0.90039336                0.06067431                0.06347630               -0.19358166               -0.03307108                0.00693688                0.13853479
              10.07095969                6.99323780                3.96327305                1.00000000                0.17857947                0.15087028               -0.79239747               -0.04047463                0.02395010               -0.13049243
               0.07056831                8.00589948                4.03487705                1.00000000               -0.13165584               -0.18917723                0.81816661               -0.07252579                0.05411796                0.19965934
               1.06925175                8.00670296                4.00032841                0.72056892                0.02464685                0.00980941               -0.05668728               -0.07402801                0.15951924               -0.01911411
               2.07106124                8.00644245                3.96748044                0.09926324                0.44662056                0.20546486               -0.97767959               -0.18901192                1.85121070               -0.19127070
               3.07818416                8.00322499                3.96597181                0.00010000                0.48883083                0.22392357               -0.76376436               -0.09421447                4.58407983               -1.08282325
               4.08083786                8.00372744                3.97697603                0.00010000                0.27017613                0.17655053               -0.65043836                0.18018886                4.89075336               -0.28776923
               5.08358768                8.00115041                3.99048748                0.00010000                0.09984719                0.09348348               -0.34185440                0.08350777                4.73585325               -0.11485169
               6.08283480                7.99846012                4.00324224                0.00010000               -0.26638042                0.06765357                0.08818165                0.06982940                4.73403408                0.03048342
               7.07826007                7.99608423                4.01802669                0.03500640               -0.60064846               -0.00651136                0.40853725                0.03557068                5.01619744                0.15560230
               8.07082184                7.99516194                4.03562867                0.38162960               -0.43376840               -0.10217314                0.53378751               -0.04112679                2.57321413                0.26048182
               9.06958471                7.99430607                4.00261246                0.89442776               -0.00068686                0.00653693                0.00339148               -0.04645452                0.02554526                0.13387184
              10.07080810                7.99462391                3.96916853                0.97200637                0.12233919                0.13810441               -0.67995620               -0.04832495                0.01779704               -0.08773590
               0.06811939                9.00407898                4.03020600                1.00000000               -0.07841809               -0.17868120                0.70985423               -0.05956568                0.09232277                0.15193169
               1.06733521                9.00713085                3.99497015                0.76595722                0.09279030                0.08589440               -0.29370744               -0.04626696                0.24631188                0.00710860
               2.06997519                9.00927660                3.96219249                0.17702780                0.45772600                0.37901703               -1.37682407               -0.20963052                1.40184591               -0.07026324
               3.07648973                9.00758129                3.94839814                0.00010000                0.66418027                0.61819915               -1.96262410               -0.29362404                4.67045220               -0.89186262
               4.08325880                9.00563795                3.97316697                0.00010000                0.52483114                0.12999918               -0.79277401                0.00986512                5.76029675               -0.18356875
               5.08698635                9.00200596                3.98926115                0.00010000                0.13583726                0.09103516               -0.36482718                0.02370634                5.12804145               -0.06560156
               6.08597554                8.99926092                4.00476613                0.00010000               -0.35670850                0.07736129                0.15433242                0.01421845                5.13342145                0.03148142
               7.07985218                8.99599716                4.02202486                0.02937740               -0.76368574                0.06781581                0.53932887               -0.07458747                5.35754017                0.07688630
               8.07070183                8.99352187                4.04137041                0.39494136               -0.55346731               -0.26190982                0.93359432               -0.18669449                2.85391478                0.10440947
               9.06878283                8.99408476                4.00940043                0.94250762               -0.06721645               -0.06498024                0.22274688               -0.04934853                0.14175147                0.09438497
              10.06935750                8.99599988                3.97484189                0.95762264                0.05746669                0.13706607               -0.56450509               -0.05113842                0.01227192               -0.07743248
               0.06327326               10.00232585                4.02470627                1.00000000               -0.01444730               -0.17531254                0.53352241                0.12488637                0.19363419                0.12206212
               1.06312879               10.00842085                3.98944251                0.91263835                0.15724671                0.12899995               -0.51691207                0.16420483                0.37567919                0.01451422
               2.06641819               10.01402279                3.95718995                0.61905873                0.64107728                0.47461889               -1.60339310                0.00270631                1.50259028               -0.01179688
               3.07595033               10.01558897                3.94268060                0.35941694                1.00961507                0.80076859               -2.23296686               -0.43870788                4.90748035               -0.28558546
               4.08661049               10.00632742                3.97005722                0.35132752                0.72442520                0.06894739               -0.89199471               -0.29572346                6.11977855               -0.14335349
               5.09043884               10.00297111                3.98860303                0.37266682                0.12587348                0.09651568               -0.36208128                0.02924491                5.45184675               -0.03024458
               6.08912796               10.00000735                4.00585482                0.41960201               -0.39657266                0.07464262                0.21728909                0.03871378                5.43623263                0.03758698
               7.08250738                9.99744055                4.02476262                0.50793621               -1.00638054                0.14433827                0.65357405               -0.23865992                5.72388111                0.07278058
               8.06900035                9.98992375                4.04644283                0.69662441               -0.81938322               -0.35981201                1.22755868               -0.39185184                3.11756916               -0.04051939
               9.06611972                9.99300646                4.01566793                1.00000000               -0.15226388               -0.10782944                0.46232288                0.10576279                0.28381627                0.06734399
              10.06595508                9.99736523                3.98068795                0.98450020               -0.01646422                0.13653488               -0.36530489                0.09563457                0.07895174               -0.08008690
               0.05579859                0.04143641                5.08730935                1.00000000               -0.43081293               -0.49283036                1.68641667               -0.09818716               -0.26302240                0.31310309
               1.05149046                0.02862612                5.06312952                1.00000000               -0.35445326               -0.36446911                1.26370807               -0.07561895               -0.29056702               -0.01417013
               2.04870953                0.01556667                5.03827928                0.92680686               -0.19528583               -0.24740980                0.83960815               -0.05799078               -0.25331936               -0.18039027
               3.04758474                0.00286279                5.01482733                0.53125185                0.22341596               -0.15362670                0.43759494                0.22325991                0.39500364               -0.16619134
               4.05317784               -0.00394062                5.00288307                0.51196671                0.49616321               -0.22237637                0.20861690                0.07878132                1.12724951               -0.01696788
               5.05750801               -0.00663610                4.99246227                0.54391657                0.27107456               -0.03912664               -0.12916914               -0.01775071                1.07837231                0.00446085
               6.05859934               -0.00887557                4.97974879                0.58584855                0.03651227                0.14431622               -0.50628336                0.01228900                0.95619773                0.02957668
               7.05823825               -0.01393797                4.96649930                0.75116565                0.05493618                0.26003593               -0.82389542                0.07513153                0.63761368                0.02670443
               8.05969806               -0.02246246                4.94698636                1.00000000                0.25338128                0.33913833               -1.14855570                0.00103594                0.13117056                0.23842718
               9.06330588               -0.03227635                4.92366075                1.00000000                0.42718894                0.43139485               -1.50133760               -0.05748721               -0.10130828                0.02712153
              10.06824184               -0.04195596                4.89955189                1.00000000                0.49359583                0.54375266               -1.86161871               -0.08269718               -0.14729250               -0.17467468
               0.06762702                1.03650811                5.07997742                1.00000000               -0.39578713               -0.47043646                1.55304443               -0.04430872               -0.00509010                0.43276169
               1.06366914                1.02498143                5.05541765                1.00000000               -0.33078686               -0.34087360                1.12592875               -0.02945373                0.05341312               -0.01535054
               2.06101128                1.01309257                5.03183553                0.58910454               -0.20490779               -0.22052922                0.71852363               -0.01451583                0.25802570               -0.41189657
               3.05957099                1.00132653                5.01140274                0.00010000               -0.11480874               -0.14099843                0.34886501                0.22853202                0.99750195               -0.46815923
               4.05871510                0.99383561                5.00281765                0.00010000                0.01134929               -0.02693304                0.17996946                0.52663467                1.54140367               -0.29711643
               5.05979797                0.99297264                4.99421798                0.02545237                0.18290288               -0.00775282               -0.12402914                0.66760143                1.40646683               -0.18791634
               6.06237316                0.99256759                4.98323530                0.00959839                0.29925216                0.02509112               -0.46961214                0.54279845                1.24470704               -0.03299944
               7.06578302                0.98866239                4.97133499                0.25829875                0.32522250                0.26980551               -0.74445030                0.29876068                1.04973868                0.33428671
               8.06887761                0.98092892                4.95567903                1.00000000                0.33473680                0.31236601               -1.01824285                0.05678685                0.50827104                0.28917833
               9.07247775                0.97203759                4.93215638                1.00000000                0.41084280                0.40717485               -1.36463788               -0.01156446                0.08691127                0.07110462
              10.07709447                0.96348157                4.90797848                1.00000000                0.46167137                0.52386240               -1.72524298               -0.03079083                0.04669049               -0.20728527
               0.07796578                2.03202768                5.07482967                1.00000000               -0.36488584               -0.42306263                1.44281533               -0.05745781                0.04196398                0.55834392
               1.07431693                2.02180864                5.04766232                1.00000000               -0.29458390               -0.29282821                0.98354689               -0.04653780                0.07443188               -0.02855307
               2.07207411                2.01115608                5.02088256                0.25123329               -0.14522928               -0.16757085                0.53607639               -0.04419011                0.50496058               -0.66822064
               3.07141234                2.00004283                5.00237108                0.00010000               -0.00048386               -0.10696693                0.19108176                0.36708455                1.60657462               -0.90466286
               4.07206443                1.99552072                4.99748242                0.00010000                0.03578583                0.16218658               -0.00258855                0.88497178                2.20392890               -0.50443904
               5.07212806                1.99320885                4.99220894                0.00010000                0.08505605                0.06090095               -0.15983607                0.99695527                2.04818951               -0.33215023
               6.07376555                1.99162626                4.98575592                0.00010000                0.18620429               -0.01815080               -0.43217563                0.98861636                2.14476853               -0.07562754
               7.07585214                1.99145814                4.98253636                0.00010000                0.18465211                0.07150533               -0.52824307                0.54966482                1.64145354                0.21589143
               8.07745859                1.98378486                4.96523197                0.42719604                0.23348983                0.25547886               -0.85946593                0.01413374                0.63234758                0.54797212
               9.08052194                1.97586714                4.94152877                1.00000000                0.36397375                0.35694006               -1.22212627               -0.02499831                0.22244867                0.24937648
              10.08473807                1.96852129                4.91595524                1.00000000                0.42161281                0.48076841               -1.59731782               -0.03804284                0.12025944               -0.21995537
               0.08691594                3.02804686                5.06993046                1.00000000               -0.33059497               -0.37347225                1.32935635               -0.06064447                0.04150663                0.55912029
               1.08360999                3.01912486                5.03967265                1.00000000               -0.25113218               -0.24308167                0.82879348               -0.04757410                0.05299642               -0.03931908
               2.08189329                3.00974115                5.00935559                0.10166247               -0.05309716               -0.11433499                0.32918012               -0.07549311                0.63807985               -0.65965622
               3.08254805                2.99918719                4.99091459                0.00010000                0.06776121                0.09013242               -0.05449818                0.39139275                2.24155447               -0.49572017
               4.08324852                2.99707935                4.99325105                0.00010000                0.05417484                0.15137331               -0.13498287                0.79925536                2.97958227               -0.38124308
               5.08363154                2.99419066                4.99115719                0.00010000                0.03238371                0.11716245               -0.23720849                0.83160903                2.66033214               -0.25011865
               6.08389619                2.99220458                4.98845573                0.00010000                0.04930850                0.06388422               -0.32182843                0.78436963                2.52511422               -0.04372135
               7.08461771                2.99009250                4.98434838                0.00010000                0.04275458               -0.05238336               -0.43976068                0.54063624                2.41143499                0.02437698
               8.08475128                2.98603850                4.97893853                0.29584829                0.13118196                0.20871912               -0.60743353                0.13924649                1.36856761                0.88157092
               9.08724135                2.97917639                4.95350460                1.00000000                0.31370130                0.30959845               -1.04603371               -0.02779243                0.19011836                0.33222838
              10.09102531                2.97309694                4.92428181                1.00000000                0.37839594                0.42343892               -1.45374613               -0.03624304               -0.01249993               -0.20509125
               0.09459689                4.02455824                5.06497251                1.00000000               -0.29257390               -0.32980296                1.21513220               -0.05839112                0.04593767                0.52584015
               1.09167115                4.01694701                5.03177544                1.00000000               -0.20474851               -0.19363195                0.66960374               -0.04189835                0.05839955               -0.03755947
               2.09050192                4.00886938                4.99852437                0.03277426                0.01154271               -0.05799367                0.12401713                0.04260464                1.28422936               -0.58839818
               3.09190200                4.00184547                4.99000732                0.00010000                0.12720768                0.24775703               -0.21320376                0.37806510                2.86951811               -0.04139340
               4.09304607                3.99854818                4.99020554                0.00010000                0.08665014                0.15938715               -0.23257942                0.61539761                3.25657802               -0.27423731
               5.09363501                3.99555210                4.99076228                0.00010000                0.02525153                0.13542832               -0.25633839                0.65667546                3.20823668               -0.18177052
               6.09355110                3.99290394                4.99117484                0.00010000               -0.04020278                0.08244114               -0.26453156                0.63990202                3.19072180                0.00255539
               7.09283095                3.99041047                4.99204963                0.00010000               -0.11957383                0.05611160               -0.28970672                0.51892374                3.32445007                0.34713310
               8.09115962                3.98795924                4.99497770                0.29858556                0.00383496                0.16877514               -0.35441670                0.17790656                1.77287910                0.86154453
               9.09290765                3.98205911                4.96420933                1.00000000                0.25062471                0.26102911               -0.85436484               -0.02566447                0.05092102                0.24962284
              10.09617212                3.97699007                4.93264846                1.00000000                0.32644697                0.35496765               -1.28682920               -0.03744557                0.00009908               -0.22650434
               0.10097057                5.02145080                5.05982755                1.00000000               -0.25096950               -0.29634478                1.10457951               -0.05899298                0.06129276                0.47172793
               1.09846088                5.01525222                5.02399336                0.93220247               -0.15618238               -0.14555671                0.51067550               -0.03949273                0.08610453               -0.05339127
               2.09784692                5.00858128                4.98833147                0.00660646                0.09848353               -0.00052961               -0.07555518                0.10848362                1.79925983               -0.53514361
               3.10043055                5.00414233                4.98694624                0.00010000                0.20014629                0.17838526               -0.19806987                0.36109414                3.54110432               -0.29061370
               4.10184985                5.00026709                4.98765261                0.00010000                0.09893741                0.16813690               -0.26953304                0.45945516                3.67966974               -0.27743611
               5.10240930                4.99689922                4.99057618                0.00010000               -0.00069979                0.13759226               -0.25484963                0.49165969                3.77305133               -0.16033908
               6.10183585                4.99385340                4.99467227                0.00010000               -0.12342042                0.09947655               -0.19509323                0.48157916                3.86057310                0.05577165
               7.09994089                4.99121473                5.00021896                0.00261210               -0.25875380                0.08085515               -0.14536166                0.43551883                4.03082613                0.35304034
               8.09666078                4.98941400                5.00776841                0.31134224               -0.11218285                0.11578621               -0.13487439                0.16530894                2.10059673                0.66752664
               9.09769723                4.98439698                4.97434106                1.00000000                0.18768514                0.20173917               -0.64527576               -0.02406232                0.03555524                0.20256283
              10.10041448                4.98019629                4.94040547                1.00000000                0.27172509                0.29111652               -1.11133375               -0.03832352                0.00281561               -0.24872648
               0.10581418                6.01863134                5.05435576                1.00000000               -0.20633671               -0.26627211                0.99503783               -0.06339527                0.06611144                0.41442333
               1.10375081                6.01403588                5.01599819                0.79018505               -0.10163485               -0.09728531                0.33935435               -0.04622112                0.12551288               -0.08848675
               2.10378148                6.00885879                4.97847553                0.00746895                0.18436319                0.05220982               -0.29708543                0.08224861                2.11741051               -0.54061591
               3.10743808                6.00541318                4.98013837                0.00010000                0.28483999                0.13283635               -0.25912720                0.28299038                4.11001203               -0.47973469
               4.10947828                6.00191092                4.98398391                0.00010000                0.12219055                0.16761150               -0.27380286                0.33340000                4.29557126               -0.35816992
               5.10988189                5.99830394                4.99008750                0.00010000               -0.03055525                0.14430037               -0.24852844                0.33349426                4.38464303               -0.16924429
               6.10886718                5.99489347                4.99807463                0.00010000               -0.19505793                0.10155109               -0.12174066                0.33330556                4.50253762                0.05821762
               7.10598073                5.99202758                5.00783838                0.01218544               -0.37918108                0.06764893                0.00032700                0.32278689                4.67989876                0.31712323
               8.10128355                5.99027496                5.01963064                0.32847010               -0.21683089                0.05382830                0.08008469                0.11949299                2.41689093                0.59035085
               9.10164411                5.98609390                4.98396490                0.94355198                0.12617318                0.13939350               -0.43558829               -0.02508261                0.03931507                0.17469834
              10.10380702                5.98281240                4.94793214                1.00000000                0.21629083                0.23329486               -0.94458236               -0.03473779                0.01344698               -0.24333912
               0.10889360                7.01612536                5.04862273                1.00000000               -0.15845932               -0.23137471                0.87981726               -0.06688073                0.04729125                0.37728349
               1.10730901                7.01330652                5.00767474                0.71276553               -0.03895028               -0.04738012                0.14436046               -0.05912496                0.13046066               -0.09791258
               2.10811459                7.00962548                4.96801900                0.03240416                0.28646092                0.11658210               -0.57302975                0.02039414                2.37091462               -0.53464056
               3.11303823                7.00679906                4.97212534                0.00010000                0.37562477                0.20763857               -0.41735492                0.12117600                4.61097110               -0.71721572
               4.11562709                7.00361932                4.97881014                0.00010000                0.15292037                0.19043563               -0.33280553                0.16385700                4.89199252               -0.43517428
               5.11609663                6.99978523                4.98899089                0.00010000               -0.04243804                0.14745429               -0.25267218                0.18077374                5.02303776               -0.17074472
               6.11477833                6.99588442                5.00107477                0.00010000               -0.25407501                0.09551055               -0.04927295                0.18479396                5.12819062                0.05005469
               7.11101513                6.99256771                5.01494734                0.02017183               -0.48970042                0.03601738                0.15054864                0.18508179                5.29947862                0.27957658
               8.10498432                6.99049057                5.03086664                0.34818631               -0.31784960               -0.02050500                0.30536731                0.04840816                2.72959349                0.51434714
               9.10465814                6.98718485                4.99333836                0.90003918                0.06491965                0.08056476               -0.23001104               -0.03169682                0.04652230                0.16250341
              10.10628271                6.98486219                4.95525571                1.00000000                0.16245730                0.18501536               -0.79471204               -0.03695532                0.00903269               -0.22788296
               0.11011424                8.01400385                5.04281520                1.00000000               -0.10460514               -0.19636150                0.75650948               -0.06653806                0.04507884                0.36147620
               1.10906819                8.01308827                4.99955184                0.70038573                0.02912901                0.01280567               -0.07822022               -0.05984956                0.14453525               -0.07429048
               2.11069682                8.01119043                4.95788355                0.08411169                0.33997799                0.22652644               -0.92069275               -0.01652352                2.30133721               -0.45481384
               3.11586775                8.00956595                4.95811724                0.00010000                0.45362127                0.34803413               -0.67818628               -0.23688549                4.94470712               -1.33773618
               4.11976925                8.00571963                4.97211647                0.00010000                0.26822525                0.18903622               -0.48243643               -0.08806420                5.66971214               -0.44086201
               5.12123226                8.00125303                4.98755321                0.00010000                0.00056637                0.12857172               -0.27197092                0.04558756                5.66878234               -0.13895345
               6.11978058                7.99680368                5.00363181                0.00010000               -0.30780178                0.10283731                0.01955548                0.06032070                5.71709044                0.04281049
               7.11507622                7.99274792                5.02145349                0.02412063               -0.60729992                0.01635062                0.30699554                0.01365955                5.88640426                0.21793035
               8.10763458                7.98986486                5.04132426                0.36914372               -0.42188356               -0.12737832                0.57190447               -0.05323978                3.04774904                0.41510229
               9.10663855                7.98770519                5.00245872                0.89689417                0.00393249                0.01906155               -0.02700047               -0.03523238                0.07215834                0.15770888
              10.10771323                7.98651271                4.96246128                0.96966497                0.10746780                0.15538518               -0.65684629               -0.04285166                0.00697578               -0.22242657
               0.10939399                9.01219813                5.03695802                1.00000000               -0.04685574               -0.17007152                0.62763250               -0.05485095                0.06593364                0.29292449
               1.10892543                9.01356263                4.99166610                0.74026397                0.09562293                0.08923887               -0.32319122               -0.03066577                0.19658732               -0.05631179
               2.11130645                9.01415600                4.94857742                0.14323452                0.24229414                0.35282520               -1.28626306               -0.04756414                1.74462031               -0.29697816
               3.11377131                9.01375974                4.93473811                0.00010000                0.54361416                0.33840312               -0.99304501               -0.42636394                5.19996120               -1.08880104
               4.12217873                9.00740004                4.96583603                0.00010000                0.60765113                0.09243382               -0.67220501               -0.23854088                6.85674040               -0.32371798
               5.12592434                9.00235666                4.98624248                0.00010000                0.11555568                0.09827884               -0.29116615               -0.00676444                6.24057248               -0.07277351
               6.12448984                8.99794117                5.00576844                0.00010000               -0.38485977                0.11131575                0.08090409               -0.00172852                6.23254755                0.03103489
               7.11822714                8.99289472                5.02691687                0.02052491               -0.77637925                0.09028680                0.45808617               -0.12542231                6.43667756                0.11646999
               8.10896226                8.98794300                5.05091972                0.38423442               -0.54607469               -0.24040180                0.90835320               -0.21781441                3.40373307                0.26413402
               9.10730565                8.98756608                5.01149748                0.94537149               -0.05758076               -0.05418820                0.19215783               -0.02213230                0.12472002                0.13941065
              10.10781064                8.98796989                4.96947049                0.95653242                0.05049963                0.13637303               -0.51507227               -0.04491939               -0.00945119               -0.18941557
               0.10628822               10.01060242                5.02968966                1.00000000                0.02087803               -0.15957067                0.45051712                0.11648616                0.24228629                0.24058896
               1.10649700               10.01487305                4.98385974                0.89897624                0.16301068                0.13104226               -0.54628840                0.13938257                0.44061346               -0.05478827
               2.10954843               10.01824694                4.94160572                0.59198545                0.37997182                0.40909328               -1.48061150               -0.10275355                1.98256817               -0.22772270
               3.11409643               10.01633401                4.92711453                0.35660902                0.84265382                0.25742741               -1.20418776               -0.50141932                5.49327749               -0.61085767
               4.12640151               10.00756831                4.96175473                0.35154021                0.82297038                0.01682673               -0.74806429               -0.23349282                7.32289439               -0.26203894
               5.13055584               10.00321860                4.98562817                0.37388081                0.14032208                0.08619396               -0.29472168                0.03623478                6.66816985               -0.03636294
               6.12920795                9.99903000                5.00742562                0.42041460               -0.39949482                0.10888266                0.13463408                0.03856339                6.63869571                0.03665681
               7.12256595                9.99455366                5.03093637                0.50723004               -1.03005086                0.16589404                0.58100906               -0.26477805                6.91997275                0.07222701
               8.10860693                9.98505683                5.05850474                0.69485070               -0.81984675               -0.28861721                1.13214231               -0.43214443                3.80698124                0.21098364
               9.10616901                9.98662143                5.02010622                1.00000000               -0.12998603               -0.09446520                0.41509964                0.09550338                0.32127404                0.13096761
              10.10600721                9.98924017                4.97721800                0.98455492               -0.01617993                0.12702761               -0.32880158                0.08153099                0.09927366               -0.16073159
               0.07927447                0.05278169                6.10398565                1.00000000               -0.42432926               -0.48162901                1.64820125               -0.09159606               -0.30201094                0.35597213
               1.07503118                0.03689136                6.07575649                1.00000000               -0.35077976               -0.36214677                1.25825302               -0.06835315               -0.33274821               -0.01328103
               2.07225888                0.02071339                6.04677835                0.93993944               -0.19356374               -0.25168163                0.85454562               -0.05309646               -0.28415098               -0.19636721
               3.07115991                0.00493900                6.01948455                0.54709627                0.26012966               -0.17055842                0.48218482                0.26676275                0.45114155               -0.19751079
               4.07746147               -0.00394862                6.00515301                0.54779262                0.52108225               -0.22752586                0.23406473                0.05984309                1.17729332               -0.02056160
               5.08158155               -0.00839474                5.99124067                0.58861876                0.26520000               -0.03705408               -0.11762615               -0.01809757                1.04244373                0.00268972
               6.08276547               -0.01227504                5.97472288                0.61929210                0.05084693                0.13083517               -0.49549382                0.00605676                0.91885415                0.02332061
               7.08259849               -0.01889115                5.95824800                0.77282882                0.06304093                0.25182035               -0.82505127                0.07208931                0.62062047                0.02780610
               8.08402629               -0.02925413                5.93542745                1.00000000                0.25061227                0.34336099               -1.15788832                0.01284961                0.10227058                0.26445115
               9.08761074               -0.04115722                5.90867191                1.00000000                0.42304199                0.42990259               -1.49529398               -0.05261797               -0.13783554                0.03000087
              10.09248713               -0.05295428                5.88111978                1.00000000                0.48763946                0.53391495               -1.82993091               -0.07940006               -0.18307588               -0.20576253
               0.09424885                1.04796540                6.09527750                1.00000000               -0.38670449               -0.46211784                1.50880185               -0.04117014               -0.01023916                0.49002796
               1.09038180                1.03326989                6.06663066                1.00000000               -0.32723778               -0.33894824                1.11560502               -0.02431814                0.05528504               -0.01304411
               2.08770409                1.01819657                6.03912538                0.61431209               -0.21116327               -0.22335567                0.73547264               -0.01269920                0.28256894               -0.45288184
               3.08615854                1.00323342                6.01506114                0.00010000               -0.14886575               -0.16014467                0.37659795                0.28961061                1.13456483               -0.51817742
               4.08472678                0.99377612                6.00482129                0.03511585               -0.02973741               -0.02952730                0.20701870                0.59650042                1.68309304               -0.34784961
               5.08556379                0.99123472                5.99306378                0.07814112                0.16737339               -0.00747420               -0.11116531                0.71551075                1.43908540               -0.18233338
               6.08807424                0.98903331                5.97856369                0.04806297                0.31225688                0.01417005               -0.46104661                0.58626968                1.27978513               -0.06083050
               7.09180893                0.98362705                5.96384717                0.27928817                0.36067882                0.27705135               -0.74817032                0.34961199                1.10924243                0.39662139
               8.09528782                0.97417948                5.94538834                1.00000000                0.35628547                0.31723673               -1.03194302                0.08297246                0.53905296                0.32356959
               9.09893463                0.96314181                5.91854313                1.00000000                0.41011881                0.40734038               -1.35649723               -0.00745759                0.08478264                0.07425786
              10.10349020                0.95238487                5.89092049                1.00000000                0.45555612                0.51414163               -1.69121518               -0.03013334                0.04075135               -0.24240109
               0.10784209                2.04353933                6.08902648                1.00000000               -0.35284446               -0.42264763                1.39835548               -0.05213983                0.04028295                0.63120587
               1.10431365                2.03011239                6.05744762                1.00000000               -0.29003641               -0.29299436                0.97348594               -0.03953713                0.07761463               -0.02984518
               2.10204136                2.01624627                6.02639811                0.26653013               -0.14705413               -0.16747737                0.56432032               -0.04823539                0.55826962               -0.75098563
               3.10137256                2.00173611                6.00448213                0.00010000               -0.03255908               -0.11842585                0.22472615                0.42857691                1.77530357               -1.00650415
               4.10139018                1.99546084                5.99787281                0.00010000               -0.03689924                0.16248563                0.10534237                1.01281860                2.46463615               -0.62139136
               5.10063458                1.99145577                5.99109143                0.00010000                0.03541735                0.05449828               -0.00710076                1.09629714                2.17838569               -0.34796318
               6.10209853                1.98800836                5.98095321                0.00010000                0.19049880               -0.00912204               -0.56109938                1.09855938                2.29672802               -0.08244805
               7.10444456                1.98664988                5.97700625                0.00010000                0.20362272                0.07504329               -0.56097667                0.64275072                1.81124308                0.26602569
               8.10617098                1.97709061                5.95647939                0.41816987                0.24058229                0.26652294               -0.88063369                0.05118548                0.66632635                0.62364827
               9.10925620                1.96698959                5.92934291                1.00000000                0.36136826                0.36383969               -1.21304296               -0.01104287                0.23479640                0.26890128
              10.11339835                1.95732855                5.90017056                1.00000000                0.41421471                0.47206626               -1.56367808               -0.03319727                0.12686034               -0.25507583
               0.12005993                3.03951245                6.08301467                1.00000000               -0.31758134               -0.38305252                1.28834143               -0.05558620                0.03662265                0.63798796
               1.11688412                3.02741000                6.04794036                1.00000000               -0.24721336               -0.24650946                0.82352321               -0.04165115                0.04561590               -0.04450767
               2.11511566                3.01484702                6.01280922                0.10704052               -0.06843038               -0.11113366                0.35873335               -0.08392607                0.68550394               -0.75619719
               3.11551551                3.00086490                5.99062115                0.00010000                0.00739097                0.10381749               -0.00313520                0.41799211                2.50004163               -0.60888571
               4.11526348                2.99702584                5.99213848                0.00010000               -0.02866517                0.16262117               -0.08501907                0.89421869                3.33834348               -0.47989740
               5.11494221                2.99232468                5.98891721                0.00010000               -0.02060778                0.12406310               -0.21618353                0.94625030                2.99669446               -0.32391481
               6.11485133                2.98885087                5.98512272                0.00010000                0.03197417                0.07852312               -0.32711393                0.89809108                2.84217539                0.00340845
               7.11558169                2.98512792                5.97966457                0.00010000                0.05602435               -0.05841882               -0.48850689                0.63477686                2.65981790                0.04470409
               8.11597182                2.97950994                5.97237146                0.28678041                0.14470731                0.22863904               -0.67714598                0.20420950                1.48536954                1.01650644
               9.11847584                2.97041860                5.94309582                1.00000000                0.30882590                0.31911268               -1.03493749               -0.01130258                0.19190888                0.36902282
              10.12214833                2.96182619                5.90992167                1.00000000                0.36724962                0.42117979               -1.42208149               -0.03500123               -0.01280093               -0.22732848
               0.13093526                4.03587828                6.07693778                1.00000000               -0.27892101               -0.34704823                1.17738198               -0.05392278                0.03923920                0.61616848
               1.12814605                4.02518220                6.03847957                1.00000000               -0.20136583               -0.19929720                0.66870819               -0.03674759                0.04874329               -0.04069162
               2.12690794                4.01402360                5.99996421                0.03240977               -0.02962276               -0.05316316                0.15972925                0.04097492                1.37635417               -0.68109324
               3.12755359                4.00381246                5.98818131                0.00010000                0.04534170                0.28945242               -0.17736443                0.40626326                3.22488811               -0.04960613
               4.12781478                3.99871326                5.98802144                0.00010000                0.00904798                0.18556761               -0.20605521                0.71686892                3.73201243               -0.31597453
               5.12773455                3.99393703                5.98825268                0.00010000               -0.02788305                0.16146734               -0.24609533                0.76154064                3.67106626               -0.20684972
               6.12725711                3.98957882                5.98838699                0.00010000               -0.06267665                0.09314795               -0.28696053                0.74637791                3.63334432                0.01041314
               7.12648102                3.98548150                5.98882310                0.00010000               -0.11463125                0.06481209               -0.34135555                0.63370379                3.71907271                0.39948716
               8.12496449                3.98166339                5.99103337                0.29057395                0.01164411                0.18300211               -0.41114645                0.24356703                1.93114543                0.99612291
               9.12671390                3.97337184                5.95569541                1.00000000                0.24593287                0.26733585               -0.84757792               -0.01751753                0.02997609                0.29466512
              10.12988315                3.96575214                5.91990718                1.00000000                0.31692451                0.36313519               -1.26296077               -0.03524118               -0.00095555               -0.24216794
               0.14037364                5.03257148                6.07068604                1.00000000               -0.23697865               -0.31545515                1.06545493               -0.05497638                0.05952253                0.57612975
               1.13800385                5.02342406                6.02911318                0.91724323               -0.15343650               -0.15100846                0.51141976               -0.03639121                0.08534457               -0.05871856
               2.13730491                5.01378376                5.98780333                0.00256677                0.04736334                0.00533857               -0.03323426                0.12323378                2.01657827               -0.64070120
               3.13895112                5.00665395                5.98501261                0.00010000                0.10856905                0.23615590               -0.18553742                0.41258648                3.98414810               -0.26631744
               4.13947629                5.00073719                5.98507564                0.00010000                0.01781711                0.20940242               -0.25317766                0.54878298                4.17959117               -0.28171543
               5.13930746                4.99555403                5.98807829                0.00010000               -0.06209322                0.16948945               -0.24957701                0.58900076                4.32210184               -0.16608215
               6.13823442                4.99071383                5.99253348                0.00010000               -0.15681294                0.12238646               -0.22417682                0.57203099                4.40984933                0.07304602
               7.13617120                4.98642416                5.99843856                0.00010000               -0.26408051                0.09560392               -0.19763751                0.53270696                4.54098507                0.40991097
               8.13295281                4.98316998                6.00611220                0.30336842               -0.10672338                0.11815971               -0.18159870                0.21723755                2.32369839                0.77537613
               9.13403673                4.97576532                5.96784673                1.00000000                0.18650482                0.20806825               -0.64948978               -0.01957991                0.01809792                0.25206822
              10.13668291                4.96908889                5.92934493                1.00000000                0.26461768                0.30686647               -1.09807202               -0.03581973               -0.00031762               -0.27412980
               0.14813058                6.02956918                6.06408481                1.00000000               -0.19246334               -0.28113638                0.94920380               -0.05846254                0.06695676                0.52927823
               1.14620595                6.02216203                6.01937543                0.77500046               -0.09939280               -0.10006499                0.33664117               -0.04354824                0.13122276               -0.10766966
               2.14614272                6.01413037                5.97569893                0.00168862                0.13229734                0.06413622               -0.25785981                0.11568994                2.42719296               -0.68735876
               3.14885189                6.00853558                5.97709589                0.00010000                0.18738164                0.20628414               -0.30194419                0.34535508                4.70119553               -0.54978315
               4.14989036                6.00290131                5.98110051                0.00010000                0.03430173                0.22668508               -0.28959811                0.39348477                4.85759184               -0.38380712
               5.14953793                5.99732682                5.98774679                0.00010000               -0.10313767                0.18508278               -0.23693266                0.40313963                5.01690400               -0.17826007
               6.14782760                5.99202655                5.99665803                0.00010000               -0.24294628                0.13189718               -0.15199474                0.39762386                5.15503035                0.07827885
               7.14467900                5.98739358                6.00750711                0.00538491               -0.39297609                0.08398257               -0.05223251                0.39345603                5.30691018                0.37592823
               8.13996808                5.98402658                6.02025291                0.32017703               -0.21378042                0.04943304                0.04771388                0.15669347                2.71243064                0.70044945
               9.14040339                5.97753321                5.97951656                0.94515993                0.12757602                0.14724734               -0.44913854               -0.02292888                0.03153438                0.21930034
              10.14251960                5.97188947                5.93851601                1.00000000                0.21162079                0.25310514               -0.93563540               -0.03323728                0.01360826               -0.29001432
               0.15401868                7.02694875                6.05713809                1.00000000               -0.14469845               -0.23877326                0.82334349               -0.05929885                0.04723909                0.49637819
               1.15257169                7.02142276                6.00908570                0.69722919               -0.03867586               -0.04681224                0.14083062               -0.05070548                0.13334171               -0.13693828
               2.15324516                7.01506648                5.96250753                0.02439224                0.22577940                0.13286879               -0.52663041                0.08683738                2.76011893               -0.74179628
               3.15708728                7.01077963                5.96725717                0.00010000                0.26547878                0.26609583               -0.46616265                0.20989443                5.36565354               -0.84217010
               4.15855473                7.00527089                5.97526694                0.00010000                0.05788637                0.24915007               -0.34906922                0.16909126                5.58035313               -0.53307014
               5.15824501                6.99925568                5.98668588                0.00010000               -0.12172947                0.18964636               -0.23051729                0.19954739                5.76885117               -0.20499974
               6.15612015                6.99335177                6.00038444                0.00010000               -0.31023602                0.12980560               -0.07862495                0.21484271                5.89966759                0.06618568
               7.15204029                6.98810381                6.01611911                0.01258170               -0.50865475                0.05398670                0.09770803                0.22117873                6.05452036                0.34237093
               8.14594705                6.98415865                6.03386270                0.33982048               -0.31625119               -0.03078390                0.28616390                0.07049808                3.10146843                0.64626439
               9.14571526                6.97871027                5.99092252                0.89940936                0.06792908                0.08839604               -0.24926509               -0.02600919                0.04669499                0.19858840
              10.14730563                6.97415100                5.94737881                1.00000000                0.15903689                0.20355652               -0.78056243               -0.03478230                0.01286298               -0.30060968
               0.15799660                8.02479371                6.05000724                1.00000000               -0.09224893               -0.19428744                0.68667975               -0.05663121                0.04032333                0.48132058
               1.15707411                8.02122579                5.99876400                0.68124020                0.02629996                0.01369772               -0.07479627               -0.04650533                0.12864345               -0.13351252
               2.15852260                8.01678775                5.94906659                0.06717589                0.28856341                0.22741904               -0.84138094                0.05910688                2.83992322               -0.70292744
               3.16284538                8.01385749                5.95240808                0.00010000                0.31367673                0.30141709               -0.50581973               -0.13801887                5.96641430               -1.52977630
               4.16479613                8.00788431                5.96732730                0.00010000                0.13013092                0.21272219               -0.42499566               -0.12016213                6.51310997               -0.59101801
               5.16544799                8.00111975                5.98504806                0.00010000               -0.07598999                0.16099206               -0.24228213                0.01793697                6.57583477               -0.19470054
               6.16327633                7.99462266                6.00363335                0.00010000               -0.35761454                0.13680208               -0.00955255                0.05927636                6.62596573                0.05293375
               7.15829570                7.98847331                6.02416660                0.01662042               -0.62523709                0.03699381                0.25052434                0.00912027                6.79333055                0.28356888
               8.15077159                7.98341090                6.04706676                0.36108187               -0.42024224               -0.12672850                0.54767998               -0.04616758                3.49715911                0.58282675
               9.14989086                7.97930113                6.00207245                0.89829296                0.00854525                0.02575992               -0.04907002               -0.02195491                0.06300700                0.19158427
              10.15094249                7.97596060                5.95603160                0.96976332                0.10516353                0.16519273               -0.63201086               -0.03821175                0.00841441               -0.30671223
               0.16002190                9.02306300                6.04275865                1.00000000               -0.03743509               -0.15596803                0.54388481               -0.04751785                0.05294899                0.39437297
               1.15964755                9.02169671                5.98850632                0.71326041                0.08868438                0.08560058               -0.30543528               -0.02486254                0.17210906               -0.11780228
               2.16179559                9.01961486                5.93646723                0.10648089                0.17913938                0.33119986               -1.15813422               -0.02982804                2.46660071               -0.48924952
               3.16323034                9.01680797                5.92853724                0.00010000                0.35468219                0.23807466               -0.35482491               -0.36340166                6.60284839               -1.37557934
               4.16888923                9.00952533                5.95972287                0.00010000                0.43175268                0.06824738               -0.51656247               -0.22869190                7.87884112               -0.42317645
               5.17186539                9.00247553                5.98343783                0.00010000                0.05314388                0.11763662               -0.26088426               -0.03770842                7.31050220               -0.11434017
               6.16995211                8.99608781                6.00638421                0.00010000               -0.42154717                0.14017367                0.05070248               -0.01572451                7.28132080                0.03473523
               7.16343445                8.98884369                6.03118658                0.01634980               -0.78781153                0.11863862                0.39924365               -0.14658610                7.50585455                0.16778462
               8.15419588                8.98162408                6.05953748                0.37708829               -0.53539918               -0.22187559                0.81467851               -0.22098447                3.94069635                0.41346666
               9.15272647                8.97922546                6.01324359                0.94652231               -0.04867169               -0.04464057                0.15826418               -0.01140738                0.10626399                0.17601788
              10.15322245                8.97745485                5.96454045                0.95747860                0.04959815                0.13474893               -0.47967656               -0.03833603               -0.01416113               -0.25818078
               0.15977883               10.02167435                6.03371662                1.00000000                0.02461706               -0.13886524                0.36978961                0.10203705                0.28484934                0.32291352
               1.16002500               10.02293780                5.97851675                0.88453769                0.15179725                0.12410880               -0.51873253                0.12461407                0.50175423               -0.11123645
               2.16281477               10.02341174                5.92757772                0.56747742                0.28209378                0.37968792               -1.35072992               -0.11402251                2.78853039               -0.33286729
               3.16566687               10.01861899                5.91859685                0.35544336                0.58699849                0.18110122               -0.53581743               -0.46447099                7.10565312               -0.81256569
               4.17455474               10.00924926                5.95509594                0.35179559                0.62322364               -0.02760768               -0.55530896               -0.19077446                8.51709983               -0.25687849
               5.17813135               10.00347248                5.98270860                0.37457159                0.10194685                0.09969579               -0.27185745                0.03543925                7.84440477               -0.04631203
               6.17659368                9.99742614                6.00854750                0.42077205               -0.41518135                0.13383230                0.09788202                0.03283670                7.79359187                0.03831783
               7.16982772                9.99084608                6.03638280                0.50748992               -1.03117781                0.20023968                0.50871096               -0.28331022                8.10552581                0.11261544
               8.15597012                9.97897339                6.06908568                0.69323410               -0.79978920               -0.26506820                1.00258631               -0.44446421                4.45807085                0.29308028
               9.15383193                9.97840832                6.02396992                1.00000000               -0.11265619               -0.08171464                0.36138756                0.09465634                0.35623216                0.16574484
              10.15371700                9.97865558                5.97411191                0.98551523               -0.01149360                0.12007311               -0.30180554                0.07418160                0.12412790               -0.21021561
               0.10621670                0.06597216                7.12027337                1.00000000               -0.41739047               -0.47043198                1.61029354               -0.08607823               -0.34453479                0.40004786
               1.10204279                0.04661216                7.08829458                1.00000000               -0.34591264               -0.35827538                1.24694028               -0.06292852               -0.38469053               -0.01041993
               2.09929845                0.02694526                7.05537019                0.95562052               -0.19049394               -0.25300828                0.85962285               -0.04926493               -0.32706682               -0.20338612
               3.09823292                0.00775940                7.02447103                0.56288144                0.28345691               -0.17940027                0.50779229                0.30166202                0.47710290               -0.23256394
               4.10496758               -0.00368841                7.00756436                0.57992994                0.52770505               -0.21527546                0.24182006                0.04127778                1.18169209               -0.01768011
               5.10878702               -0.01022851                6.99010975                0.62779005                0.25007542               -0.02962693               -0.11036290               -0.01509103                0.98298220                0.00336947
               6.10996909               -0.01609077                6.96983891                0.64797067                0.05795419                0.12114262               -0.48205927                0.00405416                0.86168118                0.01525526
               7.10994610               -0.02458019                6.94999828                0.79051812                0.06752338                0.24167556               -0.82293854                0.06948951                0.57830567                0.02932199
               8.11131956               -0.03709522                6.92382859                1.00000000                0.24553669                0.34435920               -1.15780405                0.02238650                0.05987687                0.28209779
               9.11485683               -0.05141877                6.89375487                1.00000000                0.41825104                0.42705244               -1.48656592               -0.05042853               -0.17738237                0.03009670
              10.11968458               -0.06567263                6.86295327                1.00000000                0.48277474                0.52553959               -1.80646289               -0.07836779               -0.21873985               -0.23899237
               0.12471592                1.06126784                7.11015345                1.00000000               -0.37889595               -0.45287648                1.46877229               -0.03822097               -0.01813224                0.54920439
               1.12092696                1.04302941                7.07772975                1.00000000               -0.32418709               -0.33550652                1.10327582               -0.01989338                0.05104653               -0.00769727
               2.11823218                1.02441518                7.04654498                0.64256871               -0.21802920               -0.22463660                0.74463451               -0.00787297                0.29021191               -0.48134348
               3.11656637                1.00596540                7.01893470                0.00010000               -0.19289280               -0.17033374                0.39467970                0.34772236                1.23860037               -0.56565780
               4.11437432                0.99415883                7.00695803                0.07523790               -0.08645443               -0.02679425                0.21397196                0.66450427                1.78854295               -0.33931971
               5.11483729                0.98947522                6.99199468                0.12613987                0.14055758                0.03123315               -0.10496561                0.73950834                1.44843529               -0.07901255
               6.11718547                0.98512065                6.97401437                0.08313685                0.31529671               -0.02454810               -0.44897201                0.60887704                1.29637037               -0.17533602
               7.12114322                0.97783657                6.95637158                0.29868545                0.38886216                0.27707251               -0.74476126                0.39162227                1.14626320                0.44865778
               8.12496272                0.96634837                6.93504017                1.00000000                0.37490156                0.31849636               -1.03274368                0.10720468                0.55811384                0.35047201
               9.12864125                0.95285176                6.90502644                1.00000000                0.40960243                0.40556206               -1.34577714               -0.00478715                0.08343952                0.07533875
              10.13315476                0.93958277                6.87415417                1.00000000                0.45135125                0.50456157               -1.66558307               -0.03012992                0.03662528               -0.28048522
               0.14192915                2.05691463                7.10279677                1.00000000               -0.34315616               -0.41862674                1.35815019               -0.04720648                0.03763895                0.70817953
               1.13849759                2.03990203                7.06713204                1.00000000               -0.28620778               -0.29133246                0.96295046               -0.03306557                0.08144039               -0.02536524
               2.13620500                2.02245253                7.03216896                0.28268781               -0.15269383               -0.16820392                0.58611533               -0.04294464                0.59798044               -0.82314490
               3.13544371                2.00435273                7.00686561                0.00010000               -0.07285709               -0.13275525                0.24932173                0.49882055                1.97198264               -1.09848127
               4.13474785                1.99577570                6.99958927                0.00010000               -0.14141750                0.15869665                0.30791356                1.16942134                2.73505341               -0.69593059
               5.13261536                1.99039615                6.99206692                0.00010000               -0.04812845                0.05379422                0.14270727                1.16932356                2.03935022               -0.35192681
               6.13378528                1.98341826                6.97453394                0.00010000                0.19677336               -0.01408425               -0.63092424                1.16859938                2.23265053               -0.07995854
               7.13655083                1.98096126                6.97131683                0.00010000                0.23315904                0.06665819               -0.57757637                0.76392772                2.03490144                0.29763254
               8.13844847                1.96927470                6.94761929                0.41037762                0.24879315                0.27331370               -0.88518260                0.08979571                0.69748336                0.67911715
               9.14152669                1.95669247                6.91726791                1.00000000                0.35857479                0.36762960               -1.20105750                0.00159829                0.25168115                0.28742984
              10.14561996                1.94441860                6.88468168                1.00000000                0.40932681                0.46154954               -1.53745280               -0.02924495                0.13566783               -0.29329200
               0.15779699                3.05289531                7.09569728                1.00000000               -0.30692443               -0.38522000                1.24969179               -0.05080776                0.03259575                0.71982060
               1.15472775                3.03720276                7.05614312                1.00000000               -0.24372030               -0.24708360                0.81634632               -0.03611051                0.03933591               -0.04419210
               2.15292259                3.02105110                7.01653026                0.11471881               -0.07540660               -0.10995615                0.38278098               -0.08850969                0.73025468               -0.84609035
               3.15321962                3.00331030                6.99085189                0.00010000               -0.06016305                0.10545798                0.04249507                0.45902431                2.73568329               -0.73162739
               4.15171933                2.99733276                6.99155067                0.00010000               -0.13192113                0.17579163               -0.04230825                1.00539469                3.65061161               -0.61146123
               5.15058119                2.99055110                6.98683352                0.00010000               -0.08634891                0.09289393               -0.18432417                1.07908077                3.28598244               -0.47259194
               6.14999235                2.98483897                6.98191345                0.00010000               -0.00079294                0.11415869               -0.32477145                1.02404571                3.10229249                0.10569288
               7.15056534                2.97916973                6.97457824                0.00010000                0.05175351               -0.06675196               -0.51627836                0.74954351                2.85963149                0.04753432
               8.15102742                2.97181464                6.96539561                0.27752220                0.14819916                0.24331237               -0.71082427                0.27481875                1.60496119                1.13189465
               9.15352932                2.96020435                6.93280586                1.00000000                0.30450937                0.32545186               -1.02282213                0.00528946                0.21316238                0.40530963
              10.15711761                2.94881376                6.89584018                1.00000000                0.35882869                0.41524254               -1.39704309               -0.03358323               -0.01320266               -0.25293964
               0.17229810                4.04921023                7.08852015                1.00000000               -0.26785104               -0.35344701                1.13951186               -0.04950030                0.03423293                0.70353369
               1.16961959                4.03496036                7.04514960                1.00000000               -0.19854150               -0.20103821                0.66433747               -0.03170491                0.04127887               -0.04174826
               2.16832727                4.02025341                7.00171895                0.03581888               -0.06385238               -0.05092828                0.18870179                0.04289996                1.44215210               -0.76548160
               3.16834254                4.00646189                6.98646003                0.00010000               -0.03561620                0.32955493               -0.18214565                0.43298530                3.53726518               -0.08236967
               4.16761494                3.99929153                6.98608444                0.00010000               -0.08258811                0.21104702               -0.18302467                0.82244080                4.18549349               -0.36499779
               5.16669078                3.99225403                6.98584037                0.00010000               -0.09836858                0.17661845               -0.23477053                0.86111002                4.09514091               -0.23124751
               6.16564757                3.98570144                6.98543563                0.00010000               -0.10623748                0.11021571               -0.29713059                0.85262055                4.03144156                0.00003651
               7.16456603                3.97962622                6.98522252                0.00010000               -0.13686734                0.07796040               -0.37004188                0.75280243                4.08633820                0.45079316
               8.16291022                3.97414095                6.98675478                0.28236817                0.00336709                0.19436703               -0.43819938                0.31372245                2.09700450                1.12809270
               9.16463337                3.96320151                6.94725777                1.00000000                0.24096271                0.27064239               -0.83921569               -0.00601759                0.02376143                0.33673248
              10.16772948                3.95272345                6.90738925                1.00000000                0.30961099                0.36455502               -1.24194188               -0.03309935               -0.00145437               -0.26110413
               0.18530674                5.04582637                7.08113665                1.00000000               -0.22562604               -0.32226870                1.02486727               -0.05073844                0.05990649                0.66852592
               1.18305048                5.03318200                7.03422175                0.90272437               -0.15138387               -0.15251967                0.50920766               -0.03261364                0.08816396               -0.06758046
               2.18227906                5.02003254                6.98766679                0.00319403               -0.01046385                0.00770053                0.00371484                0.14985042                2.20578337               -0.74175960
               3.18284120                5.00990139                6.98323550                0.00010000                0.00484718                0.28555382               -0.16927663                0.46195157                4.39061994               -0.26140626
               4.18237600                5.00155371                6.98258906                0.00010000               -0.07238540                0.23759736               -0.24288956                0.62731773                4.66130256               -0.29730932
               5.18139349                4.99408347                6.98558464                0.00010000               -0.13517185                0.19385574               -0.24665510                0.67306240                4.83824935               -0.17616595
               6.17967257                4.98704328                6.99018873                0.00010000               -0.21058095                0.14533279               -0.23900624                0.66026808                4.91904730                0.08665714
               7.17718187                4.98072894                6.99626621                0.00010000               -0.29729928                0.11196840               -0.22714810                0.63083646                5.02728528                0.46397822
               8.17372658                4.97570198                7.00413643                0.29550375               -0.11777032                0.11962527               -0.20740525                0.27503780                2.54832319                0.88653639
               9.17482647                4.96561720                6.96135127                1.00000000                0.18425764                0.21013000               -0.64748845               -0.01093987                0.01007271                0.29711022
              10.17741173                4.95610486                6.91844403                1.00000000                0.25852673                0.31273875               -1.08114915               -0.03369422               -0.00164858               -0.29725378
               0.19657207                6.04276486                7.07333984                1.00000000               -0.18109307               -0.28479410                0.90270881               -0.05366836                0.06722949                0.62287773
               1.19476114                6.03190997                7.02273102                0.76112195               -0.09835995               -0.10014112                0.33424295               -0.04007582                0.13718889               -0.13333214
               2.19460488                6.02040742                6.97331834                0.00051044                0.06496289                0.06946778               -0.21844269                0.15647226                2.69793682               -0.82929101
               3.19606040                6.01217296                6.97409948                0.00010000                0.06871722                0.23710341               -0.28305936                0.41933725                5.24431631               -0.63395599
               4.19597922                6.00404348                6.97819195                0.00010000               -0.06989775                0.25887107               -0.28166149                0.46938065                5.44565771               -0.41759754
               5.19466245                5.99613114                6.98534885                0.00010000               -0.18858780                0.21502477               -0.23725599                0.47636405                5.62333037               -0.18972980
               6.19220746                5.98860809                6.99503474                0.00010000               -0.30691964                0.15947709               -0.16721138                0.47001654                5.76868651                0.09640352
               7.18852405                5.98186559                7.00679373                0.00010000               -0.43423709                0.10133484               -0.08168884                0.46853849                5.90832491                0.43443642
               8.18352272                5.97653346                7.02058492                0.31223412               -0.22561792                0.04500097                0.02140360                0.20111107                2.99912113                0.81442292
               9.18401170                5.96740411                6.97498213                0.94748275                0.12787735                0.14917619               -0.45338390               -0.01528841                0.02584042                0.26139850
              10.18608027                5.95897823                6.92921943                1.00000000                0.20685733                0.26147760               -0.92028643               -0.03180544                0.01262949               -0.32446286
               0.20594316                7.04013049                7.06508960                1.00000000               -0.13367567               -0.23775816                0.76947874               -0.05337612                0.04493956                0.58708213
               1.20460640                7.03117917                7.01049135                0.68334305               -0.03988249               -0.04562838                0.14140199               -0.04440119                0.13427038               -0.17945393
               2.20514551                7.02142189                6.95748639                0.01986353                0.14927417                0.13823824               -0.47570387                0.13553107                3.11725400               -0.92856265
               3.20759188                7.01464346                6.96280208                0.00010000                0.13299653                0.27586951               -0.41737355                0.30920761                6.07499960               -0.90502348
               4.20780544                7.00673113                6.97182876                0.00010000               -0.06178620                0.26999331               -0.32526731                0.25763790                6.30571847               -0.58680247
               5.20635616                6.99838397                6.98438055                0.00010000               -0.22334939                0.22379633               -0.22288693                0.26410795                6.48834736               -0.23390395
               6.20333845                6.99023282                6.99950227                0.00010000               -0.38644397                0.16272433               -0.09194293                0.26727768                6.62735905                0.07989172
               7.19862728                6.98275563                7.01690150                0.00691823               -0.55640838                0.07431228                0.06684935                0.26772708                6.77834375                0.40471725
               8.19221028                6.97660200                7.03658992                0.33199794               -0.32756769               -0.03434184                0.25583788                0.09971360                3.45138747                0.77089919
               9.19207593                6.96860072                6.98835306                0.89953443                0.07085529                0.09058496               -0.26029091               -0.01727177                0.04010341                0.23554222
              10.19362739                6.96133441                6.93964447                1.00000000                0.15514617                0.21193018               -0.76348474               -0.03248334                0.01235151               -0.34899668
               0.21340718                8.03800970                7.05654879                1.00000000               -0.08254669               -0.18771393                0.62642468               -0.05050657                0.03446095                0.56906295
               1.21258171                8.03099740                6.99805592                0.66446104                0.02220135                0.01373339               -0.06563640               -0.03924381                0.11736547               -0.19116460
               2.21385121                8.02317219                6.94105593                0.05398373                0.21768034                0.22189931               -0.76325020                0.10774994                3.37241761               -0.91886189
               3.21693532                8.01769035                6.94800084                0.00010000                0.17701332                0.27079637               -0.41975204                0.06259606                6.87154777               -1.37117078
               4.21739147                8.00944335                6.96361656                0.00010000               -0.02462060                0.22183783               -0.33246707               -0.00168800                7.32957943               -0.66486407
               5.21644291                8.00060707                6.98270757                0.00010000               -0.21050629                0.20126786               -0.21461687                0.07680545                7.41685971               -0.23462213
               6.21318135                7.99186258                7.00344076                0.00010000               -0.44667459                0.17444499               -0.02083546                0.08869124                7.48356678                0.06071535
               7.20750942                7.98335184                7.02646398                0.01199553               -0.67547192                0.06392918                0.21511799                0.02738645                7.65003979                0.34587410
               8.19967191                7.97584662                7.05227786                0.35349779               -0.42877819               -0.12042937                0.49497159               -0.03135651                3.91213514                0.71753338
               9.19893385                7.96921581                7.00147732                0.89848960                0.01456558                0.02941238               -0.06799201               -0.01388775                0.05122895                0.22693181
              10.19996322                7.96321683                6.94982106                0.97155309                0.10293684                0.16957770               -0.61191253               -0.03458188                0.00691995               -0.36252173
               0.21895762                9.03637621                7.04783572                1.00000000               -0.02985856               -0.14324682                0.47888024               -0.04334873                0.04059054                0.46848151
               1.21865904                9.03145384                6.98555740                0.69192909                0.08249643                0.08150399               -0.28364468               -0.02135330                0.15358698               -0.17490877
               2.22060755                9.02585988                6.92541474                0.08065913                0.19568031                0.30982103               -1.05489582               -0.00033604                3.35948503               -0.65358987
               3.22257264                9.02005939                6.92764161                0.00010000                0.21237063                0.11365612               -0.06936816               -0.14680171                7.77255734               -1.22944669
               4.22485496                9.01116788                6.95550479                0.00010000                0.14501965                0.11206298               -0.34823897               -0.12048923                8.64172683               -0.47207981
               5.22547304                9.00240932                6.98102480                0.00010000               -0.12437273                0.15718774               -0.21127733                0.00516528                8.28711007               -0.14310585
               6.22236751                8.99372172                7.00678249                0.00010000               -0.51410325                0.18036019                0.03940002               -0.00754333                8.26897145                0.03873110
               7.21519097                8.98403422                7.03490174                0.01486106               -0.83241647                0.15308499                0.35093857               -0.14497230                8.50664213                0.21302828
               8.20571918                8.97419341                7.06721329                0.37161007               -0.53815054               -0.20122972                0.72976659               -0.21679692                4.43140206                0.51304698
               9.20442796                8.96918897                7.01466276                0.94602847               -0.03927369               -0.03660780                0.12718279               -0.00669422                0.09262144                0.20878459
              10.20493370                8.96472596                6.95987696                0.95891568                0.05057457                0.13380437               -0.45866941               -0.03417217               -0.01762393               -0.30480656
               0.22238494               10.03514476                7.03708546                1.00000000                0.02860351               -0.12314482                0.31090157                0.09100387                0.30789682                0.38124947
               1.22267098               10.03262748                6.97348509                0.87390273                0.14269982                0.11736379               -0.48606552                0.11238637                0.54613404               -0.16101620
               2.22523894               10.02936861                6.91459112                0.55170195                0.30101529                0.35087259               -1.24376433               -0.17006126                3.79481073               -0.44185865
               3.22869128               10.01996348                6.91639818                0.35526316                0.36964088               -0.00959125               -0.11959119               -0.27233585                8.44959108               -0.83361027
               4.23263176               10.01168461                6.95064855                0.35212722                0.26505458                0.05167236               -0.37039109               -0.03295331                9.41346465               -0.22542379
               5.23399237               10.00375082                6.98019102                0.37503869               -0.06130849                0.13415011               -0.21791475                0.04119281                8.91393099               -0.05029485
               6.23140559                9.99546978                7.00938326                0.42116521               -0.49270475                0.17480609                0.08172575                0.03694338                8.88436062                0.04940514
               7.22413828                9.98641354                7.04111059                0.50842565               -1.06121815                0.23793166                0.44802122               -0.28765703                9.22147487                0.14495112
               8.21018122                9.97182202                7.07855646                0.69268535               -0.79354295               -0.23713900                0.90224542               -0.45028967                5.04365002                0.35826774
               9.20826742                9.96848365                7.02733398                1.00000000               -0.09877191               -0.07053141                0.31486233                0.08749079                0.38305713                0.19364552
              10.20820579                9.96589292                6.97118189                0.98646409               -0.00616354                0.11669551               -0.28994464                0.06813459                0.14215471               -0.24465242
               0.13634135                0.08102248                8.13619152                1.00000000               -0.41008042               -0.45963997                1.57490037               -0.08175862               -0.38788279                0.44303564
               1.13224055                0.05781263                8.10069529                1.00000000               -0.34001271               -0.35341415                1.23178620               -0.05925332               -0.44200548               -0.00595272
               2.12954110                0.03429610                8.06397081                0.97094628               -0.18663759               -0.25251656                0.85811878               -0.04638406               -0.37875167               -0.20358439
               3.12850780                0.01136039                8.02964039                0.57728383                0.29577479               -0.18347056                0.52195968                0.33168778                0.47803312               -0.26886096
               4.13545659               -0.00308955                8.00998942                0.60718830                0.52294247               -0.19456335                0.24120684                0.02522633                1.16213459               -0.00960796
               5.13896665               -0.01209721                7.98903342                0.66035261                0.23269871               -0.02055025               -0.10571833               -0.01061500                0.91769595                0.00615806
               6.14011057               -0.02032085                7.96508170                0.67133405                0.06041390                0.11524200               -0.47021455                0.00371191                0.79612006                0.00705440
               7.14017492               -0.03105132                7.94178923                0.80405289                0.06783347                0.23329805               -0.81752422                0.06762326                0.52396046                0.02925435
               8.14146724               -0.04603532                7.91227136                1.00000000                0.23817444                0.34335479               -1.15116291                0.03044498                0.01291815                0.29565040
               9.14493841               -0.06309843                7.87894059                1.00000000                0.41241460                0.42339685               -1.47488874               -0.04992951               -0.21602934                0.02893625
              10.14971553               -0.08013593                7.84499052                1.00000000                0.47771171                0.51826836               -1.78723795               -0.07857994               -0.25234662               -0.27174760
               0.15873361                1.07642608                8.12465294                1.00000000               -0.37224075               -0.44316954                1.43353105               -0.03560915               -0.02727539                0.60725265
               1.15501121                1.05427849                8.08869617                1.00000000               -0.32151180               -0.33104591                1.08941775               -0.01627159                0.04279807               -0.00037596
               2.15230338                1.03177093                8.05401807                0.67059580               -0.22468561               -0.22490014                0.74698148               -0.00132524                0.28640548               -0.49974830
               3.15051749                1.00952568                8.02295473                0.01762344               -0.24328620               -0.17555474                0.40640380                0.40390010                1.31623491               -0.61142566
               4.14743765                0.99496482                8.00910073                0.11118077               -0.15206734                0.00195616                0.21235472                0.68024738                1.87184478               -0.19685457
               5.14747615                0.98769729                7.99096447                0.16803451                0.10935448                0.08378006               -0.10184744                0.66885117                1.45312693                0.06751927
               6.14962474                0.98083157                7.96958425                0.11357944                0.31161212               -0.05845186               -0.43779202                0.54877187                1.30784039               -0.28511541
               7.15370839                0.97128166                7.94895195                0.31567616                0.40852475                0.27235933               -0.73829752                0.42244813                1.17389158                0.48887253
               8.15779524                0.95739823                7.92473346                1.00000000                0.38905161                0.31764185               -1.02595906                0.12781068                0.57269955                0.37320958
               9.16148942                0.94113554                7.89162758                1.00000000                0.40859990                0.40285992               -1.33324973               -0.00312271                0.08340657                0.07542236
              10.16596724                0.92504675                7.85760883                1.00000000                0.44778144                0.49563181               -1.64533680               -0.03044770                0.03416913               -0.31903049
               0.17992435                2.07215909                8.11618948                1.00000000               -0.33540834               -0.41203024                1.32278953               -0.04240942                0.03480404                0.78419976
               1.17657027                2.05119171                8.07670663                1.00000000               -0.28284751               -0.28849485                0.95164318               -0.02671713                0.08652162               -0.01800208
               2.17426740                2.02979809                8.03812041                0.29983930               -0.15891793               -0.16978527                0.60052554               -0.03169044                0.62742457               -0.88573483
               3.17339191                2.00784929                8.00946856                0.00010000               -0.16887330               -0.14438772                0.26800121                0.59213746                2.27344368               -1.18142263
               4.17088993                1.99694958                8.00403108                0.00010000               -0.34574937                0.16683124                0.55887925                1.32927641                2.92398926               -0.72674640
               5.16647692                1.98957839                7.99394557                0.00010000               -0.16941486                0.07010536                0.13578062                1.21917326                1.75556988               -0.40525882
               6.16750164                1.97851011                7.96833473                0.00010000                0.27901534               -0.03842687               -0.55144110                1.21725889                2.11326127               -0.02222056
               7.17205723                1.97439586                7.96545472                0.00010000                0.33339653                0.04456249               -0.59460328                0.86955885                2.24048702                0.31998129
               8.17416957                1.96031751                7.93877574                0.40712271                0.25851033                0.28070630               -0.88015976                0.13055478                0.73477947                0.71774395
               9.17722743                1.94495877                7.90532176                1.00000000                0.35572964                0.36996948               -1.18783365                0.01321376                0.27138138                0.30492548
              10.18128416                1.92977670                7.86942151                1.00000000                0.40567260                0.45065431               -1.51673846               -0.02578728                0.14571428               -0.33229623
               0.19982018                3.06818548                8.10800850                1.00000000               -0.29823173               -0.38247531                1.21446284               -0.04585443                0.02952409                0.79921117
               1.19683786                3.04850859                8.06426729                1.00000000               -0.24040947               -0.24615561                0.80810375               -0.03038453                0.03432625               -0.04154736
               2.19501199                3.02837523                8.02046484                0.12459913               -0.08145504               -0.11103281                0.40160684               -0.08487569                0.77036430               -0.93014099
               3.19520876                3.00663793                7.99147105                0.00010000               -0.13589534                0.09660804                0.07589630                0.52338608                2.94026564               -0.86830568
               4.19229408                2.99830145                7.99129232                0.00010000               -0.24548405                0.17126702               -0.01159559                1.18579213                3.95168295               -0.84718894
               5.19029908                2.98909940                7.98523073                0.00010000               -0.15708157                0.04912820               -0.13270941                1.27854209                3.52745306               -0.66766232
               6.18915245                2.98006303                7.97862729                0.00010000               -0.05034582                0.13970794               -0.33348537                1.20378329                3.30954423                0.20959616
               7.18929216                2.97217291                7.96933900                0.00010000                0.03454882               -0.07932344               -0.52512299                0.88903664                3.03927059                0.05726139
               8.18984343                2.96301235                7.95815497                0.26980001                0.15011741                0.25834512               -0.72650395                0.35308921                1.73018931                1.23616726
               9.19229451                2.94853493                7.92263938                1.00000000                0.29861019                0.33011557               -1.01051773                0.01873550                0.25025506                0.43951628
              10.19581563                2.93405983                7.88198080                1.00000000                0.35211204                0.40747571               -1.37683724               -0.03216186               -0.01298754               -0.27967322
               0.21836103                4.06450959                8.09972802                1.00000000               -0.25881997               -0.35315794                1.10349002               -0.04502873                0.03052176                0.78381927
               1.21577283                4.04626860                8.05176632                1.00000000               -0.19602384               -0.20087822                0.65855671               -0.02665076                0.03540417               -0.04238155
               2.21444055                4.02757744                8.00373825                0.04236070               -0.09197089               -0.05130228                0.21288477                0.04538457                1.47018450               -0.84148377
               3.21393341                4.00978146                7.98453839                0.00010000               -0.11481216                0.35742218               -0.20407557                0.47149803                3.81847973               -0.12671459
               4.21214431                4.00037492                7.98436095                0.00010000               -0.18236165                0.21910242               -0.16153882                0.94193041                4.62630095               -0.42084636
               5.21028618                3.99056096                7.98355727                0.00010000               -0.18202579                0.17114161               -0.22011368                0.95515221                4.48465609               -0.27179323
               6.20850379                3.98130427                7.98244438                0.00010000               -0.16987692                0.13924167               -0.29755279                0.95148934                4.39206694               -0.00760963
               7.20688864                3.97280940                7.98142226                0.00010000               -0.18172317                0.09798048               -0.38462637                0.88285941                4.42835654                0.50247531
               8.20486933                3.96548442                7.98226938                0.27487970               -0.01669891                0.20291106               -0.45475123                0.38712398                2.26682874                1.26543245
               9.20655466                3.95156108                7.93891110                1.00000000                0.23608933                0.27241191               -0.82984127                0.00389396                0.02804068                0.37530719
              10.20959112                3.93792622                7.89506834                1.00000000                0.30364545                0.36268988               -1.22337096               -0.03104748               -0.00156390               -0.27992881
               0.23540157                5.06112232                8.09118338                1.00000000               -0.21645756               -0.32179016                0.98590769               -0.04653991                0.06187790                0.74742919
               1.23323699                5.04449103                8.03929734                0.88839377               -0.14973707               -0.15214078                0.50554351               -0.02873731                0.09346362               -0.07865440
               2.23240683                5.02734918                7.98787763                0.00723325               -0.06978760                0.00737557                0.03618336                0.17938925                2.37004167               -0.83431452
               3.23184124                5.01378637                7.98162708                0.00010000               -0.10268200                0.32542057               -0.15617629                0.51327574                4.75839065               -0.23538430
               4.23035319                5.00268349                7.98021785                0.00010000               -0.16842350                0.24673693               -0.22999058                0.70728474                5.11494402               -0.31509874
               5.22847277                4.99252223                7.98314518                0.00010000               -0.22096936                0.20876824               -0.23805774                0.75199679                5.32219248               -0.18692285
               6.22593380                4.98284786                7.98775336                0.00010000               -0.28517842                0.16684060               -0.24301949                0.74314742                5.39399692                0.09999842
               7.22276920                4.97413252                7.99389560                0.00010000               -0.35497900                0.13188102               -0.24143572                0.73146968                5.48960665                0.51941319
               8.21883422                4.96707057                8.00196410                0.28839488               -0.14193057                0.11885696               -0.22306974                0.33717141                2.77116511                0.99778221
               9.21993059                4.95398317                7.95489696                1.00000000                0.18150978                0.20991512               -0.64256146               -0.00129574                0.00821615                0.33909913
              10.22246442                4.94131363                7.90772194                1.00000000                0.25338245                0.31367799               -1.06425427               -0.03163028               -0.00186652               -0.31547957
               0.25069281                6.05807378                8.08213898                1.00000000               -0.17215866               -0.28204409                0.85925199               -0.04917953                0.06748100                0.69739239
               1.24897122                6.04322579                8.02606029                0.74822548               -0.09799071               -0.09911266                0.33174414               -0.03627555                0.14288169               -0.16156195
               2.24873299                6.02772495                7.97133008                0.00247312               -0.00533046                0.07042308               -0.18097399                0.19683794                2.94451343               -0.95912242
               3.24886461                6.01628987                7.97143471                0.00010000               -0.05894238                0.24957162               -0.24937356                0.49941823                5.74898111               -0.69450913
               4.24755415                6.00530966                7.97546728                0.00010000               -0.18514344                0.27133667               -0.26020129                0.55919541                5.99567964               -0.43517231
               5.24516174                5.99473632                7.98300167                0.00010000               -0.28988465                0.23483287               -0.22794287                0.55985483                6.19716630               -0.19177303
               6.24175645                5.98464108                7.99331381                0.00010000               -0.39332097                0.18478617               -0.17148452                0.54616332                6.34506349                0.11802149
               7.23729532                5.97544702                8.00587333                0.00010000               -0.49971736                0.11976944               -0.09712834                0.54853931                6.48131172                0.49314328
               8.23176211                5.96786156                8.02068098                0.30517329               -0.25048187                0.04065538                0.00001238                0.25006947                3.27711578                0.92420467
               9.23228569                5.95575939                7.97044888                0.95052285                0.12677388                0.14713749               -0.45099587               -0.00647954                0.02267745                0.30120423
              10.23429758                5.94419978                7.92011029                1.00000000                0.20118971                0.26279003               -0.89831031               -0.03068947                0.01256746               -0.34739156
               0.26411397                7.05548144                8.07252766                1.00000000               -0.12536533               -0.23224626                0.72143662               -0.04832798                0.04274577                0.65568419
               1.26286032                7.04250878                8.01191374                0.67090975               -0.04172310               -0.04446673                0.14364925               -0.03903664                0.13472775               -0.22149100
               2.26327951                7.02875764                7.95299345                0.01807318                0.06922921                0.13786034               -0.42479604                0.17810298                3.45012397               -1.09132608
               3.26424490                7.01877781                7.95890969                0.00010000               -0.00944333                0.26523416               -0.36578862                0.41018360                6.73795258               -0.93001954
               4.26309064                7.00811023                7.96876159                0.00010000               -0.19532284                0.28006726               -0.28923470                0.37839651                6.97520790               -0.59255981
               5.26033844                6.99721889                7.98222814                0.00010000               -0.34721330                0.25233679               -0.20479467                0.36163037                7.16148084               -0.23657950
               6.25614637                6.98654359                7.99854558                0.00010000               -0.49094640                0.19578339               -0.09376160                0.33719101                7.30674569                0.10116003
               7.25051952                6.97652791                8.01745610                0.00282438               -0.63115663                0.09717691                0.04869618                0.32520809                7.46328311                0.46458851
               8.24352324                6.96788368                8.03897946                0.32497883               -0.35283664               -0.03616794                0.22357010                0.13184289                3.78412870                0.88371773
               9.24346278                6.95692592                7.98571670                0.90042341                0.07233026                0.08853396               -0.26340866               -0.01138470                0.03371386                0.27037054
              10.24496985                6.94656943                7.93210912                1.00000000                0.15070645                0.21389504               -0.74137839               -0.03085746                0.01259714               -0.38215896
               0.27567157                8.05342886                8.06253573                1.00000000               -0.07572848               -0.17927318                0.57548881               -0.04542089                0.03013058                0.63382436
               1.27491428                8.04233645                7.99745128                0.65044216                0.01772279                0.01302923               -0.05467525               -0.03333728                0.10772919               -0.24445961
               2.27602602                8.03048216                7.93380158                0.04505176                0.14007074                0.21251145               -0.69082578                0.14398330                3.85767145               -1.10050831
               3.27771570                8.02159455                7.94401304                0.00010000                0.03274847                0.25219488               -0.39036176                0.23876926                7.72350092               -1.16615761
               4.27668099                8.01091100                7.96067796                0.00010000               -0.18773542                0.24707594               -0.27689826                0.17192269                8.06352321               -0.63996294
               5.27396099                7.99978306                7.98075572                0.00010000               -0.37448700                0.24555338               -0.17840533                0.18185971                8.17328187               -0.23885273
               6.26919125                7.98855675                8.00321664                0.00010000               -0.57507991                0.21881738               -0.01855037                0.14578603                8.27167646                0.07721382
               7.26245939                7.97739055                8.02846896                0.00913034               -0.75951512                0.09648683                0.19097451                0.05992117                8.45278977                0.40032443
               8.25400095                7.96713820                8.05696619                0.34700297               -0.45435762               -0.11386318                0.44678981               -0.01604147                4.30086607                0.82833939
               9.25337224                7.95753006                8.00071261                0.89825489                0.01962274                0.03092899               -0.08324035               -0.01040377                0.03978731                0.25947760
              10.25439341                7.94847768                7.94379335                0.97438259                0.10211665                0.17142300               -0.59592053               -0.03165271                0.00579132               -0.40252093
               0.28539036                9.05189597                8.05233626                1.00000000               -0.02500888               -0.13144939                0.42663448               -0.03936511                0.03103307                0.52317649
               1.28514027                9.04276936                7.98283343                0.67542366                0.07553576                0.07628157               -0.26046317               -0.01801880                0.13693725               -0.22594239
               2.28690107                9.03300787                7.91536931                0.06292060                0.17255846                0.28698239               -0.95734601                0.04121082                4.18310473               -0.79091879
               3.28859144                9.02382170                7.92714987                0.00010000                0.07197552                0.14195494               -0.13814023                0.04647215                8.75981067               -0.96205729
               4.28834059                9.01305175                7.95275809                0.00010000               -0.11307754                0.17711250               -0.25100732                0.03292259                9.25883715               -0.43768380
               5.28632989                9.00212996                7.97921228                0.00010000               -0.34429929                0.21755424               -0.15823673                0.07912290                9.12446983               -0.14955617
               6.28145460                8.99091993                8.00717221                0.00010000               -0.65966994                0.23279788                0.04423127                0.02488786                9.16564520                0.04884035
               7.27313649                8.97845764                8.03820535                0.01461573               -0.91958484                0.19684279                0.31737602               -0.13444492                9.43148512                0.24782505
               8.26306290                8.96560642                8.07413281                0.36779940               -0.56106311               -0.18428936                0.66076596               -0.21471804                4.88498134                0.58989290
               9.26191523                8.95754450                8.01578724                0.94465280               -0.03106667               -0.02956340                0.09944450               -0.00565565                0.08070099                0.23721793
              10.26244157                8.94999789                7.95536706                0.96045534                0.05263411                0.13374997               -0.44686555               -0.03111756               -0.02064837               -0.33851852
               0.29313749               10.05079987                8.03993465                1.00000000                0.03045203               -0.10961046                0.26404189                0.08093458                0.32484854                0.42548113
               1.29344201               10.04386208                7.96879544                0.86595532                0.13302045                0.10927224               -0.45153429                0.10127074                0.57835718               -0.20503558
               2.29579790               10.03622180                7.90270243                0.54110446                0.25796280                0.32139333               -1.13688295               -0.08173928                4.78999195               -0.53106062
               3.29860127               10.02443365                7.91620502                0.35563708                0.16166472                0.06119462               -0.10529874               -0.08744497                9.52879738               -0.56070748
               4.29903119               10.01445325                7.94768811                0.35248157               -0.04630038                0.14015055               -0.27102770                0.05408558               10.08182017               -0.19932804
               5.29767526               10.00413414                7.97835030                0.37536588               -0.28349355                0.20041888               -0.15905175                0.07250977                9.83437004               -0.04209484
               6.29336132                9.99321271                8.01018201                0.42152758               -0.62956237                0.22927720                0.08502562                0.05033565                9.87386428                0.06190015
               7.28508401                9.98132741                8.04534322                0.50952942               -1.13707938                0.28697671                0.40819637               -0.29326271               10.25155784                0.17248830
               8.27061974                9.96345241                8.08713059                0.69271081               -0.81081807               -0.21540067                0.82024394               -0.46374747                5.57700711                0.40150142
               9.26886765                9.95693880                8.03026717                1.00000000               -0.08777344               -0.06057026                0.27421351                0.08025547                0.40453531                0.21684542
              10.26886427                9.95115268                7.96831302                0.98711796               -0.00033839                0.11547822               -0.28735333                0.06365762                0.15586434               -0.27030730
               0.16945150                0.09791004                9.15177138                1.00000000               -0.40281052               -0.44950955                1.54292029               -0.07862280               -0.43023582                0.48362560
               1.16542340                0.07049135                9.11293031                1.00000000               -0.33365940               -0.34808016                1.21478187               -0.05710983               -0.50109852               -0.00024251
               2.16277831                0.04277905                9.07253257                0.98464066               -0.18242112               -0.25084365                0.85275503               -0.04455060               -0.43462233               -0.19970272
               3.16177497                0.01575351                9.03491022                0.58955569                0.30194703               -0.18447920                0.52897456                0.35923100                0.46219281               -0.30503644
               4.16881725               -0.00210321                9.01238850                0.62939800                0.51368408               -0.17167117                0.23855280                0.01237420                1.13059141                0.00168031
               5.17204866               -0.01396745                8.98799538                0.68682127                0.21592136               -0.01190980               -0.10175880               -0.00581401                0.85276576                0.01042052
               6.17313568               -0.02495479                8.96043462                0.69023903                0.05934932                0.11201061               -0.45914118                0.00425796                0.72687694               -0.00036915
               7.17323564               -0.03832054                8.93364779                0.81437431                0.06454398                0.22690574               -0.80919217                0.06603883                0.46447532                0.02906414
               8.17442656               -0.05610641                8.90080534                1.00000000                0.22907237                0.34146010               -1.14034602                0.03677621               -0.03410375                0.30747888
               9.17781709               -0.07621403                8.86425709                1.00000000                0.40556141                0.41930656               -1.46060310               -0.05019653               -0.25286736                0.02706949
              10.18253779               -0.09634420                8.82720851                1.00000000                0.47206997                0.51153695               -1.76908211               -0.07923056               -0.28384696               -0.30354996
               0.19608396                1.09341494                9.13882407                1.00000000               -0.36661657               -0.43334813                1.40295102               -0.03346745               -0.03668674                0.66219311
               1.19241779                1.06701055                9.09951810                1.00000000               -0.31911137               -0.32602409                1.07481621               -0.01353157                0.03204242                0.00803290
               2.18970173                1.04027062                9.06148461                0.69664344               -0.23046880               -0.22439916                0.74414741                0.00557062                0.27563189               -0.51038067
               3.18780841                1.01390872                9.02706277                0.03813684               -0.29501245               -0.17727789                0.41257658                0.45682068                1.37481430               -0.65429375
               4.18380148                0.99618008                9.01120512                0.14257606               -0.21960528                0.05761987                0.20825350                0.59690514                1.94226468                0.06115597
               5.18341631                0.98591345                8.98995773                0.20410901                0.07766612                0.09960827               -0.09939185                0.56798422                1.45907045                0.16160624
               6.18535480                0.97616531                8.96525853                0.13981670                0.30277658               -0.05571967               -0.42757124                0.47203748                1.31788166               -0.33173260
               7.18947184                0.96394852                8.94160563                0.33076104                0.41931337                0.26471852               -0.73001927                0.44133984                1.19809146                0.51646895
               8.19374107                0.94730819                8.91452099                1.00000000                0.39810881                0.31572446               -1.01528622                0.14404892                0.58693336                0.39424426
               9.19743402                0.92797904                8.87836145                1.00000000                0.40672925                0.39966065               -1.31942519               -0.00227771                0.08461341                0.07506656
              10.20187565                0.90877117                8.84124744                1.00000000                0.44416378                0.48724506               -1.62755701               -0.03093882                0.03309311               -0.35719986
               0.22159093                2.08924307                9.12925257                1.00000000               -0.32938391               -0.40369734                1.29202860               -0.03792310                0.03238732                0.85598986
               1.21829709                2.06397087                9.08616490                1.00000000               -0.27996855               -0.28492138                0.93989431               -0.02059307                0.09282343               -0.00947778
               2.21599156                2.03829107                9.04417947                0.31741333               -0.16475835               -0.17200833                0.60830813               -0.01692664                0.64947717               -0.93939403
               3.21500192                2.01220795                9.01222563                0.00010000               -0.36204644               -0.15171847                0.28080032                0.70735803                2.66496960               -1.25601897
               4.20875063                1.99904919                9.01076686                0.00010000               -0.57894072                0.19395186                0.66222093                1.45042931                3.04535329               -0.78371475
               5.20342311                1.98802471                8.99478254                0.00010000               -0.21046361                0.08363530                0.04114829                1.26302989                1.52881063               -0.46048150
               6.20454136                1.97393081                8.96350511                0.00010000                0.37482275               -0.06220370               -0.44808208                1.28346432                2.13468260                0.03386848
               7.21091956                1.96697383                8.95942476                0.00010000                0.43678331                0.01994489               -0.60830168                0.93142467                2.37898876                0.33964756
               8.21327702                1.95020808                8.93001610                0.40853982                0.26944937                0.28680760               -0.87046138                0.16975525                0.78297268                0.74869109
               9.21630855                1.93177919                8.89351124                1.00000000                0.35288615                0.37131472               -1.17428331                0.02335991                0.29253606                0.32152736
              10.22033475                1.91340070                8.85434691                1.00000000                0.40261952                0.44011449               -1.49935983               -0.02288056                0.15661154               -0.37102664
               0.24586990                3.08534099                9.11998654                1.00000000               -0.29119633               -0.37656684                1.18313647               -0.04083678                0.02753172                0.87271067
               1.24295793                3.06131212                9.07230519                1.00000000               -0.23718917               -0.24440939                0.79927311               -0.02450964                0.03080453               -0.03832095
               2.24112611                3.03683045                9.02456239                0.13605370               -0.08802395               -0.11400603                0.41561990               -0.07352239                0.80524839               -1.00783553
               3.24119745                3.01087435                8.99236981                0.00010000               -0.20664022                0.07818062                0.09993658                0.61580903                3.12702360               -1.02458355
               4.23699331                3.00005912                8.99131876                0.00010000               -0.37010854                0.14499424                0.01821179                1.45416277                4.25831236               -1.19507788
               5.23379528                2.98758615                8.98417933                0.00010000               -0.24591720                0.04394991               -0.09879165                1.48697366                3.73375036               -0.83219012
               6.23207496                2.97492124                8.97524374                0.00010000               -0.09861066                0.12461826               -0.33453635                1.39219139                3.47591511                0.27387123
               7.23182307                2.96434742                8.96407578                0.00010000                0.01279294               -0.09273537               -0.52363317                1.02558464                3.22413196                0.08639092
               8.23233082                2.95304434                8.95086553                0.26426523                0.14427583                0.27161986               -0.72314269                0.42694273                1.85478003                1.32543641
               9.23470859                2.93540533                8.91259550                1.00000000                0.29220921                0.33354445               -0.99863813                0.03078997                0.29392466                0.47152490
              10.23817501                2.91757346                8.86830343                1.00000000                0.34664207                0.39915173               -1.36013359               -0.03073857               -0.01215200               -0.30570459
               0.26883193                4.08171174                9.11058996                1.00000000               -0.25144897               -0.34885012                1.07074239               -0.04058043                0.02796196                0.85507396
               1.26631744                4.05908268                9.05832073                1.00000000               -0.19365238               -0.19985908                0.65212603               -0.02166084                0.03091989               -0.04347809
               2.26495888                4.03601095                9.00597665                0.05109115               -0.11140034               -0.05380145                0.23259487                0.04564585                1.46245597               -0.90920711
               3.26408943                4.01377157                8.98237852                0.00010000               -0.19184013                0.37115227               -0.22272478                0.52047307                4.07612248               -0.17896712
               4.26112208                4.00194907                8.98285366                0.00010000               -0.28944870                0.20431373               -0.14190496                1.06478080                5.06278233               -0.48918713
               5.25830046                3.98890371                8.98143810                0.00010000               -0.27490812                0.16572305               -0.20326614                1.04903265                4.84293821               -0.33421787
               6.25562392                3.97642318                8.97948458                0.00010000               -0.24961531                0.16262941               -0.29271350                1.04712711                4.72118855               -0.00469578
               7.25330815                3.96511913                8.97753000                0.00010000               -0.24329771                0.11593556               -0.38921243                1.00787468                4.75027013                0.55958592
               8.25075796                3.95564047                8.97765975                0.26836225               -0.04564632                0.21008443               -0.46364820                0.45743235                2.43850486                1.39483157
               9.25239523                3.93845007                8.93066095                1.00000000                0.23128762                0.27280315               -0.82040834                0.01338111                0.04011023                0.41071708
              10.25538372                3.92138374                8.88292183                1.00000000                0.29884889                0.35899283               -1.20727618               -0.02916230               -0.00108741               -0.29718851
               0.29031639                5.07836399                9.10085481                1.00000000               -0.20908878               -0.31716525                0.95040712               -0.04254688                0.06512518                0.81358534
               1.28822550                5.05731494                9.04433262                0.87452952               -0.14831226               -0.15101798                0.50134619               -0.02496638                0.10077144               -0.09141883
               2.28735015                5.03575442                8.98839045                0.01354987               -0.12783576                0.00491011                0.06389136                0.20721473                2.50910800               -0.91796178
               3.28566879                5.01829740                8.98011197                0.00010000               -0.20966829                0.36143008               -0.15513172                0.56021764                5.09219050               -0.18023793
               4.28315678                5.00414539                8.97798925                0.00010000               -0.26834784                0.24236090               -0.21636499                0.79034923                5.54532314               -0.32968715
               5.28030183                4.99090061                8.98082349                0.00010000               -0.31773465                0.21545067               -0.22511005                0.82436122                5.77562158               -0.19627375
               6.27680209                4.97817383                8.98532834                0.00010000               -0.37692821                0.18765635               -0.23903032                0.81893341                5.83780333                0.11698498
               7.27276327                4.96666613                8.99143750                0.00010000               -0.43267829                0.15244135               -0.24664597                0.82735794                5.92972535                0.57803690
               8.26814852                4.95724603                8.99967504                0.28196108               -0.17651623                0.11808590               -0.23329570                0.39633968                2.99008511                1.10290086
               9.26923294                4.94086140                8.94850004                1.00000000                0.17879560                0.20791879               -0.63596885                0.00740026                0.00979618                0.37879833
              10.27172443                4.92475332                8.89715894                1.00000000                0.24914912                0.31297414               -1.04832930               -0.02955340               -0.00259320               -0.32596993
               0.31007909                6.07536843                9.09052487                1.00000000               -0.16514049               -0.27582845                0.82049837               -0.04513446                0.06769316                0.75635669
               1.30842768                6.05606232                9.02936590                0.73623884               -0.09791825               -0.09782899                0.32948542               -0.03248100                0.14856860               -0.19077307
               2.30812072                6.03610915                8.96969886                0.00647071               -0.07624347                0.06847230               -0.14753373                0.23698637                3.17101456               -1.07690112
               3.30690282                6.02100017                8.96911201                0.00010000               -0.18974391                0.25836683               -0.21950417                0.58005718                6.21355862               -0.72606596
               4.30432585                6.00679629                8.97298792                0.00010000               -0.30717824                0.27619305               -0.23793242                0.65234607                6.50544220               -0.43240202
               5.30075925                5.99321272                8.98078999                0.00010000               -0.40443880                0.24988552               -0.21336189                0.64399857                6.73161994               -0.18171163
               6.29623707                5.98017630                8.99160505                0.00010000               -0.49880697                0.20896833               -0.16736026                0.61992747                6.88581950                0.14654467
               7.29078311                5.96816795                9.00485116                0.00010000               -0.58737889                0.13928232               -0.10404602                0.62608420                7.02434387                0.55271067
               8.28448949                5.95800219                9.02058516                0.29881465               -0.28735842                0.03725590               -0.01640432                0.29621136                3.54557554                1.02334557
               9.28503594                5.94260845                8.96596221                0.94222908                0.12596556                0.14415000               -0.44903854                0.00143139                0.02518375                0.33993279
              10.28700880                5.92764322                8.91125323                1.00000000                0.19728613                0.26274239               -0.88014077               -0.02801980                0.01810245               -0.35996379
               0.32802592                7.07284742                9.07951834                1.00000000               -0.11907511               -0.22454203                0.68003197               -0.04392507                0.04069064                0.70763863
               1.32683517                7.05535836                9.01336434                0.65987377               -0.04369431               -0.04369045                0.14667514               -0.03403966                0.13523795               -0.26139109
               2.32715203                7.03712387                8.94899047                0.01847603               -0.01261874                0.13385042               -0.37863234                0.22142570                3.75840691               -1.23285281
               3.32658279                7.02346473                8.95548631                0.00010000               -0.15804414                0.25634281               -0.32513233                0.50857654                7.34997983               -0.94054342
               4.32399115                7.00966925                8.96604407                0.00010000               -0.33904998                0.29256514               -0.25924453                0.50135032                7.59002393               -0.57132732
               5.31980179                6.99589833                8.98028466                0.00010000               -0.48728709                0.28165769               -0.18518266                0.46472799                7.78119870               -0.21606662
               6.31424541                6.98235319                8.99762704                0.00010000               -0.61713627                0.23019588               -0.08795301                0.41090093                7.93875971                0.13295812
               7.30745907                6.96945178                9.01787542                0.00010000               -0.73065761                0.12205592                0.03849402                0.38352491                8.10619970                0.52341789
               8.29963225                6.95799115                9.04106132                0.31876877               -0.39192623               -0.03710681                0.19607634                0.16243530                4.10100647                0.98332774
               9.29962054                6.94374440                8.98308489                0.90198296                0.07311221                0.08631845               -0.26480899               -0.00582390                0.03248212                0.30144872
              10.30109450                6.93000817                8.92481690                1.00000000                0.14739569                0.21326262               -0.72371843               -0.02818447                0.01624794               -0.40920420
               0.34417871                8.07087759                9.06805857                1.00000000               -0.07082583               -0.17032984                0.53309964               -0.04100678                0.02653936                0.68187490
               1.34347045                8.05518852                8.99696241                0.63885015                0.01320815                0.01162351               -0.04306833               -0.02809367                0.09941394               -0.29206593
               2.34444287                8.03878616                8.92723941                0.03970077                0.05292557                0.20083932               -0.62537352                0.18698406                4.28905263               -1.25320160
               3.34452896                8.02612702                8.94019361                0.00010000               -0.12618043                0.25807657               -0.38082897                0.38293620                8.50157041               -1.03191912
               4.34191926                8.01264759                8.95807859                0.00010000               -0.35795444                0.28674020               -0.25446124                0.33485015                8.74238214               -0.58078724
               5.33736987                7.99884588                8.97913946                0.00010000               -0.55088116                0.29626476               -0.15160628                0.29395709                8.85982530               -0.21355859
               6.33090164                7.98478022                9.00306975                0.00010000               -0.72771071                0.26899815               -0.01028894                0.21025658                8.99276221                0.10487843
               7.32281566                7.97060907                9.03028347                0.00738249               -0.87280284                0.13323419                0.17572419                0.09404224                9.19801626                0.45102529
               8.31344558                7.95726005                9.06121366                0.34160104               -0.49566058               -0.10821336                0.40644747               -0.00347969                4.66465008                0.92215733
               9.31290244                7.94433482                8.99981251                0.89807102                0.02359968                0.03171868               -0.09504332               -0.00821959                0.03018886                0.28693094
              10.31391757                7.93190847                8.93790265                0.97820027                0.10151296                0.17138774               -0.58277143               -0.02930409                0.00452134               -0.43515652
               0.35858393                9.06944082                9.05636841                1.00000000               -0.02192072               -0.12099946                0.38441600               -0.03591779                0.02343658                0.56388521
               1.35836472                9.05559083                8.98034813                0.66241635                0.06846353                0.07071209               -0.23718629               -0.01501439                0.12295087               -0.26980825
               2.35995320                9.04114065                8.90626782                0.05082878                0.10076768                0.26474946               -0.86821013                0.11108760                4.83843427               -0.90323615
               3.36038008                9.02862626                8.92487881                0.00010000               -0.09919522                0.22560010               -0.29317332                0.20079984                9.66607102               -0.76410428
               4.35796930                9.01540406                8.95048464                0.00010000               -0.34158864                0.25952009               -0.23284685                0.17004892                9.88667661               -0.37914195
               5.35354831                9.00182362                8.97786006                0.00010000               -0.56409783                0.28935047               -0.12444590                0.15725521                9.86459214               -0.13246477
               6.34668734                8.98773316                9.00766712                0.00010000               -0.83441137                0.29539839                0.05428264                0.06405777                9.97419030                0.06569070
               7.33686008                8.97211646                9.04124926                0.01496485               -1.04252141                0.24892441                0.29617790               -0.12505364               10.28086073                0.27771020
               8.32583691                8.95582688                9.08042861                0.36497276               -0.60261738               -0.17017810                0.60416397               -0.21929273                5.30462478                0.65022308
               9.32480773                8.94437877                9.01665165                0.94281111               -0.02379023               -0.02370552                0.07514514               -0.00588540                0.07071286                0.26176677
              10.32536111                8.93343592                8.95093965                0.96204607                0.05533782                0.13431850               -0.44169312               -0.02859526               -0.02312039               -0.36437275
               0.37116033               10.06845760                9.04236629                1.00000000                0.03099989               -0.09832233                0.22663313                0.07215574                0.33708309                0.45853937
               1.37147033               10.05660276                8.96445441                0.85987879                0.12344281                0.10119242               -0.41804625                0.09173808                0.60282037               -0.24151190
               2.37362919               10.04408115                8.89185346                0.53385652                0.14056093                0.29404954               -1.03891001                0.06941220                5.60187137               -0.60105242
               3.37428155               10.03063903                8.91429220                0.35631052               -0.07531539                0.20127625               -0.28227453                0.07798976               10.51615465               -0.38961233
               4.37212288               10.01783800                8.94522800                0.35283220               -0.30478381                0.24339400               -0.25376587                0.11505136               10.73381648               -0.15886836
               5.36818588               10.00463289                8.97700998                0.37557490               -0.51164650                0.28092657               -0.12267921                0.10626662               10.64588209               -0.02743607
               6.36188995                9.99068819                9.01108377                0.42178438               -0.79825074                0.29550342                0.09489629                0.06799480               10.76687378                0.07659812
               7.35222086                9.97558756                9.04927451                0.51060536               -1.25462674                0.34711001                0.38363577               -0.30550665               11.19697768                0.19556823
               8.33679742                9.95385649                9.09496134                0.69284857               -0.85225832               -0.19703861                0.75322278               -0.49029221                6.06451342                0.43267134
               9.33517569                9.94386071                9.03281825                1.00000000               -0.07830257               -0.05180604                0.23855380                0.07371389                0.42260857                0.23612842
              10.33523137                9.93459484                8.96543482                0.98745429                0.00556719                0.11589222               -0.29077871                0.06043913                0.16648403               -0.29038414
               0.20541878                0.11658960               10.16704993                1.00000000               -0.39613903               -0.44008459                1.51443039               -0.07643575               -0.47050130                0.52117208
               1.20145739                0.08463220               10.12499093                1.00000000               -0.32750198               -0.34276381                1.19782754               -0.05616818               -0.55922160                0.00610724
               2.19886874                0.05239797               10.08102591                0.99620148               -0.17808318               -0.24815537                0.84507408               -0.04362087               -0.49097251               -0.19339716
               3.19789572                0.02095456               10.04021988                0.59946895                0.30572625               -0.18301620                0.53050050                0.38539713                0.43734934               -0.33868726
               4.20498326               -0.00068918               10.01476047                0.64705559                0.50400578               -0.15012363                0.23673540                0.00207082                1.09245486                0.01471037
               5.20797584               -0.01581348                9.98699824                0.70824507                0.20062175               -0.00442529               -0.09727030               -0.00151261                0.78888187                0.01568925
               6.20899570               -0.02997605                9.95589887                0.70575401                0.05589393                0.11024770               -0.44751026                0.00526600                0.65553103               -0.00694542
               7.20909372               -0.04638572                9.92560539                0.82263137                0.05900826                0.22197869               -0.79759468                0.06435463                0.40227930                0.02925986
               8.21017586               -0.06731705                9.88946444                1.00000000                0.21920864                0.33894003               -1.12643513                0.04122202               -0.08039666                0.31895728
               9.21347789               -0.09076574                9.84972853                1.00000000                0.39799464                0.41484701               -1.44403231               -0.05065117               -0.28827796                0.02490730
              10.21813575               -0.11428478                9.80960888                1.00000000                0.46578653                0.50491330               -1.75011311               -0.07976789               -0.31400570               -0.33464674
               0.23661182                1.11218876               10.15271196                1.00000000               -0.36203031               -0.42365910                1.37641752               -0.03198716               -0.04577136                0.71297539
               1.23299152                1.08120456               10.11019250                1.00000000               -0.31702398               -0.32085646                1.06049521               -0.01149511                0.01991108                0.01678647
               2.23027135                1.04991641               10.06890102                0.71985450               -0.23491270               -0.22327709                0.73773146                0.01236575                0.26066451               -0.51554935
               3.22829327                1.01912440               10.03120626                0.05622881               -0.34416761               -0.17663429                0.41444148                0.50506818                1.42003767               -0.69331307
               4.22338799                0.99780958               10.01326580                0.16969658               -0.28445604                0.09254110                0.20467127                0.46373480                2.00449176                0.31014076
               5.22260415                0.98414226                9.98897663                0.23521290                0.04732397                0.09803234               -0.09660833                0.48279412                1.46645824                0.21315737
               6.22433447                0.97112643                9.96103283                0.16264652                0.29018075               -0.04108396               -0.41755072                0.41245876                1.32662562               -0.34806112
               7.22840776                0.95583407                9.93435156                0.34462084                0.42218104                0.25521904               -0.71981859                0.44891138                1.22046810                0.53429107
               8.23277809                0.93607235                9.90442774                1.00000000                0.40237409                0.31319242               -1.00278591                0.15576720                0.60170423                0.41488858
               9.23645524                0.91338273                9.86523908                1.00000000                0.40395124                0.39605021               -1.30463946               -0.00192751                0.08668526                0.07457893
              10.24085712                0.89076435                9.82505769                1.00000000                0.44018744                0.47924768               -1.61033898               -0.03137378                0.03287586               -0.39493131
               0.26674743                2.10811642               10.14203005                1.00000000               -0.32476029               -0.39432284                1.26533917               -0.03405114                0.03071868                0.92189358
               1.26349983                2.07821507               10.09550452                1.00000000               -0.27756098               -0.28091093                0.92806082               -0.01487098                0.10020310               -0.00083122
               2.26119621                2.04793243               10.05028658                0.33484388               -0.16979551               -0.17475364                0.61114619               -0.00060991                0.66670302               -0.98509105
               3.26010392                2.01742188               10.01508457                0.00010000               -0.59780576               -0.15655150                0.28974872                0.79644069                3.02808369               -1.32399318
               4.24924010                2.00116164               10.01727550                0.00010000               -0.78945198                0.22517500                0.58054248                1.54940518                3.21667648               -0.87419691
               5.24431488                1.98614716                9.99476854                0.00010000               -0.18435157                0.08288872               -0.02205377                1.32427938                1.39335153               -0.47359151
               6.24555306                1.96920227                9.95937309                0.00010000                0.44055709               -0.07827164               -0.40049587                1.35056642                2.22371458                0.05375288
               7.25312602                1.95871866                9.95328869                0.00010000                0.50947407               -0.00192884               -0.61558941                0.97448919                2.48772235                0.36045946
               8.25574255                1.93894680                9.92136651                0.41299765                0.28106599                0.29025378               -0.85946319                0.20389098                0.84090897                0.78031413
               9.25874734                1.91715526                9.88183609                1.00000000                0.35012465                0.37164943               -1.16097961                0.03166131                0.31438050                0.33757279
              10.26274504                1.89530017                9.83943431                1.00000000                0.39976992                0.43032404               -1.48371592               -0.02052901                0.16798410               -0.40919070
               0.29573351                3.10430230               10.13167123                1.00000000               -0.28554116               -0.36868122                1.15561931               -0.03603202                0.02665750                0.93882547
               1.29287810                3.07558634               10.08025275                1.00000000               -0.23405855               -0.24217281                0.79014974               -0.01881266                0.02891939               -0.03541494
               2.29105234                3.04642134               10.02877724                0.14842087               -0.09426159               -0.11835949                0.42535473               -0.05786487                0.83548925               -1.07889923
               3.29099287                3.01599337                9.99346978                0.00010000               -0.27007638                0.05190393                0.11674016                0.71833350                3.30602854               -1.19530900
               4.28565081                3.00231308                9.99165655                0.00010000               -0.49718799                0.13795238                0.03728299                1.74534753                4.54252491               -1.55261073
               5.28104911                2.98580004                9.98325490                0.00010000               -0.34382560                0.05426399               -0.09672842                1.67235301                3.92808531               -0.94969922
               6.27877430                2.96956099                9.97193656                0.00010000               -0.14480448                0.09617423               -0.32698475                1.56390278                3.63872260                0.31017165
               7.27815302                2.95579549                9.95886633                0.00010000               -0.01774931               -0.10396305               -0.51658411                1.14546399                3.40709282                0.12625042
               8.27841931                2.94187743                9.94369212                0.26041728                0.12910403                0.28123703               -0.70919141                0.48930767                1.97699653                1.40567949
               9.28073510                2.92081572                9.90266662                1.00000000                0.28687057                0.33578127               -0.98769659                0.04204282                0.33633502                0.50197585
              10.28415672                2.89937083                9.85477813                1.00000000                0.34216268                0.39133849               -1.34602250               -0.02936013               -0.01081016               -0.33046034
               0.32345871                4.10074280               10.12114287                1.00000000               -0.24541770               -0.34215978                1.04171281               -0.03637179                0.02651519                0.91685661
               1.32100453                4.07337161               10.06480884                1.00000000               -0.19134136               -0.19844266                0.64537001               -0.01694419                0.02778025               -0.04541466
               2.31963188                4.04556524               10.00839015                0.06111953               -0.12128441               -0.05768041                0.24802079                0.04228220                1.42826910               -0.96918968
               3.31857885                4.01845996                9.98008390                0.00010000               -0.26457521                0.37273762               -0.22844316                0.57244225                4.31049599               -0.24026763
               4.31434038                4.00392069                9.98152285                0.00010000               -0.40324089                0.18212047               -0.12787851                1.18349031                5.49517373               -0.57566947
               5.31051403                3.98723244                9.97949195                0.00010000               -0.37523580                0.17224116               -0.18928657                1.14010340                5.17570375               -0.40074916
               6.30683566                3.97112575                9.97659011                0.00010000               -0.33975809                0.17530492               -0.28516314                1.13542611                5.02711216                0.00346513
               7.30371887                3.95663940                9.97363801                0.00010000               -0.31635950                0.12882983               -0.38636618                1.11548914                5.05656810                0.61935743
               8.30050847                3.94457154                9.97299642                0.26278258               -0.08120377                0.21628765               -0.46703401                0.51927786                2.60880862                1.51319287
               9.30209479                3.92387089                9.92250293                1.00000000                0.22695688                0.27210780               -0.81205216                0.02314588                0.05710078                0.44460548
              10.30504761                3.90312694                9.87092281                1.00000000                0.29528204                0.35460023               -1.19448756               -0.02749382               -0.00017986               -0.31117022
               0.34974845                5.09745911               10.11019153                1.00000000               -0.20316695               -0.31027057                0.91907503               -0.03886622                0.06940915                0.86823610
               1.34771678                5.07161749               10.04932426                0.86139502               -0.14694027               -0.14965019                0.49682617               -0.02136484                0.10968939               -0.10546735
               2.34680964                5.04526773                9.98915546                0.02123739               -0.18152585                0.00108388                0.08653621                0.23029613                2.61893720               -0.99300364
               3.34408626                5.02344812                9.97852445                0.00010000               -0.31307545                0.39671247               -0.17364723                0.59778180                5.39878046               -0.10377047
               4.34054813                5.00595549                9.97589055                0.00010000               -0.37200748                0.23430543               -0.20602096                0.87206844                5.96459357               -0.34191403
               5.33664611                4.98924486                9.97864298                0.00010000               -0.42361352                0.22042415               -0.21188494                0.88872925                6.20443568               -0.20447116
               6.33207586                4.97306709                9.98297275                0.00010000               -0.48145472                0.20737619               -0.23107863                0.88516190                6.25519811                0.13846642
               7.32701701                4.95837209                9.98896268                0.00010000               -0.52512383                0.17119499               -0.24625295                0.91096538                6.34879149                0.63912357
               8.32157338                4.94620318                9.99729818                0.27611069               -0.21872007                0.11853236               -0.24160962                0.44699401                3.20464731                1.20332056
               9.32264261                4.92625787                9.94217758                1.00000000                0.17606810                0.20511514               -0.62873618                0.01430823                0.01541872                0.41474901
              10.32509475                4.90646284                9.88675536                1.00000000                0.24521321                0.31078003               -1.03255927               -0.02800438               -0.00272305               -0.33349418
               0.37436462                6.09453739               10.09854895                1.00000000               -0.15960133               -0.26792958                0.78688696               -0.04151116                0.06789812                0.80264930
               1.37276861                6.07037861               10.03264999                0.72513311               -0.09787257               -0.09665230                0.32733314               -0.02871520                0.15429594               -0.22002400
               2.37240717                6.04558691                9.96837940                0.01170450               -0.14609435                0.06461496               -0.11883347                0.27658135                3.37776133               -1.18318613
               3.36984672                6.02639420                9.96704462                0.00010000               -0.32110802                0.27186104               -0.20024030                0.65622612                6.64229670               -0.72961356
               4.36598501                6.00860680                9.97070864                0.00010000               -0.43348543                0.28187571               -0.22237755                0.73956830                6.98210157               -0.41516810
               5.36117701                5.99164092                9.97873443                0.00010000               -0.52866696                0.26516135               -0.19902413                0.71999074                7.23397647               -0.16264571
               6.35541167                5.97527328                9.98996660                0.00010000               -0.61874641                0.23354785               -0.15953149                0.68386584                7.39527389                0.18100319
               7.34880209                5.96006330               10.00379241                0.00010000               -0.69245516                0.15959345               -0.10584067                0.69305609                7.54043541                0.61334486
               8.34156257                5.94694219               10.02035290                0.29302561               -0.33403936                0.03592797               -0.02968625                0.33352077                3.80394012                1.11475411
               9.34212130                5.92797319                9.96146811                0.92968659                0.12575164                0.14233590               -0.44939883                0.00572936                0.02867132                0.37600201
              10.34407760                5.90934254                9.90250747                1.00000000                0.19563027                0.26365442               -0.87053213               -0.02626342                0.02363690               -0.36954812
               0.39723578                7.09210051               10.08612830                1.00000000               -0.11428341               -0.21605521                0.64505178               -0.04010481                0.03881571                0.74683257
               1.39609294                7.06968444               10.01484724                0.65001706               -0.04550538               -0.04336346                0.14982566               -0.02936848                0.13579771               -0.29836094
               2.39632567                7.04656003                9.94542080                0.02038945               -0.09510232                0.12769286               -0.33843347                0.26848069                4.04164419               -1.35557831
               3.39419090                7.02888534                9.95240705                0.00010000               -0.31164470                0.25847341               -0.29676304                0.60470878                7.91509603               -0.94978554
               4.39009278                7.01159301                9.96357670                0.00010000               -0.49057270                0.31239425               -0.23902209                0.61302579                8.16036461               -0.54097301
               5.38437944                6.99454809                9.97852449                0.00010000               -0.63809884                0.31477770               -0.16943776                0.55671840                8.35965601               -0.18315247
               6.37733080                6.97773805                9.99678652                0.00010000               -0.75851076                0.26704813               -0.08017724                0.47533443                8.53092469                0.17238175
               7.36920923                6.96156396               10.01822598                0.00010000               -0.84984450                0.14869611                0.03340161                0.43287054                8.71214920                0.58199187
               8.36033391                6.94692174               10.04290098                0.31326682               -0.44261914               -0.03640671                0.17449088                0.18714875                4.40356255                1.07178110
               9.36035685                6.92910459                9.98042052                0.89486875                0.07484349                0.08643637               -0.27177279               -0.00100439                0.03364448                0.33182433
              10.36183078                6.91173592                9.91763475                1.00000000                0.14739337                0.21546276               -0.71964584               -0.02556926                0.01957861               -0.42861512
               0.41839467                8.09021628               10.07319773                1.00000000               -0.06729503               -0.16172797                0.49827956               -0.03730106                0.02358121                0.71759100
               1.41772172                8.06951134                9.99658991                0.62910740                0.00906059                0.00983807               -0.03194085               -0.02342889                0.09224781               -0.33372419
               2.41857588                8.04814077                9.92129411                0.03691618               -0.04068986                0.18845313               -0.56812265                0.24328741                4.66702160               -1.38061888
               3.41690792                8.03156367                9.93639646                0.00010000               -0.29965503                0.27778380               -0.37745012                0.51095269                9.21278079               -0.96647491
               4.41258278                8.01485468                9.95558874                0.00010000               -0.53707919                0.33632486               -0.24733336                0.46864457                9.38736901               -0.52619651
               5.40616634                7.99793648                9.97772360                0.00010000               -0.73401471                0.35310239               -0.13646351                0.39096846                9.50320532               -0.17601895
               6.39790249                7.98061424               10.00301086                0.00010000               -0.89452670                0.32408404               -0.00278737                0.26595775                9.66261030                0.14018006
               7.38827581                7.96303722               10.03198345                0.00633513               -1.00687895                0.17284213                0.16618600                0.11913960                9.89402280                0.49990459
               8.37776491                7.94621405               10.06509514                0.33703026               -0.54943905               -0.10292700                0.37348736                0.00418968                5.00857866                1.00328624
               9.37728703                7.92970192                9.99881175                0.89797596                0.02693218                0.03347540               -0.10605542               -0.00503260                0.02503482                0.31034930
              10.37830355                7.91365180                9.93213792                1.00000000                0.10165278                0.17211720               -0.57589191               -0.02639308                0.00702055               -0.46117380
               0.43789964                9.08886595               10.06002458                1.00000000               -0.01997659               -0.11206977                0.35072690               -0.03306243                0.01743059                0.59433899
               1.43769988                9.06988120                9.97808971                0.65187847                0.06197209                0.06539802               -0.21584528               -0.01236668                0.11153836               -0.30677752
               2.43913909                9.05032910                9.89800511                0.04256969               -0.00019184                0.24443478               -0.79070852                0.19907307                5.35869078               -0.99417895
               3.43769604                9.03444102                9.92128641                0.00010000               -0.30231116                0.31254690               -0.38938699                0.33161556               10.50372479               -0.66278175
               4.43309286                9.01831950                9.94810115                0.00010000               -0.56283927                0.34672436               -0.24753778                0.27880375               10.54569348               -0.32882807
               5.42643926                9.00161013                9.97672336                0.00010000               -0.77718263                0.36745511               -0.11083294                0.22355062               10.56075722               -0.10575341
               6.41754921                8.98421973               10.00825787                0.00010000               -1.02235228                0.36485615                0.06141473                0.09712225               10.71977179                0.08744402
               7.40599221                8.96502080               10.04412891                0.01555400               -1.18981001                0.30755203                0.28197093               -0.12431717               11.06778801                0.30497414
               8.39375301                8.94486320               10.08621609                0.36258392               -0.65868802               -0.15868358                0.55883863               -0.23226690                5.69673630                0.70007801
               9.39281845                8.92977410               10.01729015                0.94067499               -0.01749225               -0.01868734                0.05402374               -0.00628080                0.06287891                0.28164114
              10.39340316                8.91517827                9.94653319                0.96383799                0.05847149                0.13514246               -0.44171602               -0.02672123               -0.02516288               -0.38656936
               0.45570293               10.08797489               10.04446731                1.00000000                0.03083207               -0.08910678                0.19721816                0.06476960                0.34598343                0.48343451
               1.45601125               10.07081930                9.96043451                0.85508902                0.11473010                0.09380964               -0.38808388                0.08386601                0.62177210               -0.27139454
               2.45799753               10.05302947                9.88192423                0.52877968               -0.02307103                0.27003717               -0.95398324                0.23560995                6.23926841               -0.65587907
               3.45554983               10.03781461                9.91055953                0.35712565               -0.35038930                0.33735915               -0.42138163                0.22336378               11.43785742               -0.31389508
               4.45098974               10.02178917                9.94261280                0.35316905               -0.54063494                0.34696657               -0.27483986                0.16323661               11.42716513               -0.12767662
               5.44473713               10.00528558                9.97589672                0.37568364               -0.72777375                0.36754464               -0.10899414                0.13589699               11.40837012               -0.00971335
               6.43643427                9.98791136               10.01207994                0.42191088               -0.97955670                0.36916345                0.10177721                0.08364006               11.59162988                0.09200764
               7.42514599                9.96918827               10.05301594                0.51156826               -1.40339974                0.41674642                0.36721389               -0.32817070               12.07258920                0.21535193
               8.40836627                9.94304038               10.10219504                0.69284885               -0.91498269               -0.18228182                0.70057743               -0.53167825                6.51540239                0.45603708
               9.40684634                9.92932817               10.03503824                1.00000000               -0.07027392               -0.04459278                0.20811621                0.06850239                0.43817616                0.25201782
              10.40696079                9.91635465                9.96249745                1.00000000                0.01144542                0.11763778               -0.29910316                0.05841033                0.17479690               -0.30616426
               0.24415947                0.13700941               11.18205999                1.00000000               -0.38964896               -0.43150823                1.48909664               -0.07510414               -0.50774896                0.55581534
               1.24026298                0.10021037               11.13688686                1.00000000               -0.32147802               -0.33776754                1.18170789               -0.05602872               -0.61538176                0.01265639
               2.23772991                0.06316089               11.08943405                1.00000000               -0.17377899               -0.24619222                0.84022137               -0.04303353               -0.54755063               -0.18659618
               3.23678740                0.02700701               11.04552023                0.60713190                0.30790430               -0.18292379                0.53332649                0.40667094                0.40791321               -0.37017382
               4.24388800                0.00118034               11.01712321                0.66090541                0.49502457               -0.13124634                0.23633021               -0.00757814                1.05131820                0.02831431
               5.24668789               -0.01761045               10.98604998                0.72563082                0.18755803                0.00167475               -0.09196187                0.00195867                0.72559428                0.02174656
               6.24763916               -0.03536161               10.95148442                0.71869762                0.05138823                0.10914834               -0.43497732                0.00646077                0.58321994               -0.01286705
               7.24771566               -0.05522769               10.91769590                0.82972216                0.05281636                0.21787260               -0.78288045                0.06245073                0.33822566                0.03002653
               8.24869548               -0.07965386               10.87827663                1.00000000                0.20957184                0.33577519               -1.10996161                0.04375043               -0.12670009                0.33053777
               9.25190709               -0.10673698               10.83537645                1.00000000                0.39007461                0.41000378               -1.42547740               -0.05097711               -0.32313315                0.02276536
              10.25649698               -0.13393475               10.79220625                1.00000000                0.45898817                0.49818679               -1.72951283               -0.07987967               -0.34359041               -0.36530178
               0.28020747                1.13269432               11.16635242                1.00000000               -0.35805126               -0.41438639                1.35309841               -0.03131795               -0.05379632                0.75965407
               1.27662695                1.09683269               11.12072801                1.00000000               -0.31531065               -0.31581899                1.04696645               -0.01068553                0.00692732                0.02522900
               2.27390125                1.06069897               11.07623924                0.73994971               -0.23912833               -0.22239287                0.73133041                0.01803703                0.24350839               -0.51727811
               3.27184439                1.02517778               11.03535160                0.07201231               -0.38901534               -0.17712225                0.41689167                0.54780913                1.45761901               -0.72931845
               4.26612095                0.99986787               11.01529855                0.19308180               -0.34329675                0.09970824                0.20228704                0.33703581                2.06054712                0.49086600
               5.26497845                0.98240630               10.98802556                0.26222385                0.01957189                0.09425321               -0.09357862                0.41833281                1.47403415                0.24422175
               6.26651238                0.96572987               10.95690752                0.18279502                0.27539188               -0.02681300               -0.40764169                0.37005388                1.33404656               -0.35561083
               7.27048629                0.94695104               10.92720926                0.35772628                0.41876254                0.24479690               -0.70792656                0.44694754                1.24104884                0.54566566
               8.27488763                0.92370389               10.89446527                1.00000000                0.40257405                0.31019196               -0.98942682                0.16321693                0.61645759                0.43570168
               9.27853777                0.89736306               10.85226866                1.00000000                0.40041583                0.39200425               -1.28917055               -0.00177564                0.08915891                0.07428757
              10.28289595                0.87104712               10.80904066                1.00000000                0.43581808                0.47156000               -1.59278346               -0.03154359                0.03306475               -0.43220922
               0.31525637                2.12872168               11.15455935                1.00000000               -0.32117419               -0.38448187                1.24198482               -0.03114207                0.02978052                0.98176994
               1.31204463                2.09389399               11.10472612                1.00000000               -0.27554009               -0.27665958                0.91648187               -0.01026453                0.10852899                0.00719225
               2.30974557                2.05871303               11.05640240                0.35170451               -0.17349761               -0.17750356                0.61037319                0.01440968                0.68160692               -1.02398636
               3.30857468                2.02346457               11.01802061                0.00010000               -0.81726898               -0.16044674                0.29541887                0.85278974                3.30895748               -1.38729302
               4.29340019                2.00317450               11.02237771                0.00010000               -0.96910651                0.24458395                0.44834985                1.63738973                3.42897907               -0.94822365
               5.28919255                1.98427462               10.99434146                0.00010000               -0.14523475                0.07312291               -0.05283915                1.40130791                1.33485936               -0.47147841
               6.29049549                1.96410213               10.95549520                0.00010000                0.47440212               -0.09111142               -0.38217885                1.40596147                2.32153911                0.06104356
               7.29868059                1.94966825               10.94711297                0.00010000                0.55261545               -0.02139667               -0.61708501                1.00854680                2.58962396                0.38454428
               8.30154780                1.92654998               10.91282683                0.41873747                0.29238854                0.29120620               -0.84906240                0.23088453                0.90558786                0.81611759
               9.30452836                1.90110310               10.87029164                1.00000000                0.34750921                0.37074766               -1.14823926                0.03789837                0.33666648                0.35369028
              10.30849799                1.87549645               10.82467260                1.00000000                0.39696280                0.42143178               -1.46887512               -0.01867451                0.17964688               -0.44665797
               0.34924000                3.12500469               11.14309893                1.00000000               -0.28096904               -0.35965536                1.13147887               -0.03182244                0.02683324                0.99751181
               1.34643031                3.09129950               11.08810819                1.00000000               -0.23105669               -0.23955531                0.78088684               -0.01373260                0.02860209               -0.03313917
               2.34461887                3.05714889               11.03306949                0.16119556               -0.09958000               -0.12320457                0.43146929               -0.04135106                0.86157258               -1.14365598
               3.34443871                3.02196884               10.99470461                0.00010000               -0.32800868                0.02234909                0.12756684                0.81013171                3.47025020               -1.37040546
               4.33805869                3.00475955               10.99206442                0.00010000               -0.61808659                0.15135932                0.03579093                2.00586148                4.79796686               -1.84969084
               5.33207698                2.98386876               10.98224476                0.00010000               -0.44103580                0.06130125               -0.10700763                1.83514092                4.12067430               -1.02873590
               6.32923798                2.96390765               10.96870405                0.00010000               -0.19338019                0.06770801               -0.32067533                1.70894755                3.80608849                0.33363120
               7.32820937                2.94652310               10.95374410                0.00010000               -0.05837535               -0.11291594               -0.50759962                1.24864955                3.58710731                0.17211508
               8.32807047                2.92952802               10.93668170                0.25779747                0.10699479                0.28741413               -0.69470221                0.53881617                2.09771065                1.48329932
               9.33034927                2.90477801               10.89284157                1.00000000                0.28326518                0.33640582               -0.97788204                0.05151119                0.37489557                0.53182873
              10.33373577                2.87947575               10.84138298                1.00000000                0.33865036                0.38433311               -1.33384785               -0.02810778               -0.00907439               -0.35429660
               0.38203029                4.12152857               11.13142421                1.00000000               -0.24045203               -0.33410281                1.01625103               -0.03261328                0.02610289                0.96979511
               1.37962577                4.08910288               11.07122813                1.00000000               -0.18905401               -0.19675301                0.63837796               -0.01272900                0.02590757               -0.04822041
               2.37824921                4.05624894               11.01093706                0.07178342               -0.12295580               -0.06219016                0.25945893                0.03592517                1.37935105               -1.02223112
               3.37716665                4.02391155               10.97780966                0.00010000               -0.33158531                0.36462105               -0.21976071                0.62116700                4.52037793               -0.31589836
               4.37161750                4.00620169               10.98029609                0.00010000               -0.52096917                0.16808850               -0.12204344                1.29302568                5.91485586               -0.66759062
               5.36674727                3.98550064               10.97765236                0.00010000               -0.47987030                0.18499756               -0.18152412                1.22429850                5.49177015               -0.45815945
               6.36202010                3.96545629               10.97378131                0.00010000               -0.43570309                0.18295096               -0.27711677                1.21288334                5.31978023                0.01596706
               7.35803321                3.94740993               10.96980267                0.00010000               -0.39754379                0.13855491               -0.37991114                1.20231329                5.35004519                0.67954213
               8.35406922                3.93229826               10.96831907                0.25812473               -0.12111790                0.22139723               -0.46734143                0.56886926                2.77571312                1.62253397
               9.35561085                3.90783122               10.91441990                1.00000000                0.22355646                0.27065938               -0.80547811                0.03098600                0.07664888                0.47854996
              10.35854035                3.88318311               10.85903207                1.00000000                0.29295006                0.35115139               -1.18540230               -0.02587864                0.00048813               -0.32081568
               0.41343911                5.11832263               11.11923631                1.00000000               -0.19837472               -0.30219640                0.89185727               -0.03558502                0.07450575                0.91295455
               1.41145536                5.08736444               11.05426914                0.84915257               -0.14552033               -0.14820110                0.49196144               -0.01800782                0.11983207               -0.12039944
               2.41052870                5.05590509               10.99012118                0.02968244               -0.22730305               -0.00344297                0.10415572                0.24644668                2.69265914               -1.06018156
               3.40690930                5.02926126               10.97663902                0.00010000               -0.40992932                0.43068725               -0.21479492                0.62345459                5.68274510               -0.01922859
               4.40233012                5.00812132               10.97386883                0.00010000               -0.48004790                0.23025453               -0.20158013                0.94840046                6.38697408               -0.35278836
               5.39730834                4.98756871               10.97658579                0.00010000               -0.53718820                0.22888306               -0.20169772                0.94394444                6.61628865               -0.20990249
               6.39158635                4.96756667               10.98070677                0.00010000               -0.59473379                0.22631556               -0.22231694                0.93949832                6.65298621                0.16372893
               7.38541367                4.94929420               10.98651244                0.00010000               -0.62798933                0.18808098               -0.24294693                0.97808063                6.74949100                0.70170717
               8.37902657                4.93395596               10.99484285                0.27088641               -0.26647619                0.11981049               -0.24828463                0.48601873                3.41482019                1.30036021
               9.38008414                4.91019120               10.93592531                0.99324705                0.17439284                0.20271647               -0.62572092                0.01933815                0.02641957                0.44977283
              10.38251442                4.88649878               10.87650775                1.00000000                0.24302790                0.30948779               -1.02266852               -0.02611857                0.00103212               -0.33765952
               0.44323497                6.11548464               11.10626261                1.00000000               -0.15518124               -0.25936662                0.75818273               -0.03831620                0.06810830                0.83874060
               1.44168315                6.08613886               11.03591256                0.71490849               -0.09768208               -0.09566070                0.32504408               -0.02506551                0.16009855               -0.24872979
               2.44128132                6.05618008               10.96732219                0.01767926               -0.21318191                0.05962488               -0.09514989                0.31414190                3.56347871               -1.27901187
               3.43741951                6.03252530               10.96510721                0.00010000               -0.45016286                0.29279586               -0.19484957                0.72231035                7.03873226               -0.70342822
               4.43227807                6.01080678               10.96854037                0.00010000               -0.56193499                0.29241847               -0.21614772                0.81519440                7.43643350               -0.38906641
               5.42618081                5.99007830               10.97680951                0.00010000               -0.65967491                0.28387025               -0.18811953                0.78262885                7.71457567               -0.13852121
               6.41908457                5.96998260               10.98841442                0.00010000               -0.74876455                0.25949520               -0.15132628                0.73346526                7.88127125                0.21937821
               7.41120552                5.95117155               11.00273435                0.00010000               -0.80959836                0.18031897               -0.10508868                0.74428945                8.03363053                0.67501505
               8.40289260                5.93469447               11.01999144                0.28778654               -0.38753636                0.03642794               -0.04188410                0.35981973                4.05482708                1.20280628
               9.40345480                5.91188555               10.95697423                0.91626203                0.12551081                0.14230230               -0.45130952                0.00769558                0.03534622                0.40784484
              10.40540282                5.88937287               10.89384258                1.00000000                0.19480209                0.26533170               -0.86792598               -0.02410885                0.03045517               -0.38123064
               0.47136435                7.11313530               11.09241937                1.00000000               -0.11057323               -0.20757534                0.61588026               -0.03685710                0.03712524                0.77634889
               1.47025862                7.08545123               11.01636085                0.64114692               -0.04696207               -0.04336467                0.15257582               -0.02509227                0.13642700               -0.33222406
               2.47042511                7.05709759               10.94222180                0.02329719               -0.17649030                0.12046983               -0.30458195                0.31806864                4.30004309               -1.46220551
               3.46672881                7.03511718               10.94955105                0.00010000               -0.46720544                0.26964362               -0.27940379                0.69712685                8.43887055               -0.95867879
               4.46108100                7.01396969               10.96126362                0.00010000               -0.64718574                0.33962199               -0.22744789                0.70951880                8.69877898               -0.50871078
               5.45378510                6.99324611               10.97689590                0.00010000               -0.79592951                0.35241615               -0.15873834                0.63089593                8.90988948               -0.14585555
               6.44516241                6.97275657               10.99602349                0.00010000               -0.90987550                0.30649366               -0.07322289                0.52319475                9.09456849                0.21542831
               7.43558759                6.95290058               11.01854346                0.00010000               -0.98267232                0.17663424                0.03081900                0.46671278                9.28985967                0.64020281
               8.42550896                6.93468452               11.04455114                0.30837346               -0.50139611               -0.03418998                0.15697650                0.20164566                4.69398508                1.15353625
               9.42555966                6.91303724               10.97764943                0.88049210                0.07743266                0.08933160               -0.28414119                0.00132297                0.03480599                0.36040313
              10.42705762                6.89180541               10.91042398                1.00000000                0.14979516                0.22068431               -0.72702749               -0.02304219                0.02161311               -0.44578248
               0.49786596                8.11133314               11.07802416                1.00000000               -0.06469452               -0.15386388                0.47001828               -0.03426003                0.02112275                0.74434941
               1.49721902                8.08527157               10.99632360                0.62073971                0.00553917                0.00797260               -0.02215076               -0.01936595                0.08611136               -0.36997700
               2.49797675                8.05858948               10.91587696                0.03588841               -0.13645340                0.17646812               -0.51988654                0.30759041                5.00092691               -1.48722410
               3.49448995                8.03791817               10.93264460                0.00010000               -0.48186185                0.30451905               -0.37126816                0.63197309                9.86648933               -0.94295304
               4.48833951                8.01759922               10.95313193                0.00010000               -0.72390473                0.39168730               -0.24439032                0.57868349               10.00710135               -0.48517824
               5.48001185                7.99712662               10.97641019                0.00010000               -0.92227575                0.41446594               -0.12861831                0.46674481               10.12039444               -0.13746089
               6.46989399                7.97611248               11.00301400                0.00010000               -1.07000136                0.38281936                0.00213835                0.30462167               10.29901567                0.17802699
               7.45861183                7.95470424               11.03360719                0.00571466               -1.15525704                0.21414355                0.15947080                0.12841146               10.55383813                0.54703936
               8.44678885                7.93401067               11.06868341                0.33306551               -0.61257317               -0.09779914                0.34758788                0.00346928                5.33793650                1.07503130
               9.44636036                7.91367218               10.99769140                0.88920304                0.03083915                0.03739250               -0.12059449               -0.00177920                0.02339268                0.33289737
              10.44740564                7.89378655               10.92638481                1.00000000                0.10452716                0.17697973               -0.58293166               -0.02285617                0.01169455               -0.48164235
               0.52280228                9.11005802               11.06338295                1.00000000               -0.01873259               -0.10461560                0.32415862               -0.03075220                0.01265052                0.61746994
               1.52261496                9.08561068               10.97603123                0.64307737                0.05640161                0.06068430               -0.19749586               -0.01006187                0.10239593               -0.33792824
               2.52393032                9.06062695               10.89045365                0.03689856               -0.11282136                0.22679197               -0.72604438                0.29548351                5.79069891               -1.06808077
               3.52035853                9.04120756               10.91709107                0.00010000               -0.52420522                0.39483522               -0.42852793                0.45183375               11.27611714               -0.61704215
               4.51344621                9.02180344               10.94553388                0.00010000               -0.78758985                0.43309790               -0.26139949                0.36586820               11.21595695               -0.29431244
               5.50460673                9.00153543               10.97564340                0.00010000               -0.98844905                0.44826429               -0.10754105                0.27418998               11.23803540               -0.07939269
               6.49367723                8.98041296               11.00889541                0.00010000               -1.21745585                0.43858617                0.06433486                0.11786793               11.42763344                0.11038938
               7.48025762                8.95718345               11.04688868                0.01620087               -1.35334144                0.37081543                0.27120555               -0.13693534               11.81032756                0.33021535
               8.46661040                8.93272854               11.09160538                0.36038227               -0.72547076               -0.14956764                0.52393155               -0.25520279                6.06925215                0.74289694
               9.46574820                8.91378509               11.01773212                0.93839961               -0.01193247               -0.01336574                0.03506378               -0.00535403                0.05866454                0.29761112
              10.46637175                8.89534501               10.94210533                0.96581457                0.06235506                0.13782503               -0.44920052               -0.02384552               -0.02439832               -0.40649919
               0.54614560               10.10924082               11.04631066                1.00000000                0.03032511               -0.08171964                0.17443430                0.05877440                0.35261439                0.50253436
               1.54644885               10.08648525               10.95669273                0.85119471                0.10719689                0.08745737               -0.36262445                0.07761365                0.63699704               -0.29603069
               2.54828954               10.06312532               10.87277380                0.52513532               -0.20493558                0.24983644               -0.88312175                0.40240285                6.75918696               -0.69924577
               3.54235014               10.04581487               10.90586457                0.35798693               -0.64802676                0.46073120               -0.48664723                0.35595367               12.29632184               -0.28197729
               4.53532900               10.02626118               10.93973120                0.35348824               -0.77320017                0.44577384               -0.29544155                0.20213080               12.14888163               -0.10822459
               5.52688613               10.00609191               10.97483010                0.37571231               -0.93628354                0.45564787               -0.10677176                0.15909120               12.15332643                0.00609001
               6.51660333                9.98488420               11.01311931                0.42190901               -1.16642978                0.44712423                0.10429834                0.09404163               12.37608204                0.10659565
               7.50355754                9.96212054               11.05661879                0.51240010               -1.57600869                0.49370912                0.35470291               -0.36325176               12.89874339                0.23231233
               8.48508316                9.93101932               11.10897289                0.69265662               -0.99603622               -0.17092174                0.66116362               -0.58850846                6.94056033                0.47548911
               9.48363681                9.91340487               11.03698057                1.00000000               -0.06371291               -0.03802268                0.18206115                0.06504778                0.45179062                0.26417704
              10.48380890                9.89654305               10.95945276                1.00000000                0.01720839                0.11980448               -0.31078164                0.05753305                0.18077806               -0.32117024
               0.28561005                0.15912104               12.19683186                1.00000000               -0.38343659               -0.42385579                1.46661149               -0.07433168               -0.54290884                0.58789660
               1.28177569                0.11720303               12.14862509                1.00000000               -0.31628505               -0.33331495                1.16693147               -0.05651093               -0.66665344                0.01960161
               2.27928435                0.07505568               12.09783034                1.00000000               -0.17054277               -0.24531686                0.83967076               -0.04237762               -0.59993075               -0.18456779
               3.27836483                0.03388835               12.05088641                0.61280228                0.30977655               -0.18506898                0.54027058                0.42568860                0.37208724               -0.40451709
               4.28547988                0.00352643               12.01948708                0.67167594                0.48808420               -0.11540253                0.23727983               -0.01639390                1.00521611                0.04232697
               5.28812651               -0.01932972               11.98515900                0.73976270                0.17671457                0.00649346               -0.08600446                0.00463353                0.66320529                0.02829271
               6.28901417               -0.04107959               11.94719933                0.72958058                0.04697498                0.10830212               -0.42196313                0.00764374                0.51110525               -0.01829888
               7.28906601               -0.06481191               11.90994778                0.83607691                0.04735695                0.21422184               -0.76602766                0.06029821                0.27295263                0.03136089
               8.28996131               -0.09308357               11.86726521                1.00000000                0.20097983                0.33197529               -1.09159229                0.04450668               -0.17398420                0.34222693
               9.29308561               -0.12409485               11.82121898                1.00000000                0.38215156                0.40481346               -1.40538211               -0.05106061               -0.35824545                0.02087807
              10.29760434               -0.15525963               11.77501862                1.00000000                0.45187326                0.49134528               -1.70727004               -0.07947126               -0.37311481               -0.39561163
               0.32678474                1.15488248               12.17977393                1.00000000               -0.35414803               -0.40578582                1.33245581               -0.03128651               -0.06105652                0.80281131
               1.32324326                1.11386988               12.13113182                1.00000000               -0.31334099               -0.31121507                1.03428609               -0.01141488               -0.00542496                0.03359349
               2.32051792                1.07260251               12.08352763                0.75696939               -0.24284587               -0.22166143                0.72710941                0.02086411                0.22778382               -0.52002516
               3.31838634                1.03203766               12.03954409                0.08570041               -0.42964699               -0.17826721                0.42170026                0.58564128                1.48970182               -0.76661117
               4.31192498                1.00237240               12.01731154                0.21330770               -0.39552396                0.09524318                0.20055316                0.23582481                2.10932737                0.61202052
               5.31047586                0.98073521               11.98710506                0.28588177               -0.00466365                0.09140570               -0.09071381                0.36995439                1.48144320                0.26567231
               6.31183170                0.96000343               11.95287999                0.20081435                0.25975628               -0.01468996               -0.39823330                0.33966289                1.34060395               -0.36065621
               7.31567098                0.93733031               11.92019303                0.37027023                0.41080728                0.23433081               -0.69513504                0.43768004                1.25973901                0.55333513
               8.32004785                0.91023618               11.88463920                1.00000000                0.39960255                0.30681452               -0.97571646                0.16686467                0.63041616                0.45678481
               9.32366304                0.87995328               11.83945567                1.00000000                0.39632817                0.38755037               -1.27330075               -0.00165336                0.09165768                0.07453021
              10.32797441                0.84965382               11.79320202                1.00000000                0.43113767                0.46421582               -1.57468720               -0.03135981                0.03336131               -0.46887776
               0.36700951                2.15100532               12.16686975                1.00000000               -0.31821495               -0.37474010                1.22135375               -0.02931283                0.02947437                1.03639670
               1.36382736                2.11097873               12.11383416                1.00000000               -0.27378250               -0.27241724                0.90540084               -0.00732755                0.11701344                0.01462706
               2.36153386                2.07062245               12.06249404                0.36773364               -0.17598004               -0.17944750                0.60693928                0.02568593                0.69439500               -1.05850044
               3.36030776                2.03032300               12.02099295                0.00010000               -1.00175179               -0.16207241                0.29769673                0.89127233                3.51925894               -1.44770106
               4.34149882                2.00543129               12.02624249                0.00010000               -1.12065911                0.25142384                0.34571261                1.71602068                3.63810084               -0.99821228
               5.33789458                1.98249839               11.99371175                0.00010000               -0.11432439                0.05896010               -0.06828592                1.47712123                1.32762824               -0.47041377
               6.33921233                1.95862661               11.95172951                0.00010000                0.48461429               -0.10279654               -0.37337644                1.44706695                2.41470473                0.06827197
               7.34758686                1.93987471               11.94094699                0.00010000                0.57316483               -0.03911070               -0.61473090                1.03363186                2.69075448                0.41267647
               8.35067563                1.91305272               11.90438526                0.42499842                0.30240229                0.29074952               -0.83989968                0.25048297                0.97414537                0.85574392
               9.35363491                1.88365616               11.85887130                1.00000000                0.34502222                0.36853744               -1.13617682                0.04203248                0.35949092                0.37071287
              10.35757608                1.85402468               11.81005681                1.00000000                0.39411682                0.41357995               -1.45446269               -0.01724771                0.19156809               -0.48318967
               0.40625165                3.14738768               12.15430081                1.00000000               -0.27720762               -0.35019999                1.11024737               -0.02844281                0.02777961                1.04968288
               1.40347958                3.10842154               12.09587049                1.00000000               -0.22821452               -0.23662426                0.77160489               -0.00958219                0.02957445               -0.03146197
               2.40168736                3.06901356               12.03740663                0.17404489               -0.10383195               -0.12767607                0.43464840               -0.02609028                0.88387874               -1.20231863
               3.40140294                3.02879621               11.99602112                0.00010000               -0.38086811               -0.00577130                0.13366019                0.88534717                3.61516817               -1.53903232
               4.39407000                3.00740088               11.99237237                0.00010000               -0.72899858                0.16665881                0.02535701                2.22070866                5.03038847               -2.07804440
               5.38682297                2.98191442               11.98111474                0.00010000               -0.53366364                0.06149155               -0.11773121                1.97581264                4.31364994               -1.08484377
               6.38339673                2.95794750               11.96552306                0.00010000               -0.24527279                0.04078814               -0.31591178                1.82511531                3.97684113                0.35597584
               7.38191751                2.93654810               11.94871434                0.00010000               -0.10603344               -0.12063987               -0.49884474                1.33494125                3.76435730                0.22419139
               8.38127606                2.91605117               11.92979807                0.25602836                0.08071064                0.29041753               -0.68416257                0.57529045                2.21766327                1.56221632
               9.38353172                2.88732403               11.88310898                1.00000000                0.28081730                0.33509939               -0.96919869                0.05770509                0.41105560                0.56264126
              10.38689241                2.85792542               11.82810118                1.00000000                0.33606817                0.37805867               -1.32325477               -0.02701352               -0.00717425               -0.37728794
               0.44437292                4.14400132               12.14146789                1.00000000               -0.23630906               -0.32539406                0.99396589               -0.02944558                0.02658459                1.01513046
               1.44200983                4.10624625               12.07757640                1.00000000               -0.18677714               -0.19482341                0.63118029               -0.00917125                0.02514455               -0.05170965
               2.44063738                4.06806893               12.01357932                0.08264311               -0.11912287               -0.06672901                0.26733029                0.02834551                1.32590623               -1.06931127
               3.43962738                4.03020758               11.97568868                0.00010000               -0.39212958                0.34848958               -0.20054782                0.66430585                4.70528295               -0.41436515
               4.43279479                4.00876447               11.97908198                0.00010000               -0.63815832                0.16272832               -0.12364839                1.38957459                6.31474663               -0.75333886
               5.42686421                3.98372822               11.97586147                0.00010000               -0.58569147                0.19876251               -0.17819906                1.29944391                5.79891360               -0.50202710
               6.42108096                3.95944237               11.97104778                0.00010000               -0.53410990                0.18805323               -0.27031938                1.27729477                5.60488458                0.03355607
               7.41618201                3.93746191               11.96603979                0.00010000               -0.48377287                0.14632301               -0.37288224                1.26859735                5.63429617                0.74091772
               8.41140550                3.91886107               11.96364959                0.25423848               -0.16336237                0.22434210               -0.46637580                0.60385439                2.93961053                1.72778852
               9.41291476                3.89035814               11.90639337                1.00000000                0.22137651                0.26874848               -0.80085618                0.03495783                0.09745124                0.51202475
              10.41583303                3.86158586               11.84721477                1.00000000                0.29182687                0.34868592               -1.17948504               -0.02432384                0.00063181               -0.32925739
               0.48117289                5.14087979               12.12802867                1.00000000               -0.19443402               -0.29360925                0.86832420               -0.03277382                0.08019362                0.94947865
               1.47922855                5.10452507               12.05916349                0.83783485               -0.14399721               -0.14669706                0.48668723               -0.01498227                0.13084235               -0.13585072
               2.47829294                5.06767898               11.99123857                0.03848734               -0.26175177               -0.00814337                0.11710493                0.25428255                2.72315240               -1.12046721
               3.47399351                5.03576600               11.97422855                0.00010000               -0.49760479                0.46030176               -0.27509021                0.63761417                5.94614961                0.05956668
               4.46834085                5.01065545               11.97185895                0.00010000               -0.59297848                0.23331021               -0.20326964                1.01701266                6.82452259               -0.36187123
               5.46213394                4.98588967               11.97460903                0.00010000               -0.65659545                0.24160836               -0.19568465                0.98916929                7.01810652               -0.21095438
               6.45520894                4.96170856               11.97852641                0.00010000               -0.71315912                0.24508720               -0.21460291                0.98080933                7.03815788                0.19285608
               7.44787076                4.93947456               11.98410374                0.00010000               -0.73760124                0.20353374               -0.23878043                1.02725585                7.13654945                0.76576239
               8.44045691                4.92053802               11.99233249                0.26629449               -0.31823316                0.12144738               -0.25309292                0.51190846                3.62034167                1.39556999
               9.44150610                4.89269900               11.92966316                0.97899586                0.17467959                0.20239136               -0.63026452                0.02117176                0.04006366                0.48544688
              10.44395050                4.86489914               11.86630199                1.00000000                0.24444088                0.31079221               -1.02442569               -0.02413787                0.00746936               -0.34232536
               0.51642689                6.13812913               12.11371261                1.00000000               -0.15158881               -0.25069246                0.73382151               -0.03556096                0.06831160                0.86683060
               1.51491101                6.10331231               12.03915088                0.70553528               -0.09723962               -0.09480719                0.32235729               -0.02162821                0.16597419               -0.27653775
               2.51448210                6.06790606               11.96647640                0.02409564               -0.27539089                0.05410885               -0.07650435                0.34723484                3.72552666               -1.36556493
               3.50940319                6.03941361               11.96314763                0.00010000               -0.57353612                0.32041843               -0.20560259                0.77287938                7.40609326               -0.64376420
               4.50301138                6.01343067               11.96638568                0.00010000               -0.69043547                0.30858929               -0.21908594                0.87647198                7.87919274               -0.35704447
               5.49559448                5.98856039               11.97497204                0.00010000               -0.79495611                0.30703148               -0.18159801                0.82984326                8.18308790               -0.11125052
               6.48711226                5.96434412               11.98694008                0.00010000               -0.88484008                0.28692329               -0.14449472                0.76689348                8.35156793                0.26029933
               7.47789768                5.94153259               12.00169064                0.00010000               -0.93465155                0.20103095               -0.10370679                0.77769613                8.50974365                0.73769942
               8.46841923                5.92129002               12.01951522                0.28311254               -0.44602992                0.03812388               -0.05233616                0.37620560                4.30024389                1.28912347
               9.46897708                5.89440597               11.95244192                0.90224636                0.12653902                0.14482414               -0.45873024                0.00928532                0.04420964                0.43890665
              10.47095001                5.86780170               11.88514895                1.00000000                0.19729277                0.26894534               -0.87687667               -0.02225542                0.03640030               -0.39564300
               0.55009532                7.13586594               12.09844591                1.00000000               -0.10762653               -0.19947191                0.59172532               -0.03413349                0.03561669                0.79867984
               1.54901906                7.10262893               12.01789876                0.63312589               -0.04794961               -0.04354412                0.15451874               -0.02123225                0.13717967               -0.36314471
               2.54913633                7.06876115               11.93932917                0.02686966               -0.25462882                0.11291900               -0.27709615                0.36683780                4.53489282               -1.55542581
               3.54392648                7.04217437               11.94681897                0.00010000               -0.62064120                0.28754914               -0.27220716                0.78228175                8.92713023               -0.96202421
               4.53672351                7.01682723               11.95902775                0.00010000               -0.80545596                0.37250918               -0.22309782                0.79018854                9.21491490               -0.47424312
               5.52781736                6.99203030               11.97534972                0.00010000               -0.95744472                0.39396826               -0.15256441                0.68587362                9.44228629               -0.10744381
               6.51757461                6.96744703               11.99532206                0.00010000               -1.06692921                0.34793730               -0.06806886                0.55192131                9.63961460                0.25968812
               7.50647878                6.94349518               12.01884236                0.00010000               -1.12334878                0.20501022                0.02903474                0.48194754                9.84773289                0.69809037
               8.49510764                6.92130049               12.04604051                0.30403704               -0.56493291               -0.03147949                0.14157578                0.20602549                4.97565326                1.23236921
               9.49518012                6.89559549               11.97473770                0.86605001                0.08031499                0.09356002               -0.29797920                0.00269728                0.03573221                0.38685145
              10.49671394                6.87027804               11.90309420                1.00000000                0.15338169                0.22679510               -0.73980766               -0.02171318                0.02248351               -0.46346625
               0.58221826                8.13413970               12.08259809                1.00000000               -0.06271073               -0.14685429                0.44724507               -0.03178881                0.01907542                0.76474210
               1.58159115                8.10244142               11.99614689                0.61340886                0.00275773                0.00622892               -0.01415689               -0.01586118                0.08089904               -0.40168556
               2.58227341                8.07016444               11.91089638                0.03606100               -0.23042047                0.16547430               -0.48057547                0.37400313                5.30060684               -1.57733024
               3.57698274                8.04516460               11.92897110                0.00010000               -0.66570947                0.33529191               -0.36392431                0.74640430               10.47308307               -0.93708648
               4.56895922                8.02088086               11.95070093                0.00010000               -0.91452942                0.45033744               -0.24196927                0.67056585               10.60529350               -0.45353154
               5.55869215                7.99643976               11.97515123                0.00010000               -1.11367107                0.47860365               -0.12431974                0.52215393               10.72031519               -0.10130949
               6.54668580                7.97130286               12.00305363                0.00010000               -1.25044950                0.44375873                0.00490602                0.32375118               10.91469087                0.21553021
               7.53368316                7.94563279               12.03517286                0.00535297               -1.31231888                0.25591643                0.15405185                0.11837875               11.19014303                0.59261590
               8.52043943                7.92066043               12.07204690                0.32958754               -0.68148452               -0.09344194                0.32714070               -0.00843245                5.65756514                1.14145270
               9.52005347                7.89627717               11.99639986                0.87437353                0.03555998                0.04208353               -0.13853631               -0.00055755                0.02203277                0.35615192
              10.52115063                7.87233760               11.92047929                1.00000000                0.10971511                0.18511469               -0.60111013               -0.02121428                0.01374178               -0.49952517
               0.61285609                9.13292886               12.06650775                1.00000000               -0.01789993               -0.09847705                0.30337065               -0.02889477                0.00880759                0.63548169
               1.61267709                9.10275351               11.97413979                0.63551864                0.05185646                0.05671299               -0.18246305               -0.00806629                0.09515219               -0.36446272
               2.61389322                9.07207064               11.88348422                0.03298701               -0.22694725                0.21199071               -0.67377568                0.39313571                6.16631945               -1.12896731
               3.60813815                9.04888021               11.91271585                0.00010000               -0.75167789                0.47317317               -0.43719148                0.56497319               11.99158763               -0.59608572
               4.59885966                9.02583398               11.94287316                0.00010000               -1.01498563                0.51745948               -0.26673467                0.43823901               11.87958530               -0.27087394
               5.58783844                9.00160237               11.97457254                0.00010000               -1.20015301                0.52971157               -0.10662551                0.31058055               11.90330210               -0.05637898
               6.57485660                8.97632221               12.00954456                0.00010000               -1.41748244                0.51463042                0.06478329                0.12462748               12.11363240                0.13230092
               7.55948879                8.94861350               12.04955302                0.01683348               -1.52809989                0.43707471                0.26238132               -0.16532139               12.52504417                0.35384198
               8.54429461                8.91943166               12.09669472                0.35833729               -0.79984952               -0.14226383                0.49770495               -0.29000354                6.43069218                0.78195743
               9.54349180                8.89643716               12.01799142                0.93057184               -0.00629080               -0.00811750                0.01604609               -0.00512542                0.05724414                0.31227674
              10.54416879                8.87398034               11.93754918                0.96779602                0.06769937                0.14493878               -0.46688218               -0.02161417               -0.02369351               -0.42291212
               0.64199107               10.13217015               12.04795600                1.00000000                0.02969749               -0.07587041                0.15700631                0.05405065                0.35777475                0.51763581
               1.64228805               10.10357568               11.95318202                0.84793043                0.10091771                0.08221779               -0.34176378                0.07280006                0.64984077               -0.31670521
               2.64400943               10.07440425               11.86426180                0.52245280               -0.38845911                0.23336123               -0.82568066                0.56423910                7.20603857               -0.73428925
               3.63451886               10.05462806               11.90082659                0.35883916               -0.95037900                0.57478507               -0.50575704                0.47936125               13.09678908               -0.26730512
               4.62500185               10.03123005               11.93670397                0.35378845               -1.00516604                0.53960646               -0.30405847                0.23451450               12.87413627               -0.09626902
               5.61441554               10.00703399               11.97376128                0.37568034               -1.14173138                0.54316195               -0.10650988                0.17598189               12.88856832                0.01872431
               6.60216722                9.98159547               12.01416591                0.42179188               -1.35741281                0.52732664                0.10431713                0.09807613               13.13723213                0.11942190
               7.58726729                9.95437428               12.06010999                0.51312357               -1.76757575                0.57607801                0.34426923               -0.41116597               13.69383199                0.24687646
               8.56681570                9.91781515               12.11541832                0.69234599               -1.09325018               -0.16165017                0.63153829               -0.66086348                7.35157106                0.49466199
               9.56540228                9.89611482               12.03867947                1.00000000               -0.05918624               -0.03223337                0.15928188                0.06210986                0.46800404                0.27282680
              10.56563198                9.87523638               11.95628181                1.00000000                0.02296948                0.12560408               -0.32833495                0.05847437                0.19155921               -0.33204047
               0.32971484                0.18288320               13.21139222                1.00000000               -0.37834048               -0.41705337                1.44682240               -0.07385533               -0.57563227                0.61788732
               1.32593143                0.13558893               13.16022549                1.00000000               -0.31224346               -0.32934335                1.15397425               -0.05708025               -0.71250618                0.02613789
               2.32346997                0.08807495               13.10622747                1.00000000               -0.16795123               -0.24401864                0.83812984               -0.04191201               -0.64643686               -0.18612665
               3.32257241                0.04160131               13.05632564                0.61676612                0.31248804               -0.18622899                0.54493142                0.44335947                0.33281476               -0.43914318
               4.32971973                0.00637794               13.02186880                0.67997621                0.48336696               -0.10250716                0.23953515               -0.02422078                0.95454447                0.05646367
               5.33223975               -0.02093670               12.98432989                0.75121947                0.16763788                0.01036980               -0.07980570                0.00656914                0.60157297                0.03514256
               6.33307249               -0.04708892               12.94304516                0.73870594                0.04345381                0.10754839               -0.40919935                0.00868678                0.44012454               -0.02335965
               7.33310882               -0.07509098               12.90237535                0.84181059                0.04360534                0.21095025               -0.74851497                0.05788422                0.20713217                0.03325564
               8.33394459               -0.10755730               12.85644479                1.00000000                0.19399743                0.32768418               -1.07230298                0.04378153               -0.22273205                0.35395618
               9.33698877               -0.14279279               12.80726881                1.00000000                0.37454015                0.39941310               -1.38437928               -0.05089072               -0.39410847                0.01935071
              10.34143540               -0.17821378               12.75806085                1.00000000                0.44466240                0.48451557               -1.68386487               -0.07859118               -0.40286028               -0.42560759
               0.37627055                1.17871266               13.19300154                1.00000000               -0.35057959               -0.39802298                1.31429510               -0.03160624               -0.06768589                0.84306033
               1.37276475                1.13229550               13.14141373                1.00000000               -0.31129461               -0.30705326                1.02261750               -0.01243634               -0.01654101                0.04157743
               2.37004466                1.08563476               13.09078142                0.77110570               -0.24551230               -0.22054614                0.72313850                0.02241174                0.21375270               -0.52427112
               3.36785451                1.03973902               13.04378561                0.09752518               -0.46490643               -0.17838947                0.42502809                0.61785487                1.51664454               -0.80321324
               4.36074653                1.00535287               13.01930961                0.23088078               -0.44078206                0.08857439                0.19914869                0.15758196                2.15196562                0.69521385
               5.35903887                0.97916699               12.98621128                0.30675843               -0.02550197                0.08966793               -0.08826562                0.33260217                1.48872922                0.28280293
               6.36023649                0.95398657               12.94894285                0.21707467                0.24414954               -0.00432890               -0.38975835                0.31666990                1.34696688               -0.36471569
               7.36392186                0.92701853               12.91330656                0.38229046                0.39984137                0.22457211               -0.68246012                0.42320387                1.27677426                0.55920909
               8.36823332                0.89571954               12.87495094                1.00000000                0.39431233                0.30316457               -0.96207206                0.16723067                0.64318324                0.47810867
               9.37180810                0.86120134               12.82680264                1.00000000                0.39185773                0.38284234               -1.25734334               -0.00151534                0.09395368                0.07552518
              10.37607047                0.82663138               12.77754691                1.00000000                0.42623677                0.45736399               -1.55622160               -0.03084898                0.03361089               -0.50482152
               0.42191704                2.17492274               13.17898642                1.00000000               -0.31564373               -0.36562294                1.20316225               -0.02820320                0.02960201                1.08670311
               1.41876061                2.12944787               13.12283413                1.00000000               -0.27211826               -0.26837394                0.89489909               -0.00537424                0.12500485                0.02163229
               2.41647468                2.08366403               13.06854118                0.38282571               -0.17746026               -0.18087630                0.60200239                0.03434048                0.70516119               -1.08990606
               3.41521140                2.03803352               13.02397454                0.00010000               -1.15156411               -0.16232826                0.29801042                0.92036092                3.68264908               -1.50495652
               4.39344340                2.00814943               13.02929196                0.00010000               -1.24766548                0.25031554                0.28003896                1.78247208                3.82859604               -1.03727379
               5.39025809                1.98085665               12.99297574                0.00010000               -0.09445225                0.04275871               -0.07652870                1.54177512                1.34984132               -0.47182649
               6.39155435                1.95282450               12.94802767                0.00010000                0.47909175               -0.11388348               -0.36817325                1.47412617                2.50181052                0.07856306
               7.39983993                1.92940047               12.93481836                0.00010000                0.57760222               -0.05521977               -0.61045801                1.04905673                2.79195239                0.44485117
               8.40310640                1.89850599               12.89602884                0.43153872                0.31033517                0.28942364               -0.83191381                0.26296854                1.04456418                0.89826201
               9.40604663                1.86486405               12.84756811                1.00000000                0.34259735                0.36537172               -1.12482425                0.04433421                0.38297742                0.38927738
              10.40995834                1.83093350               12.79558334                1.00000000                0.39117124                0.40703280               -1.44047363               -0.01618448                0.20374941               -0.51869611
               0.46665623                3.17140020               13.16530387                1.00000000               -0.27402482               -0.34097109                1.09159764               -0.02582282                0.02921606                1.09650609
               1.46391598                3.12692802               13.10354028                1.00000000               -0.22552088               -0.23360869                0.76250733               -0.00631748                0.03149757               -0.03021589
               2.46214581                3.08201724               13.04176246                0.18678320               -0.10698269               -0.13166287                0.43559001               -0.01275952                0.90271363               -1.25541954
               3.46177633                3.03649246               12.99737782                0.00010000               -0.42864859               -0.03083517                0.13645167                0.94500988                3.74374495               -1.69452673
               4.45357284                3.01035918               12.99257156                0.00010000               -0.82885174                0.17494534                0.01651007                2.39129828                5.24603188               -2.25658918
               5.44519929                2.98002217               12.97989014                0.00010000               -0.61988192                0.05545799               -0.12539734                2.09256844                4.50557492               -1.12725767
               6.44117520                2.95170890               12.96238581                0.00010000               -0.29888925                0.01497759               -0.31174314                1.91385380                4.14938904                0.38187060
               7.43922151                2.92591413               12.94376721                0.00010000               -0.15730498               -0.12807897               -0.49131448                1.40382526                3.93857206                0.28283230
               8.43802910                2.90150801               12.92299845                0.25484090                0.05228860                0.29068126               -0.67726541                0.59980502                2.33661148                1.64374041
               9.44026728                2.86850877               12.87345760                1.00000000                0.27893951                0.33267377               -0.96169341                0.06060430                0.44648408                0.59555108
              10.44360789                2.83477203               12.81491789                1.00000000                0.33406126                0.37318257               -1.31401589               -0.02608202               -0.00535143               -0.39956948
               0.51034496                4.16810332               13.15130353                1.00000000               -0.23277338               -0.31663584                0.97446337               -0.02690621                0.02777957                1.05423830
               1.50801723                4.12477569               13.08385174                1.00000000               -0.18449540               -0.19275331                0.62383277               -0.00631076                0.02530117               -0.05570151
               2.50665505                4.08103077               13.01628367                0.09343183               -0.11237833               -0.07092848                0.27212105                0.02110035                1.27490790               -1.11149045
               3.50576966                4.03741682               12.97379870                0.00010000               -0.44576998                0.32505957               -0.17621609                0.70265763                4.86792549               -0.54335549
               4.49773965                4.01164833               12.97782312                0.00010000               -0.75049580                0.16105075               -0.12878051                1.47081225                6.69175920               -0.83074698
               5.49075974                3.98196581               12.97408838                0.00010000               -0.69000935                0.21084383               -0.17696383                1.36397200                6.10174269               -0.53369848
               6.48393946                3.95312406               12.96837493                0.00010000               -0.63212132                0.19112956               -0.26485241                1.32763351                5.88535218                0.05687467
               7.47811732                3.92683889               12.96234503                0.00010000               -0.57158043                0.15222353               -0.36674125                1.31563168                5.91199236                0.80513771
               8.47250786                3.90431961               12.95899156                0.25094775               -0.20613089                0.22468628               -0.46557542                0.62617591                3.10147957                1.83320592
               9.47399470                3.87151753               12.89840278                1.00000000                0.22011647                0.26714064               -0.79835545                0.03630895                0.11933550                0.54443077
              10.47691019                3.83839715               12.83544237                1.00000000                0.29154867                0.34730288               -1.17635017               -0.02312419                0.00063159               -0.34011481
               0.55277335                5.16506749               13.13660279                1.00000000               -0.19110391               -0.28496470                0.84791223               -0.03046865                0.08624186                0.97950033
               1.55086231                5.12307295               13.06400289                0.82735725               -0.14233300               -0.14514278                0.48093189               -0.01236039                0.14241215               -0.15156633
               2.54992669                5.08059867               12.99246328                0.04739321               -0.28251985               -0.01262914                0.12585648                0.25303734                2.70650596               -1.17500517
               3.54521192                5.04299365               12.97113722                0.00010000               -0.57433008                0.48213841               -0.34450917                0.64219842                6.18913562                0.12045744
               4.53844009                5.01358019               12.96980344                0.00010000               -0.71044530                0.24243790               -0.20969929                1.07716269                7.28463499               -0.36972880
               5.53100301                4.98423904               12.97267210                0.00010000               -0.77926459                0.25733913               -0.19311429                1.02398654                7.41475404               -0.20719083
               6.52285480                4.95553149               12.97641471                0.00010000               -0.83322138                0.26344429               -0.20869860                1.00887114                7.41566544                0.22605653
               7.51433858                4.92895860               12.98173683                0.00010000               -0.84904100                0.21740164               -0.23511693                1.05890959                7.51415538                0.83192457
               8.50587398                4.90600174               12.98978099                0.26227517               -0.37113297                0.12246526               -0.25777368                0.52656645                3.82119336                1.49124914
               9.50691592                4.87385159               12.92332002                0.96370698                0.17560934                0.20358091               -0.63804486                0.02134530                0.05335774                0.52041792
              10.50938616                4.84171809               12.85601924                1.00000000                0.24702424                0.31353203               -1.03188287               -0.02302107                0.01362589               -0.35087032
               0.59372466                6.16240402               13.12093904                1.00000000               -0.14858178               -0.24220393                0.71315679               -0.03323711                0.06845868                0.88886856
               1.59223884                6.12187284               13.04235971                0.69693125               -0.09647769               -0.09403183                0.31903927               -0.01845979                0.17185140               -0.30327367
               2.59179510                6.08077819               12.96579210                0.03076541               -0.33033684                0.04852137               -0.06277014                0.37314048                3.86006900               -1.44417019
               3.58563210                6.04705959               12.96099515                0.00010000               -0.68787966                0.35297879               -0.23387656                0.80399118                7.74735551               -0.54921336
               4.57803751                6.01649709               12.96415865                0.00010000               -0.81719614                0.32946931               -0.22954017                0.92307333                8.32052776               -0.32067591
               5.56928818                5.98711260               12.97317755                0.00010000               -0.93200897                0.33395024               -0.17917794                0.86146742                8.64666995               -0.08144401
               6.55939733                5.95839294               12.98552452                0.00010000               -1.02314607                0.31526468               -0.13973959                0.78407946                8.81209449                0.30341927
               7.54882526                5.93118692               13.00066021                0.00010000               -1.06255640                0.22107830               -0.10287595                0.79305950                8.97414800                0.80170701
               8.53814620                5.90676892               13.01894471                0.27898624               -0.50600015                0.03992400               -0.06201247                0.38274694                4.54106825                1.37463956
               9.53870525                5.87558915               12.94779963                0.88778447                0.12852777                0.14823740               -0.47008891                0.01017853                0.05249706                0.47179629
              10.54071676                5.84466779               12.87630505                1.00000000                0.20115028                0.27438306               -0.89115392               -0.02172967                0.03855879               -0.40895286
               0.63317098                7.16022341               13.10425388                1.00000000               -0.10520271               -0.19189424                0.57177763               -0.03184886                0.03427972                0.81581530
               1.63211895                7.12119232               13.01945123                0.62583917               -0.04841143               -0.04380045                0.15541042               -0.01772225                0.13810002               -0.39143177
               2.63220275                7.08156909               12.93667987                0.03090686               -0.32730589                0.10548142               -0.25571789                0.41152407                4.74693393               -1.63765549
               3.62557283                7.05005322               12.94410691                0.00010000               -0.76771015                0.31099876               -0.27615445                0.85577218                9.38505757               -0.95287074
               4.61684855                7.02016958               12.95680167                0.00010000               -0.96181635                0.40930400               -0.22540178                0.85462832                9.71701522               -0.43485749
               5.60633651                6.99091805               12.97384461                0.00010000               -1.11932419                0.43825097               -0.15024779                0.72222437                9.96423467               -0.06812751
               6.59446206                6.96183678               12.99466212                0.00010000               -1.22563568                0.39038175               -0.06499858                0.56154843               10.17309621                0.30462850
               7.58182379                6.93338017               13.01912415                0.00010000               -1.26676870                0.23294870                0.02685224                0.47797965               10.39188746                0.75631553
               8.56912669                6.90680022               13.04738265                0.30020944               -0.63015858               -0.02916997                0.12734881                0.20015622                5.25210568                1.31032891
               9.56922062                6.87681633               12.97168985                0.85161546                0.08337969                0.09761748               -0.31205014                0.00344557                0.03830115                0.41316210
              10.57079428                6.84720575               12.89562783                1.00000000                0.15736615                0.23366358               -0.75502244               -0.02081571                0.02404059               -0.48004723
               0.67114986                8.15856614               13.08696906                1.00000000               -0.06111570               -0.14068293                0.42893883               -0.02976203                0.01737476                0.78067431
               1.67053871                8.12099683               12.99604046                0.60689424                0.00074054                0.00469910               -0.00811076               -0.01278725                0.07654071               -0.42973512
               2.67116468                8.08288781               12.90626545                0.03707526               -0.31958236                0.15565461               -0.44949848                0.43803150                5.57322042               -1.65466892
               3.66414706                8.05327956               12.92536612                0.00010000               -0.84497129                0.36885672               -0.35959196                0.85119329               11.04178949               -0.93386793
               4.65426525                8.02468317               12.94829254                0.00010000               -1.10407986                0.51066728               -0.24077758                0.74653655               11.18573934               -0.42459202
               5.64206546                7.99587762               12.97392379                0.00010000               -1.30495352                0.54398756               -0.12214355                0.55911363               11.30788156               -0.06674425
               6.62816618                7.96620058               13.00311212                0.00010000               -1.43220253                0.50549572                0.00600357                0.32378080               11.51738967                0.25233101
               7.61342141                7.93584589               13.03668823                0.00515906               -1.47265094                0.29714961                0.14885213                0.08847484               11.81169423                0.63776200
               8.59871316                7.90618552               13.07522622                0.32650046               -0.75263896               -0.09019734                0.30938313               -0.03226212                5.97144455                1.20736375
               9.59836863                7.87754150               12.99492068                0.85952032                0.04042242                0.04673421               -0.15711901               -0.00132298                0.02079602                0.37966413
              10.59952161                7.84934106               12.91436261                1.00000000                0.11529754                0.19392439               -0.62234168               -0.02063972                0.01381133               -0.51798030
               0.70771436                9.15740975               13.06945036                1.00000000               -0.01728273               -0.09345453                0.28714297               -0.02738648                0.00568529                0.64995536
               1.70754153                9.12128630               12.97238197                0.62887976                0.04831445                0.05349270               -0.17065695               -0.00632052                0.08949286               -0.38746610
               2.70868065                9.08468219               12.87697814                0.03029814               -0.33700929                0.19982799               -0.63257717                0.48725631                6.50462227               -1.18017140
               3.70080134                9.05743036               12.90834724                0.00010000               -0.97497102                0.54838633               -0.43386536                0.66987156               12.66120987               -0.58291605
               4.68918123                9.03038292               12.94019919                0.00010000               -1.23999847                0.59955088               -0.26640907                0.49896132               12.52880505               -0.25249934
               5.67600137                9.00179780               12.97351089                0.00010000               -1.41059120                0.61056504               -0.10559406                0.33469339               12.55751718               -0.03591843
               6.66096940                8.97194670               13.01019108                0.00010000               -1.61965139                0.59146885                0.06407180                0.11792202               12.78591061                0.15296624
               7.64360835                8.93932316               13.05213630                0.01744200               -1.70917784                0.50491149                0.25435930               -0.20950346               13.22376615                0.37695954
               8.62678584                8.90499627               13.10155948                0.35641492               -0.87848631               -0.13600782                0.47662579               -0.33700995                6.78763560                0.82119721
               9.62603862                8.87775102               13.01805305                0.91567212               -0.00017440               -0.00280934               -0.00461972               -0.00736347                0.05777602                0.32905604
              10.62678236                8.85108424               12.93276768                0.96979229                0.07437365                0.15479593               -0.49192869               -0.02098899               -0.02414144               -0.43915179
               0.74284904               10.15669705               13.04945078                1.00000000                0.02908212               -0.07127043                0.14376857                0.05043188                0.36203772                0.53002645
               1.74313986               10.12206668               12.94985745                0.84512699                0.09583508                0.07803836               -0.32515549                0.06919959                0.66127649               -0.33447411
               2.74476574               10.08688437               12.85626019                0.52043244               -0.56480536                0.22021876               -0.78016956                0.71753997                7.60688692               -0.76343789
               3.73184375               10.06424729               12.89574943                0.35965255               -1.24443539                0.68169308               -0.50391342                0.59373177               13.84956465               -0.25823033
               4.71987703               10.03667419               12.93365003                0.35406947               -1.23240969                0.62912641               -0.30380131                0.26166224               13.58853082               -0.08785522
               5.70719556               10.00808892               12.97269990                0.37560406               -1.34388868                0.62911159               -0.10526060                0.18720688               13.61332291                0.02897918
               6.69299926                9.97802995               13.01520566                0.42157627               -1.55068963                0.60832583                0.10313385                0.09574627               13.88306808                0.13053753
               7.67618177                9.94594412               13.06350418                0.51377563               -1.97270779                0.66209637                0.33448306               -0.47088731               14.46995659                0.25995179
               8.65354510                9.90346536               13.12160365                0.69200332               -1.20241850               -0.15309070                0.60626557               -0.74701471                7.75862703                0.51511312
               9.65213340                9.87748531               13.04016621                0.99380055               -0.05548581               -0.02657075                0.13737895                0.05805863                0.49083274                0.28444871
              10.65243539                9.85243698               12.95288606                1.00000000                0.03019906                0.13527437               -0.35646968                0.06047035                0.20675609               -0.34363069
               0.37643086                0.20826013               14.22576831                1.00000000               -0.37405498               -0.41106565                1.42947082               -0.07350342               -0.60544929                0.64584885
               1.37269031                0.15534931               14.17170457                1.00000000               -0.30877018               -0.32565246                1.14214777               -0.05752124               -0.75372033                0.03188321
               2.37025546                0.10222523               14.11459294                1.00000000               -0.16552616               -0.24218587                0.83422084               -0.04162439               -0.68836028               -0.18847902
               3.36937979                0.05018556               14.06178504                0.61927522                0.31555352               -0.18610619                0.54556990                0.45856910                0.29377761               -0.47072192
               4.37656653                0.00977409               14.02427778                0.68628967                0.48009177               -0.09205665                0.24219480               -0.03155270                0.90212429                0.07055443
               5.37898162               -0.02238966               13.98356289                0.76046249                0.16023388                0.01350810               -0.07387601                0.00774453                0.54047638                0.04230671
               6.37977120               -0.05334217               13.93901534                0.74629820                0.04137007                0.10687794               -0.39745971                0.00947817                0.37073787               -0.02813598
               7.37980902               -0.08600922               13.89497748                0.84693862                0.04210034                0.20807057               -0.73165376                0.05520659                0.14139587                0.03573120
               8.38061321               -0.12301675               13.84581915                1.00000000                0.18891777                0.32310580               -1.05307526                0.04190784               -0.27289220                0.36569265
               9.38358738               -0.16277551               13.79353140                1.00000000                0.36749196                0.39399928               -1.36317619               -0.05048212               -0.43090801                0.01814947
              10.38796305               -0.20274391               13.74134133                1.00000000                0.43756710                0.47788093               -1.65995541               -0.07733676               -0.43298646               -0.45540572
               0.42860665                1.20414948               14.20605983                1.00000000               -0.34740937               -0.39115425                1.29837834               -0.03190513               -0.07353750                0.88060827
               1.42513255                1.15209279               14.15158417                1.00000000               -0.30927773               -0.30322470                1.01179582               -0.01318616               -0.02637124                0.04889631
               2.42242109                1.09980337               14.09799040                0.78261800               -0.24707533               -0.21909668                0.71823702                0.02364619                0.20117616               -0.52926761
               3.42019104                1.04832450               14.04804466                0.10769173               -0.49412394               -0.17769484                0.42587613                0.64401678                1.54011092               -0.83791338
               4.41253861                1.00885353               14.02129452                0.24620875               -0.47869213                0.08248858                0.19788898                0.09619670                2.19021227                0.75652969
               5.41061720                0.97774542               13.98533975                0.32529127               -0.04314228                0.08863370               -0.08627195                0.30235740                1.49589105                0.29837523
               6.41167577                0.94772660               13.94508482                0.23183483                0.22905885                0.00485427               -0.38249745                0.29803963                1.35359689               -0.36816097
               7.41519838                0.91607148               13.90654383                0.39379235                0.38698332                0.21601529               -0.67065139                0.40517063                1.29257016                0.56442731
               8.41941543                0.88021431               13.86539776                1.00000000                0.38738796                0.29936039               -0.94888170                0.16484757                0.65471029                0.49959330
               9.42294614                0.84116448               13.81430880                1.00000000                0.38713277                0.37811292               -1.24163389               -0.00134173                0.09592853                0.07725283
              10.42715809                0.80203490               13.76207759                1.00000000                0.42119495                0.45118487               -1.53770995               -0.03008149                0.03374108               -0.54018133
               0.47990613                2.20043705               14.19093299                1.00000000               -0.31334358               -0.35743923                1.18716530               -0.02739738                0.03006793                1.13332933
               1.47677270                2.14928482               14.13173214                1.00000000               -0.27047295               -0.26465878                0.88501809               -0.00376804                0.13243333                0.02817276
               2.47449667                2.09784329               14.07453409                0.39701260               -0.17813662               -0.18203441                0.59620163                0.04149271                0.71450219               -1.11871947
               3.47320996                2.04663166               14.02695315                0.00010000               -1.27135660               -0.16214909                0.29693961                0.94291304                3.81710171               -1.55964875
               4.44906954                2.01142387               14.03184327                0.00010000               -1.35271351                0.24422026                0.24015306                1.83455279                4.00084336               -1.07211810
               5.44615569                1.97938301               13.99218118                0.00010000               -0.08318044                0.02556022               -0.08113928                1.59170291                1.38785368               -0.47381788
               6.44740593                1.94675491               13.94436605                0.00010000                0.46345215               -0.12444755               -0.36493323                1.48798725                2.58421830                0.09268166
               7.45542474                1.91831108               13.92873783                0.00010000                0.57056145               -0.06967066               -0.60566053                1.05467403                2.89292115                0.48064085
               8.45881716                1.88297046               13.88774698                0.43825406                0.31576086                0.28744809               -0.82491190                0.26890682                1.11560662                0.94293874
               9.46173995                1.84478675               13.83637482                1.00000000                0.34017181                0.36179483               -1.11422937                0.04525776                0.40711059                0.40947866
              10.46562060                1.80627978               13.78124734                1.00000000                0.38806438                0.40200498               -1.42703896               -0.01536155                0.21615241               -0.55339940
               0.53036315                3.19700069               14.17613276                1.00000000               -0.27122075               -0.33249403                1.07529548               -0.02380965                0.03108218                1.13897128
               1.52765095                3.14679961               14.11112064                1.00000000               -0.22295253               -0.23076039                0.75384942               -0.00374957                0.03423850               -0.02930732
               2.52590410                3.09616268               14.04611843                0.19933910               -0.10911061               -0.13524983                0.43517346               -0.00130966                0.91871368               -1.30369914
               3.52546873                3.04508152               13.99875015                0.00010000               -0.47128914               -0.05252983                0.13724595                0.99058602                3.86082877               -1.83513890
               4.51647832                3.01373793               13.99270257                0.00010000               -0.91742590                0.17468952                0.01151544                2.52229287                5.44997833               -2.40435717
               5.50712022                2.97825662               13.97860680                0.00010000               -0.69854404                0.04446418               -0.12980818                2.18456448                4.69486290               -1.16046875
               6.50250744                2.94523765               13.95928820                0.00010000               -0.35219498               -0.01019719               -0.30799909                1.97734375                4.32212230                0.41307050
               7.50007632                2.91467807               13.93888805                0.00010000               -0.20947685               -0.13580200               -0.48528917                1.45530529                4.10924036                0.34769581
               8.49831790                2.88596327               13.91625276                0.25404482                0.02328243                0.28860983               -0.67298673                0.61412453                2.45426874                1.72838074
               9.50054196                2.84840038               13.86387511                1.00000000                0.27734437                0.32987911               -0.95539735                0.06112154                0.48203787                0.63048883
              10.50386479                2.81007500               13.80182086                1.00000000                0.33228248                0.37012122               -1.30585356               -0.02524448               -0.00353762               -0.42192536
               0.57983209                4.19378717               14.16095716                1.00000000               -0.22963780               -0.30832033                0.95745730               -0.02503670                0.02953620                1.08828958
               1.57753572                4.14466961               14.09005306                1.00000000               -0.18217584               -0.19069189                0.61636921               -0.00417561                0.02624260               -0.06017227
               2.57618858                4.09513830               14.01902175                0.10399901               -0.10446428               -0.07461200                0.27453059                0.01480407                1.23029059               -1.15002045
               3.57544643                4.04558107               13.97216436                0.00010000               -0.49241430                0.29485907               -0.15089262                0.73733454                5.01316655               -0.70534056
               4.56634029                4.01491766               13.97650637                0.00010000               -0.85495846                0.15937062               -0.13388022                1.53557891                7.04584195               -0.90254287
               5.55834726                3.98027229               13.97232219                0.00010000               -0.79044662                0.22000309               -0.17629776                1.41654214                6.40178236               -0.55600316
               6.55053136                3.94655097               13.96575073                0.00010000               -0.72710165                0.19212215               -0.26049163                1.36364125                6.16215559                0.08588551
               7.54380523                3.91559504               13.95870497                0.00010000               -0.65770097                0.15598959               -0.36207168                1.34514798                6.18424364                0.87320529
               8.53737734                3.88874265               13.95433808                0.24810068               -0.24772869                0.22232862               -0.46576140                0.63844874                3.26125890                1.94027952
               9.53885066                3.85138433               13.89042626                1.00000000                0.21945693                0.26550661               -0.79732328                0.03662950                0.14178219                0.57664124
              10.54176648                3.81368221               13.82368776                1.00000000                0.29158233                0.34720299               -1.17478957               -0.02222255                0.00041465               -0.35292801
               0.62809753                5.19083429               14.14498692                1.00000000               -0.18812247               -0.27658743                0.83018147               -0.02871862                0.09234411                1.00445913
               1.62621630                5.14298578               14.06878213                0.81756659               -0.14043994               -0.14355586                0.47439661               -0.01022931                0.15418145               -0.16736504
               2.62528873                5.09467044               13.99375570                0.05623808               -0.28901197               -0.01661201                0.13052443                0.24261889                2.64501241               -1.22508259
               3.62043606                5.05097870               13.96733837                0.00010000               -0.63950305                0.49392958               -0.40949224                0.63961121                6.41135076                0.15393916
               4.61249867                5.01692535               13.96766496                0.00010000               -0.83091590                0.25506339               -0.21867346                1.12886176                7.76817683               -0.37850266
               5.60381775                4.98265668               13.97074674                0.00010000               -0.90205772                0.27433513               -0.19270921                1.04847468                7.80877987               -0.19930364
               6.59445751                4.94908010               13.97435244                0.00010000               -0.95150781                0.28070647               -0.20462734                1.02406501                7.78798391                0.26335464
               7.58478759                4.91779786               13.97940140                0.00010000               -0.95799641                0.22921801               -0.23281520                1.07424799                7.88388616                0.90092571
               8.57529759                4.89040984               13.98717702                0.25873819               -0.42262969                0.12192467               -0.26322611                0.53182436                4.01783785                1.58811779
               9.57633500                4.85371051               13.91690227                0.94762054                0.17634995                0.20438707               -0.64517150                0.02126232                0.06689712                0.55490247
              10.57882459                4.81701906               13.84566433                1.00000000                0.24895888                0.31659234               -1.03844659               -0.02195270                0.02056448               -0.36149868
               0.67495474                6.18825542               14.12797574                1.00000000               -0.14597651               -0.23410266                0.69565315               -0.03125768                0.06845038                0.90647039
               1.67349498                6.14179850               14.04553166                0.68897956               -0.09533532               -0.09331172                0.31496980               -0.01553019                0.17759357               -0.32882331
               2.67304803                6.09480606               13.96522100                0.03755718               -0.37556130                0.04321283               -0.05375975                0.38958801                3.96235519               -1.51580685
               3.66598375                6.05545966               13.95847010                0.00010000               -0.79042472                0.38836479               -0.27936245                0.81413217                8.06536536               -0.42435477
               4.65723954                6.02001892               13.96179488                0.00010000               -0.94108729                0.35354238               -0.24509034                0.95633897                8.76993963               -0.28167237
               5.64716200                5.98575900               13.97138848                0.00010000               -1.06840292                0.36324076               -0.18000857                0.87850167                9.10965230               -0.04940983
               6.63587148                5.95216510               13.98414528                0.00010000               -1.16007790                0.34359524               -0.13720805                0.78599451                9.26633300                0.34888839
               7.62396045                5.92017940               13.99963312                0.00010000               -1.18851534                0.23978057               -0.10340759                0.79122252                9.42933535                0.86766772
               8.61210118                5.89118115               14.01827497                0.27535143               -0.56468804                0.04078630               -0.07217500                0.37895705                4.77776747                1.46137773
               9.61266669                5.85547207               13.94304014                0.87297269                0.13045825                0.15135826               -0.48160836                0.00994409                0.06077500                0.50592667
              10.61471034                5.82001406               13.86732587                1.00000000                0.20436550                0.28002414               -0.90411020               -0.02109193                0.03998325               -0.42241012
               0.72038622                7.18615223               14.10988146                1.00000000               -0.10311596               -0.18493591                0.55530790               -0.02985781                0.03311022                0.82921531
               1.71935506                7.14111954               14.02100697                0.61918205               -0.04834473               -0.04412570                0.15520946               -0.01434657                0.13921894               -0.41746026
               2.71941933                7.09553470               13.93421481                0.03527422               -0.39246111                0.09833709               -0.23972857                0.44952896                4.93566011               -1.71096815
               3.71150584                7.05874599               13.94129588                0.00010000               -0.90466093                0.33936249               -0.29252339                0.91345932                9.81676222               -0.92492179
               4.70132611                7.02399619               13.95451971                0.00010000               -1.11321168                0.44862850               -0.23410068                0.90261501               10.21268549               -0.38848697
               5.68924161                6.98992150               13.97234477                0.00010000               -1.27845553                0.48397959               -0.15129549                0.74120046               10.48092485               -0.02713274
               6.67575700                6.95595200               13.99402209                0.00010000               -1.38228073                0.43277132               -0.06415476                0.55348288               10.69909969                0.35076990
               7.66159599                6.92259347               14.01937940                0.00010000               -1.40864708                0.25982361                0.02339821                0.45580340               10.92607752                0.81595880
               8.64758406                6.89122557               14.04858749                0.29682505               -0.69475123               -0.02751356                0.11345515                0.18394478                5.52456836                1.38985298
               9.64770097                6.85673768               13.96849670                0.83719576                0.08673634                0.10175900               -0.32705925                0.00301467                0.04154343                0.44077332
              10.64931878                6.82261954               13.88799375                1.00000000                0.16178159                0.24120427               -0.77214338               -0.02018177                0.02540827               -0.49670590
               0.76442297                8.18455670               14.09117687                1.00000000               -0.05973854               -0.13529928                0.41416379               -0.02805380                0.01598986                0.79341774
               1.76382558                8.14091598               13.99598468                0.60105861               -0.00054014                0.00338232               -0.00395976               -0.00998952                0.07301998               -0.45493902
               2.76441216                8.09677280               13.90190641                0.03870050               -0.40170700                0.14688890               -0.42561517                0.49659967                5.82302649               -1.72225274
               3.75579144                8.06224691               13.92177926                0.00010000               -1.01479143                0.40462908               -0.36155659                0.94270727               11.57987940               -0.92411137
               4.74411633                8.02899149               13.94588538                0.00010000               -1.28806179                0.57151571               -0.24256280                0.80688406               11.75309158               -0.39302280
               5.73003020                7.99543859               13.97270836                0.00010000               -1.49235844                0.60931954               -0.12215697                0.57921579               11.88649443               -0.03178531
               6.71426917                7.96082052               14.00317370                0.00010000               -1.61136271                0.56679973                0.00534479                0.30648470               12.11130327                0.28939545
               7.69780295                7.92537588               14.03814990                0.00508724               -1.63166503                0.33716347                0.14275741                0.04050310               12.42303555                0.68410153
               8.68163586                7.89063087               14.07823456                0.32369601               -0.82349724               -0.08737000                0.29203582               -0.06610504                6.28171868                1.27588975
               9.68133301                7.85750725               13.99325748                0.84470919                0.04535601                0.05175336               -0.17596439               -0.00272920                0.02057729                0.40472778
              10.68254299                7.82483814               13.90803245                1.00000000                0.12099797                0.20271567               -0.64429143               -0.02001623                0.01406299               -0.53768982
               0.80710659                9.18344625               14.07225061                1.00000000               -0.01674106               -0.08934314                0.27436915               -0.02612987                0.00313094                0.66193140
               1.80693918                9.14118719               13.97072665                0.62296289                0.04569048                0.05096234               -0.16178226               -0.00475900                0.08518744               -0.40783375
               2.80802040                9.09847247               13.87083268                0.02849038               -0.43989421                0.18992975               -0.60076281                0.57472047                6.81667537               -1.22428745
               3.79814129                9.06683857               13.90403854                0.00010000               -1.18741429                0.62060809               -0.42852072                0.76414522               13.29490935               -0.56858205
               4.78427211                9.03542651               13.93754498                0.00010000               -1.45721987                0.67898850               -0.26472835                0.54874845               13.16259746               -0.23463967
               5.76899689                9.00210789               13.97246066                0.00010000               -1.61613517                0.68984818               -0.10500098                0.34788299               13.20119626               -0.01625293
               6.75194941                8.96728800               14.01082600                0.00010000               -1.82005949                0.66782703                0.06215921                0.09919965               13.44820541                0.17322247
               7.73259570                8.92933674               14.05464021                0.01804493               -1.89094142                0.57308497                0.24576306               -0.26721807               13.91237931                0.40105749
               8.71413058                8.88947817               14.10622724                0.35445560               -0.95782935               -0.13009003                0.45624864               -0.39368241                7.14276098                0.86328132
               9.71343912                8.85777275               14.01789903                0.89994148                0.00630539                0.00351097               -0.02709729               -0.01003931                0.05999225                0.34895904
              10.71425669                8.82667385               13.92771061                0.97172149                0.08175688                0.16444361               -0.51972888               -0.02066893               -0.02545319               -0.45811169
               0.84841848               10.18276984               14.05083137                1.00000000                0.02856875               -0.06764087                0.13364570                0.04772894                0.36579523                0.54056678
               1.84870417               10.14193523               13.94667891                0.84267785                0.09183506                0.07480397               -0.31227888                0.06657751                0.67196961               -0.35014550
               2.85025519               10.10057139               13.84865841                0.51888375               -0.72919301                0.20989187               -0.74475591                0.85967117                7.97746993               -0.78851014
               3.83412031               10.07465907               13.89074832                0.36041521               -1.52165992                0.78204950               -0.49522978                0.69789566               14.56495260               -0.24910719
               4.81982199               10.04257126               13.93062794                0.35433384               -1.44969687                0.71447567               -0.30021723                0.28381200               14.28720279               -0.08039210
               5.80512637               10.00923555               13.97165607                0.37549631               -1.53988410                0.71276625               -0.10389240                0.19323815               14.32632018                0.03800091
               6.78902431                9.97417706               14.01622858                0.42127830               -1.74289777                0.68890676                0.10055584                0.08759112               14.61665264                0.14053261
               7.77026842                9.93683757               14.06679966                0.51439310               -2.18490463                0.75008324                0.32362395               -0.54012794               15.23267200                0.27258874
               8.74532621                9.88802907               14.12754363                0.69157758               -1.31659434               -0.14490922                0.58079768               -0.84344150                8.16594004                0.53792162
               9.74393653                9.85757747               14.04142705                0.98583898               -0.04994094               -0.01952723                0.11192549                0.05463860                0.51828630                0.30080486
              10.74432739                9.82812701               13.94915242                1.00000000                0.03908618                0.14531612               -0.39042845                0.06202486                0.21964588               -0.35987516
               0.42573332                0.23521712               15.23998163                1.00000000               -0.37009238               -0.40569799                1.41378607               -0.07319330               -0.63251429                0.67173878
               1.42203240                0.17646739               15.18306844                1.00000000               -0.30555147               -0.32215340                1.13082041               -0.05789787               -0.79076915                0.03695955
               2.41962229                0.11751044               15.12291188                1.00000000               -0.16346407               -0.24021792                0.82938057               -0.04144682               -0.72642531               -0.19124085
               3.41876312                0.05966765               15.06723704                0.62051845                0.31810377               -0.18550026                0.54452247                0.47120462                0.25643157               -0.49916287
               4.42598437                0.01375555               15.02671270                0.69103508                0.47742987               -0.08375800                0.24470334               -0.03846482                0.84969864                0.08473294
               5.42831172               -0.02364428               14.98285237                0.76792519                0.15441432                0.01604902               -0.06885458                0.00815880                0.47987176                0.04976413
               6.42907266               -0.05979061               14.93509596                0.75258205                0.04106068                0.10632488               -0.38733520                0.00993069                0.30313633               -0.03271596
               7.42913293               -0.09750905               14.88774227                0.85147444                0.04300875                0.20557707               -0.71618850                0.05223662                0.07632318                0.03878837
               8.42993283               -0.13940067               14.83538328                1.00000000                0.18577546                0.31842409               -1.03457267                0.03919356               -0.32413191                0.37738055
               9.43284844               -0.18398461               14.78000528                1.00000000                0.36114889                0.38875857               -1.34232994               -0.04984665               -0.46866429                0.01710935
              10.43715581               -0.22879442               14.72486174                1.00000000                0.43073703                0.47161597               -1.63609077               -0.07578942               -0.46361332               -0.48527558
               0.48375112                1.23116014               15.21896911                1.00000000               -0.34443570               -0.38503631                1.28411727               -0.03208877               -0.07867940                0.91556971
               1.48030676                1.17324586               15.16164964                1.00000000               -0.30717104               -0.29962674                1.00152016               -0.01380515               -0.03494694                0.05555040
               2.47760770                1.11510826               15.10514617                0.79175162               -0.24770768               -0.21744139                0.71274359                0.02440984                0.19027448               -0.53508998
               3.47535261                1.05781264               15.05230313                0.11635468               -0.51760066               -0.17662982                0.42551549                0.66454210                1.56176304               -0.87136303
               4.46725569                1.01291797               15.02326739                0.25962802               -0.50931137                0.07717298                0.19695359                0.04757155                2.22520387                0.80570513
               5.46516638                0.97651621               14.98448585                0.34186181               -0.05756698                0.08787641               -0.08475153                0.27676739                1.50283323                0.31378293
               6.46610435                0.94127264               14.94129290                0.24533804                0.21469715                0.01326877               -0.37652742                0.28199621                1.36066405               -0.37123585
               7.46946033                0.90454672               14.89989353                0.40480638                0.37291010                0.20890542               -0.66003932                0.38477073                1.30745025                0.56948296
               8.47356255                0.86378357               14.85597331                1.00000000                0.37932615                0.29552151               -0.93645663                0.16024795                0.66505271                0.52106715
               9.47704685                0.81990297               14.80196996                1.00000000                0.38225860                0.37359675               -1.22649114               -0.00108900                0.09750528                0.07944327
              10.48120772                0.77592174               14.74679271                1.00000000                0.41608725                0.44583318               -1.51950361               -0.02909562                0.03370295               -0.57537886
               0.54092012                2.22751640               15.20272973                1.00000000               -0.31119352               -0.35023384                1.17295400               -0.02660378                0.03083194                1.17674221
               1.53780818                2.17047486               15.14053449                1.00000000               -0.26882044               -0.26124529                0.87567142               -0.00232322                0.13921348                0.03424088
               2.53554371                2.11316161               15.08046522                0.41046286               -0.17819645               -0.18263322                0.58968418                0.04715297                0.72258448               -1.14533539
               3.53424425                2.05613505               15.02991333                0.00010000               -1.36557347               -0.16170866                0.29425666                0.95967708                3.93433991               -1.61276698
               4.50823224                2.01529901               15.03409502                0.00010000               -1.43759299                0.23454847                0.21626958                1.87191359                4.15943667               -1.10441605
               5.50549239                1.97811325               14.99135296                0.00010000               -0.07750852                0.00777876               -0.08391263                1.62601527                1.43382558               -0.47461127
               6.50668207                1.94047477               14.94072900                0.00010000                0.44125097               -0.13435086               -0.36311656                1.48939286                2.66337091                0.11053925
               7.51431741                1.90666906               14.92270514                0.00010000                0.55497359               -0.08229043               -0.60128777                1.05082082                2.99315376                0.51934922
               8.51778154                1.86650976               14.87953060                0.44508934                0.31855405                0.28504780               -0.81884206                0.26915674                1.18653813                0.98902853
               9.52068849                1.82348732               14.82528352                1.00000000                0.33774106                0.35820696               -1.10454769                0.04527879                0.43174689                0.43097129
              10.52453636                1.78012224               14.76704256                1.00000000                0.38478683                0.39856776               -1.41437103               -0.01461172                0.22873571               -0.58772381
               0.59730212                3.22415547               15.18680978                1.00000000               -0.26870363               -0.32507237                1.06098147               -0.02226287                0.03347581                1.17787189
               1.59461509                3.16802095               15.11861727                1.00000000               -0.22057767               -0.22820513                0.74593519               -0.00152820                0.03797289               -0.02877105
               2.59289057                3.11145560               15.05046593                0.21174323               -0.11031653               -0.13842628                0.43396521                0.00816834                0.93242056               -1.34757529
               3.59240875                3.05457847               15.00012274                0.00010000               -0.50874024               -0.07066271                0.13670031                1.02287287                3.97034930               -1.96120828
               4.58271576                3.01760894               14.99280187                0.00010000               -0.99489126                0.16680390                0.00959263                2.61798673                5.64610235               -2.53327778
               5.57251093                2.97667178               14.97729397                0.00010000               -0.76896860                0.02962801               -0.13169101                2.25176608                4.88055301               -1.18653460
               6.56733639                2.93858562               14.95622583                0.00010000               -0.40345915               -0.03486240               -0.30471948                2.01734310                4.49334463                0.45016843
               7.56444175                2.90290091               14.93406142                0.00010000               -0.26044852               -0.14397071               -0.48087639                1.48981644                4.27568817                0.41815351
               8.56212742                2.86948453               14.90953871                0.25351039               -0.00509015                0.28455950               -0.67088183                0.61982006                2.57033398                1.81594692
               9.56433994                2.82706711               14.85434965                1.00000000                0.27591104                0.32679381               -0.95019142                0.06003672                0.51811153                0.66736137
              10.56764564                2.78389309               14.78880082                1.00000000                0.33056985                0.36864382               -1.29839070               -0.02444635               -0.00161039               -0.44436411
               0.65274388                4.22101495               15.17045268                1.00000000               -0.22663963               -0.30086908                0.94288791               -0.02403461                0.03195239                1.11808792
               1.65047749                4.16591076               15.09617912                1.00000000               -0.17971637               -0.18869540                0.60873071               -0.00298954                0.02827577               -0.06533225
               2.64914956                4.11039309               15.02177428                0.11428303               -0.09645607               -0.07789182                0.27635040                0.00955862                1.19362179               -1.18503133
               3.64854837                4.05472180               14.97078085                0.00010000               -0.53254482                0.25941112               -0.12655509                0.76814565                5.14582533               -0.89637543
               4.63849866                4.01863509               14.97514552                0.00010000               -0.94986692                0.15563452               -0.13689429                1.58317478                7.37875560               -0.97167546
               5.62955103                3.97870581               14.97056243                0.00010000               -0.88494304                0.22574480               -0.17527563                1.45613154                6.69850505               -0.57122632
               6.62079980                3.93977752               14.96316509                0.00010000               -0.81680971                0.19092009               -0.25712203                1.38536317                6.43481535                0.12026967
               7.61321483                3.90378964               14.95510359                0.00010000               -0.73940293                0.15740250               -0.35917804                1.35867091                6.45090187                0.94538128
               8.60601174                3.87220095               14.94967633                0.24557813               -0.28670867                0.21713415               -0.46727275                0.64180018                3.41892920                2.04996351
               9.60748066                3.83002320               14.88245632                1.00000000                0.21918620                0.26343219               -0.79655413                0.03603886                0.16473256                0.60904818
              10.61039547                3.78749512               14.81194658                1.00000000                0.29148045                0.34784568               -1.17298844               -0.02142340               -0.00000400               -0.36702646
               0.70702982                5.21813809               15.15320642                1.00000000               -0.18526575               -0.26880316                0.81530361               -0.02720703                0.09813842                1.02525947
               1.70517716                5.16424705               15.07349082                0.80826786               -0.13795576               -0.14196137                0.46639924               -0.00861826                0.16548780               -0.18318497
               2.70427070                5.10989776               14.99507377                0.06492176               -0.28237458               -0.01950721                0.13010313                0.22369289                2.54693194               -1.27041193
               3.69952967                5.05976669               14.96294738                0.00010000               -0.69377256                0.49465884               -0.45745513                0.63205164                6.61385992                0.15160707
               4.69039525                5.02072163               14.96542997                0.00010000               -0.95192697                0.26869050               -0.22770467                1.17196203                8.26927645               -0.39048573
               5.68049113                4.98118668               14.96881791                0.00010000               -1.02177168                0.29102848               -0.19318647                1.06310934                8.20051625               -0.18820826
               6.66995982                4.94240403               14.97232216                0.00010000               -1.06496983                0.29617716               -0.20227722                1.02709178                8.15543858                0.30459342
               7.65919173                4.90604896               14.97708052                0.00010000               -1.06149723                0.23863141               -0.23234779                1.07453175                8.24638380                0.97316468
               8.64872987                4.87382721               14.98451646                0.25558897               -0.47125889                0.11925253               -0.26903799                0.52847919                4.21034660                1.68688769
               9.64976655                4.83233575               14.91041659                0.93097515                0.17717285                0.20450270               -0.65151419                0.02059916                0.08036376                0.58939278
              10.65227333                4.79085001               14.83525031                1.00000000                0.25067754                0.31975236               -1.04339646               -0.02110009                0.02856388               -0.37395180
               0.75998182                6.21563889               15.13485211                1.00000000               -0.14363734               -0.22657488                0.68080837               -0.02911819                0.06824545                0.92063768
               1.75854545                6.16307153               15.04865910                0.68154144               -0.09390275               -0.09284767                0.31048607               -0.01215606                0.18304045               -0.35314870
               2.75810377                6.11000294               14.96471691                0.04437146               -0.40899595                0.03832804               -0.04799310                0.39498894                4.02820773               -1.58138262
               3.75036553                6.06461497               14.95540791                0.00010000               -0.87929257                0.42394659               -0.33909020                0.80397311                8.36269906               -0.28069379
               4.74051792                6.02400890               14.95925684                0.00010000               -1.06173559                0.37938547               -0.26286041                0.97847632                9.23515116               -0.24222574
               5.72913082                5.98452638               14.96957738                0.00010000               -1.20192822                0.39344206               -0.18307637                0.88268313                9.57370583               -0.01554967
               6.71647935                5.94570106               14.98278036                0.00010000               -1.29242682                0.37098702               -0.13683633                0.77427500                9.71555596                0.39693386
               7.70328228                5.90856227               14.99859206                0.00010000               -1.30924097                0.25667996               -0.10582544                0.77365775                9.87633544                0.93635213
               8.69029453                5.87458600               15.01750121                0.27213430               -0.62062173                0.04052337               -0.08295407                0.36609367                5.01013693                1.55042490
               9.69086985                5.83411325               14.93816746                0.85789290                0.13252116                0.15393541               -0.49288546                0.00914194                0.06870000                0.54160413
              10.69294496                5.79389017               14.85822285                1.00000000                0.20751081                0.28575209               -0.91593481               -0.02055798                0.04120884               -0.43666594
               0.81158217                7.21360659               15.11536004                1.00000000               -0.10121851               -0.17867720                0.54162900               -0.02803870                0.03219832                0.83968846
               1.81056998                7.16239009               15.02255542                0.61306643               -0.04775659               -0.04465822                0.15400719               -0.01090771                0.14078335               -0.44170562
               2.81062704                7.11066432               14.93188530                0.03986738               -0.44834040                0.09109735               -0.22810988                0.47911934                5.09925212               -1.77718123
               3.80160317                7.06824563               14.93825644                0.00010000               -1.02868308                0.37198522               -0.32153105                0.95225836               10.22486843               -0.87357654
               4.79005337                7.02830934               14.95211965                0.00010000               -1.25752750                0.48942745               -0.24846513                0.93449810               10.70889732               -0.33472409
               5.77645262                6.98905552               14.97081870                0.00010000               -1.43219775                0.52998204               -0.15522962                0.74453213               10.99578565                0.01612813
               6.76140942                6.94982377               14.99337902                0.00010000               -1.53363397                0.47417567               -0.06563901                0.52991942               11.21954791                0.39884336
               7.74577995                6.91118256               15.01959211                0.00010000               -1.54543267                0.28524259                0.01809086                0.41764444               11.45186722                0.87813349
               8.73050077                6.87463768               15.04965176                0.29381342               -0.75673585               -0.02612167                0.09866116                0.15886654                5.79316376                1.47263308
               9.73064523                6.83541446               14.96514866                0.82276495                0.09037858                0.10602349               -0.34314006                0.00199061                0.04501523                0.47038539
              10.73230834                6.79656505               14.88018496                1.00000000                0.16631093                0.24901201               -0.78978281               -0.01954341                0.02661443               -0.51358441
               0.86185404                8.21206534               15.09525234                1.00000000               -0.05844762               -0.13063544                0.40201473               -0.02656161                0.01490112                0.80367469
               1.86126956                8.16217837               14.99596126                0.59580061               -0.00117086                0.00226484               -0.00151684               -0.00736148                0.07034252               -0.47803386
               2.86183062                8.11182489               14.89775315                0.04077627               -0.47519416                0.13900604               -0.40767880                0.54757688                6.05195399               -1.78260293
               3.85176568                8.07205468               14.91813499                0.00010000               -1.17163189                0.44220169               -0.37154834                1.01783046               12.09242657               -0.90165750
               4.83839798                8.03379745               14.94344129                0.00010000               -1.46293232                0.63191171               -0.24850749                0.85145094               12.31219998               -0.35537637
               5.82250703                7.99512602               14.97148065                0.00010000               -1.67236425                0.67347561               -0.12477823                0.58393923               12.45877651                0.00520243
               6.80495070                7.95518458               15.00321902                0.00010000               -1.78428883                0.62662473                0.00254381                0.27428262               12.69837454                0.32788690
               7.78682126                7.91426712               15.03954337                0.00512021               -1.78553688                0.37559990                0.13481827               -0.02231268               13.02584286                0.73292786
               8.76923996                7.87406357               15.08106694                0.32108114               -0.89194839               -0.08424226                0.27344456               -0.10759632                6.58878954                1.34836903
               9.76898229                7.83623372               14.99140139                0.82982458                0.05064756                0.05730829               -0.19614793               -0.00416508                0.02120881                0.43222845
              10.77025291                7.79887041               14.90147678                1.00000000                0.12706235                0.21184938               -0.66732773               -0.01924203                0.01448547               -0.55789450
               0.91082489                9.21099388               15.07493774                1.00000000               -0.01616846               -0.08592398                0.26402091               -0.02505832                0.00103697                0.67202308
               1.91066321                9.16243539               14.96914632                0.61765904                0.04386844                0.04904399               -0.15546314               -0.00333950                0.08206656               -0.42626341
               2.91170226                9.11344444               14.86496288                0.02733945               -0.53379899                0.18189110               -0.57657053                0.65346898                7.10872995               -1.26325566
               3.89998723                9.07708966               14.89977682                0.00010000               -1.38456029                0.68954546               -0.42588121                0.84553629               13.90010411               -0.54792031
               4.88401106                9.04094757               14.93490462                0.00010000               -1.66214742                0.75514922               -0.26473614                0.58753643               13.78279946               -0.21436391
               5.86674428                9.00252503               14.97141087                0.00010000               -1.81285456                0.76660503               -0.10609851                0.35114869               13.83528570                0.00413623
               6.84775396                8.96235626               15.01143426                0.00010000               -2.01447908                0.74254327                0.05834361                0.07037773               14.10196463                0.19404500
               7.82645470                8.91869456               15.05705157                0.01867775               -2.06858606                0.64049374                0.23530143               -0.33522605               14.59231059                0.42724016
               8.80638224                8.87295283               15.11068446                0.35230637               -1.03498041               -0.12362798                0.43377472               -0.45686891                7.49565556                0.90905395
               9.80575509                8.83656063               15.01751110                0.88319819                0.01339411                0.01058234               -0.05167965               -0.01213775                0.06391135                0.37087131
              10.80665013                8.80080204               14.92237311                0.97344559                0.08950355                0.17427252               -0.54832945               -0.01962691               -0.02629793               -0.47749668
               0.95846985               10.21034686               15.05212370                1.00000000                0.02823588               -0.06470159                0.12561666                0.04573421                0.36930181                0.54978963
               1.95875221               10.16315925               14.94361187                0.84050972                0.08879398                0.07238553               -0.30259686                0.06469279                0.68234681               -0.36430493
               2.96024573               10.11546271               14.84136507                0.51768553               -0.87894682                0.20182699               -0.71753242                0.98866423                8.32687624               -0.81078888
               3.94117328               10.08584559               14.88584483                0.36112359               -1.77661960                0.87559278               -0.48643962                0.79049069               15.25094456               -0.23678202
               4.92471334               10.04890043               14.92764569                0.35458366               -1.65259777                0.79528578               -0.29728893                0.30085500               14.96981821               -0.07227548
               5.90812132               10.01045812               14.97062206                0.37536665               -1.72623068                0.79330847               -0.10406286                0.19445460               15.02728526                0.04670132
               6.89018873                9.97003544               15.01721677                0.42091313               -1.93005789                0.76791810                0.09574182                0.07442040               15.33876438                0.15004724
               7.86952016                9.92707700               15.06997666                0.51501695               -2.39761064                0.83824399                0.31029779               -0.61567512               15.98332233                0.28547183
               8.84223651                9.87159101               15.13321961                0.69095347               -1.43149156               -0.13618242                0.55265737               -0.94615442                8.57208947                0.56417672
               9.84089033                9.83644537               15.04240472                0.97676541               -0.04294788               -0.01152607                0.08196405                0.05176652                0.54846924                0.31850382
              10.84137756                9.80235586               14.94507749                0.98754627                0.04872255                0.15538198               -0.42543817                0.06379210                0.23285923               -0.37678790
               0.47760695                0.26371996               16.25404403                1.00000000               -0.36622754               -0.40071857                1.39896316               -0.07288203               -0.65717619                0.69577376
               1.47394468                0.19892611               16.19432098                1.00000000               -0.30242999               -0.31883584                1.11981228               -0.05821779               -0.82413947                0.04135982
               2.47155835                0.13393185               16.13118055                1.00000000               -0.16185372               -0.23836106                0.82439033               -0.04132475               -0.76072578               -0.19450459
               3.47070760                0.07007013               16.07267549                0.62066356                0.31934113               -0.18491812                0.54349888                0.48112445                0.22159566               -0.52430721
               4.47794517                0.01835938               16.02917185                0.69467819                0.47440980               -0.07740655                0.24675193               -0.04509342                0.79749921                0.09909656
               5.48019580               -0.02466134               15.98218580                0.77407121                0.14994266                0.01818240               -0.06539701                0.00776803                0.41949989                0.05730730
               6.48094403               -0.06639038               15.93126864                0.75778669                0.04261841                0.10592217               -0.37899800                0.01000127                0.23757062               -0.03724352
               7.48104817               -0.10953598               15.88065371                0.85544654                0.04617674                0.20342460               -0.70222897                0.04894042                0.01245450                0.04241214
               8.48186756               -0.15664919               15.82512770                1.00000000                0.18437348                0.31375205               -1.01700583                0.03591384               -0.37607332                0.38891012
               9.48473564               -0.20636268               15.76668480                1.00000000                0.35551519                0.38377960               -1.32205579               -0.04898874               -0.50732630                0.01597723
              10.48897787               -0.25631137               15.70861951                1.00000000                0.42422309                0.46578681               -1.61251404               -0.07399053               -0.49482858               -0.51559620
               0.54167198                1.25971277               16.23174218                1.00000000               -0.34154300               -0.37943716                1.27091253               -0.03218804               -0.08330309                0.94819925
               1.53825655                1.19573775               16.17161458                1.00000000               -0.30494453               -0.29620490                0.99167428               -0.01438670               -0.04252858                0.06140308
               2.53557309                1.13154824               16.11224527                0.79868604               -0.24757363               -0.21575115                0.70713811                0.02471850                0.18103058               -0.54195723
               3.53330508                1.06822095               16.05655497                0.12359328               -0.53565605               -0.17567061                0.42545474                0.67982149                1.58246370               -0.90380140
               4.52485997                1.01758531               16.02523359                0.27149451               -0.53283639                0.07208435                0.19681549                0.00865081                2.25775147                0.84835946
               5.52264835                0.97552049               15.98364471                0.35691145               -0.06893061                0.08719970               -0.08373918                0.25429799                1.50917560                0.32933178
               6.52348136                0.93466885               15.93755428                0.25786848                0.20093121                0.02115719               -0.37172927                0.26774582                1.36795067               -0.37438648
               7.52666698                0.89249827               15.89334304                0.41539078                0.35793472                0.20330761               -0.65067269                0.36287645                1.32146619                0.57437607
               8.53064006                0.84648833               15.84666863                1.00000000                0.37049297                0.29174058               -0.92499330                0.15394134                0.67417941                0.54228546
               9.53407684                0.79747511               15.78977898                1.00000000                0.37732959                0.36945884               -1.21213658               -0.00072680                0.09858024                0.08162447
              10.53818665                0.74834650               15.73168752                1.00000000                0.41098092                0.44142872               -1.50185610               -0.02789325                0.03344281               -0.61104322
               0.60491324                2.25613122               16.21439207                1.00000000               -0.30917631               -0.34387947                1.16014229               -0.02563549                0.03155838                1.21718957
               1.60182148                2.19300201               16.14924557                1.00000000               -0.26718596               -0.25790924                0.86681321               -0.00083429                0.14493135                0.03977544
               2.59956952                2.12961682               16.08632777                0.42350577               -0.17772609               -0.18230638                0.58250650                0.05143313                0.72905366               -1.17036140
               3.59826696                2.06655672               16.03283829                0.00010000               -1.43754365               -0.16155561                0.28983882                0.97094662                4.04116676               -1.66451242
               4.57081865                2.01980106               16.03616866                0.00010000               -1.50343676                0.22182834                0.20218010                1.89475492                4.30862078               -1.13432126
               5.56819822                1.97708266               15.99050293                0.00010000               -0.07487439               -0.01020140               -0.08634722                1.64453333                1.48306363               -0.47325931
               6.56932116                1.93403277               15.93710371                0.00010000                0.41439949               -0.14319569               -0.36242435                1.47865190                2.73989594                0.13155242
               7.57648621                1.89453018               15.91671208                0.00010000                0.53241924               -0.09277889               -0.59803965                1.03815342                3.09201395                0.56009394
               8.57996955                1.84918562               15.87137014                0.45199665                0.31883593                0.28240755               -0.81384274                0.26463095                1.25691512                1.03571146
               9.58286293                1.80102649               15.81428387                1.00000000                0.33538407                0.35498515               -1.09610811                0.04484182                0.45662983                0.45319358
              10.58667723                1.75251720               15.75295991                1.00000000                0.38142978                0.39685977               -1.40288083               -0.01374906                0.24140825               -0.62215949
               0.66741769                3.25283518               16.19735239                1.00000000               -0.26634296               -0.31894639                1.04838939               -0.02031197                0.03648471                1.21378970
               1.66475426                3.19057956               16.12603934                1.00000000               -0.21853204               -0.22562946                0.73870733                0.00125358                0.04234108               -0.02935744
               2.66304705                3.12790211               16.05479773                0.22417632               -0.11072425               -0.13934968                0.43219132                0.01500185                0.94398051               -1.38760951
               3.66253978                3.06498983               16.00148416                0.00010000               -0.54089598               -0.08638983                0.13597978                1.04222550                4.07571873               -2.07423375
               4.65222913                3.02202188               15.99289443                0.00010000               -1.06162296                0.15274936                0.01000515                2.68208995                5.83789358               -2.64976761
               5.64130732                2.97531646               15.97597298                0.00010000               -0.83111245                0.01205857               -0.13139780                2.29413109                5.06111471               -1.20584307
               6.63560688                2.93180493               15.95319381                0.00010000               -0.45150605               -0.05863711               -0.30224739                2.03457850                4.66100172                0.49305506
               7.63227720                2.89064269               15.92927052                0.00010000               -0.30852616               -0.15233035               -0.47826044                1.50786834                4.43682783                0.49339399
               8.62943636                2.85213648               15.90283513                0.25314522               -0.03175525                0.27892752               -0.67100618                0.61828888                2.68433455                1.90580310
               9.63164209                2.80457481               15.84487128                1.00000000                0.27469420                0.32359302               -0.94641374                0.05796664                0.55496974                0.70632244
              10.63493024                2.75628369               15.77585304                1.00000000                0.32881515                0.36874925               -1.29162357               -0.02368037                0.00066565               -0.46611417
               0.72901825                4.24975229               16.17981491                1.00000000               -0.22386192               -0.29475709                0.93008936               -0.02259657                0.03407906                1.14481589
               1.72677963                4.18848942               16.10222767                0.99234386               -0.17794782               -0.18687332                0.60277003               -0.00090012                0.03205098               -0.07326391
               2.72545929                4.12682983               16.02454875                0.12433726               -0.08939635               -0.07912670                0.28084996                0.00316326                1.16604522               -1.22219067
               3.72499170                4.06482892               15.96963326                0.00010000               -0.56627321                0.21969735               -0.10423974                0.79217536                5.27275734               -1.10998622
               4.71413382                4.02285605               15.97376848                0.00010000               -1.03469547                0.14912144               -0.13578704                1.61397201                7.69213965               -1.03800566
               5.70429779                3.97732383               15.96881668                0.00010000               -0.97236620                0.22805551               -0.17328687                1.48162665                6.98943709               -0.58056138
               6.69468650                3.93286003               15.96060829                0.00010000               -0.89928790                0.18758813               -0.25496507                1.39282668                6.70169061                0.15939925
               7.68631203                3.89148357               15.95152141                0.00010000               -0.81416494                0.15649983               -0.35857924                1.35739577                6.71108365                1.02159741
               8.67840320                3.85476417               15.94499263                0.24328502               -0.32184905                0.20931129               -0.47081720                0.63734391                3.57475068                2.16281147
               9.67987505                3.80749835               15.87449518                1.00000000                0.21913308                0.26062047               -0.79512559                0.03471782                0.18883722                0.64268552
              10.68278586                3.75989219               15.80022800                1.00000000                0.29108131                0.34900322               -1.16943095               -0.02070691               -0.00079898               -0.38091963
               0.78949150                5.24694004               16.16129299                1.00000000               -0.18327812               -0.26188656                0.80270419               -0.02542398                0.10163472                1.04238493
               1.78765872                5.18684210               16.07811011                0.79923951               -0.13603411               -0.14092461                0.45872373               -0.00545542                0.17510332               -0.19989630
               2.78677081                5.12631958               15.99635776                0.07337275               -0.26508266               -0.02314821                0.12716005                0.19728919                2.42731081               -1.31645732
               3.78235706                5.06938378               15.95818926                0.00010000               -0.73785771                0.48538988               -0.48151383                0.61954136                6.79783711                0.10942353
               4.77201366                5.02500431               15.96311087                0.00010000               -1.07105944                0.28143352               -0.23390431                1.20665277                8.77552108               -0.40619079
               5.76093587                4.97987757               15.96688301                0.00010000               -1.13549928                0.30616931               -0.19378251                1.06836000                8.58824126               -0.17472235
               6.74930367                4.93555670               15.97030690                0.00010000               -1.17074538                0.30934451               -0.20170687                1.01882673                8.51701012                0.34945524
               7.73752097                4.89377269               15.97475445                0.00010000               -1.15676116                0.24556438               -0.23423133                1.06101410                8.60166444                1.04899960
               8.72616845                4.85632271               15.98179626                0.25273872               -0.51562690                0.11450907               -0.27579791                0.51699235                4.39957157                1.78821741
               9.72720843                4.80978722               15.90387198                0.91398238                0.17799893                0.20368680               -0.65619171                0.01925280                0.09427688                0.62394045
              10.72972843                4.76326376               15.82479640                1.00000000                0.25200021                0.32269479               -1.04540087               -0.02045233                0.03702092               -0.38803891
               0.84870566                6.24451456               16.14159191                1.00000000               -0.14146723               -0.21971363                0.66805723               -0.02696632                0.06862277                0.93134778
               1.84729099                6.18567093               16.05174138                0.67448992               -0.09211350               -0.09294129                0.30580404               -0.00804716                0.18924531               -0.37627914
               2.84686339                6.12636687               15.96426114                0.05110830               -0.42965952                0.03176292               -0.04402351                0.38991600                4.05446145               -1.64208802
               3.83869779                6.07453672               15.95168830                0.00010000               -0.95451478                0.45818001               -0.40582979                0.77648253                8.63949179               -0.13387888
               4.82777309                6.02848472               15.95653767                0.00010000               -1.17925967                0.40564812               -0.28000200                0.99193161                9.72080981               -0.20459224
               5.81511260                5.98344721               15.96772696                0.00010000               -1.33025875                0.42316070               -0.18751254                0.87621370               10.03826826                0.01951882
               6.80116792                5.93904692               15.98140856                0.00010000               -1.41731491                0.39667591               -0.13858311                0.75092550               10.15966353                0.44775262
               7.78676630                5.89639486               15.99751661                0.00010000               -1.42197018                0.27160711               -0.11046218                0.74235361               10.31537478                1.00838420
               8.77272851                5.85705435               16.01661588                0.26925397               -0.67236242                0.03948992               -0.09493636                0.34497838                5.23818460                1.64239008
               9.77331905                5.81157209               15.93318243                0.84262872                0.13476179                0.15621176               -0.50439824                0.00756862                0.07615045                0.57807993
              10.77542375                5.76634608               15.84900718                1.00000000                0.21046944                0.29150783               -0.92702498               -0.02009827                0.04216087               -0.45264145
               0.90663943                7.24254577               16.12071404                1.00000000               -0.09939674               -0.17310346                0.52988110               -0.02637572                0.03156659                0.84758546
               1.90564546                7.18498327               16.02408711                0.60740596               -0.04680428               -0.04532644                0.15200576               -0.00751489                0.14299104               -0.46490057
               2.90570335                7.12695483               15.92965261                0.04459110               -0.49383023                0.08381484               -0.21980950                0.49891215                5.23522507               -1.83884353
               3.89576886                7.07854738               15.93486526                0.00010000               -1.13807753                0.40783287               -0.36161216                0.97082364               10.61074979               -0.79655394
               4.88294179                7.03311727               15.94955041                0.00010000               -1.39354531                0.53071376               -0.26689369                0.95174870               11.21148622               -0.27476244
               5.86789795                6.98834078               15.96924017                0.00010000               -1.57836254                0.57516248               -0.16145189                0.73441723               11.51074339                0.06174399
               6.85137454                6.94349021               15.99270931                0.00010000               -1.67686749                0.51380526               -0.06946624                0.49350334               11.73494688                0.44941122
               7.83436060                6.89920483               16.01974122                0.00010000               -1.67418785                0.30900628                0.01050021                0.36639379               11.96948137                0.94364645
               8.81789079                6.85711250               16.05056071                0.29110230               -0.81462677               -0.02443990                0.08206018                0.12658779                6.05752480                1.55939102
               9.81806807                6.81291146               15.96163389                0.80829321                0.09438427                0.11086477               -0.36079502                0.00048467                0.04834042                0.50221379
              10.81977847                6.76909391               15.87219809                1.00000000                0.17104046                0.25730103               -0.80816787               -0.01884642                0.02771020               -0.53079031
               0.96330314                8.24105249               16.09921716                1.00000000               -0.05715174               -0.12652097                0.39156389               -0.02527210                0.01409755                0.81180010
               1.96273162                8.18476440               15.99595434                0.59105903               -0.00128108                0.00140181               -0.00053446               -0.00497093                0.06849461               -0.49959331
               2.96327752                8.12804316               15.89375284                0.04317887               -0.53898959                0.13203029               -0.39437406                0.58950608                6.26021814               -1.83767280
               3.95195183                8.08269337               15.91434830                0.00010000               -1.31314276                0.48114684               -0.38971909                1.07443015               12.58250349               -0.86209944
               4.93701466                8.03909900               15.94091523                0.00010000               -1.62619152                0.69087797               -0.25873076                0.88046719               12.86742774               -0.30987143
               5.91942800                7.99495046               15.97021279                0.00010000               -1.84203635                0.73542147               -0.13012663                0.57495214               13.02659552                0.04508927
               6.90017394                7.94932302               16.00322457                0.00010000               -1.94780568                0.68404641               -0.00269787                0.22989902               13.27922651                0.36860323
               7.88047189                7.90257498               16.04084627                0.00525804               -1.93101485                0.41217163                0.12442649               -0.09631751               13.62017746                0.78500678
               8.86155364                7.85656555               16.08370346                0.31860178               -0.95622751               -0.08029651                0.25250244               -0.15461149                6.89217868                1.42524792
               9.86134734                7.81378938               15.98933452                0.81481737                0.05641349                0.06376927               -0.21825859               -0.00564113                0.02238360                0.46253390
              10.86268191                7.77149211               15.89468590                1.00000000                0.13345722                0.22146474               -0.69139582               -0.01831575                0.01500930               -0.57777285
               1.01871017                9.24001535               16.07753103                1.00000000               -0.01547987               -0.08293827                0.25512917               -0.02415321               -0.00068408                0.68061301
               2.01855537                9.18501131               15.96761739                0.61288686                0.04271614                0.04768114               -0.15131293               -0.00208988                0.07997139               -0.44327210
               3.01956449                9.12959544               15.85930127                0.02668688               -0.61768704                0.17540379               -0.55831967                0.72206217                7.38409331               -1.29846143
               4.00620163                9.08817032               15.89552092                0.00010000               -1.56352216                0.75470169               -0.42767306                0.91230714               14.48169476               -0.51749216
               4.98829405                9.04693483               15.93225026                0.00010000               -1.85143294                0.82723173               -0.26786389                0.61526803               14.39182802               -0.18994435
               5.96917297                9.00304921               15.97033869                0.00010000               -1.99730204                0.83983761               -0.10973256                0.34546519               14.46076997                0.02619095
               6.94834801                8.95717114               16.01199287                0.00010000               -2.19906249                0.81449817                0.05201275                0.03350527               14.74746487                0.21610102
               7.92519172                8.90744826               16.05934623                0.01938388               -2.23819262                0.70609248                0.22218969               -0.41022124               15.26307568                0.45601374
               8.90358415                8.85550657               16.11490273                0.34995357               -1.10815135               -0.11616250                0.40831089               -0.52375585                7.84520903                0.95851625
               9.90302869                8.81418684               16.01686543                0.86570405                0.02112795                0.01854662               -0.07865063               -0.01413338                0.06887380                0.39495658
              10.90400671                8.77352321               15.91674402                0.97498901                0.09780205                0.18451908               -0.57812015               -0.01850744               -0.02678311               -0.49701448
               1.07282816               10.23939372               16.05334370                1.00000000                0.02815736               -0.06216278                0.11870818                0.04422941                0.37271799                0.55803206
               2.07310974               10.18571802               15.94062698                0.83860180                0.08657937                0.07067140               -0.29563752                0.06331262                0.69268023               -0.37735505
               3.07455975               10.13155124               15.83430776                0.51675557               -1.01255759                0.19557999               -0.69673835                1.10299537                8.66032637               -0.83111537
               4.05285859               10.09778741               15.88101953                0.36178023               -2.00593104                0.96170892               -0.48025720                0.87031527               15.91293873               -0.21914095
               5.03444113               10.05564363               15.92468216                0.35482199               -1.83787965                0.87088023               -0.29702946                0.31269870               15.63745064               -0.06253946
               6.01610099               10.01174722               15.96957481                0.37522098               -1.89980688                0.86980035               -0.10688543                0.19126997               15.71647163                0.05565762
               6.99644499                9.96561299               16.01814342                0.42049232               -2.10844809                0.84418434                0.08805464                0.05717932               16.04931487                0.15950744
               7.97393203                9.91669683               16.07300561                0.51568376               -2.60525256                0.92485682                0.29389127               -0.69450300               16.72124595                0.29899603
               8.94433994                9.85424230               16.13859678                0.69013369               -1.54419979               -0.12642701                0.52111569               -1.05124702                8.97525544                0.59354133
               9.94304804                9.81416032               16.04306633                0.96697929               -0.03504552               -0.00265282                0.04894594                0.04894333                0.58042301                0.33772061
              10.94363903                9.77518249               15.94064366                0.98739533                0.05909966                0.16592778               -0.46212663                0.06544886                0.24647932               -0.39421167
               0.53203590                0.29373630               17.26796090                1.00000000               -0.36228041               -0.39602153                1.38452359               -0.07245367               -0.68015717                0.71853805
               1.52841309                0.22270740               17.20546469                1.00000000               -0.29913148               -0.31580614                1.10903702               -0.05826966               -0.85460846                0.04499931
               2.52605327                0.15149090               17.13939969                1.00000000               -0.16046801               -0.23690045                0.81914536               -0.04077672               -0.79169562               -0.19853247
               3.52520373                0.08142256               17.07810702                0.62009081                0.31853905               -0.18487331                0.54252778                0.48713803                0.18881452               -0.54533528
               4.53242405                0.02361399               17.03164774                0.69787519                0.47005955               -0.07256507                0.24696151               -0.05223456                0.74404263                0.11323953
               5.53460492               -0.02541597               16.98154443                0.77933453                0.14660546                0.02016849               -0.06384280                0.00639071                0.35924275                0.06441630
               6.53535616               -0.07310676               16.92751600                0.76210418                0.04590160                0.10565929               -0.37206499                0.00971254                0.17456120               -0.04178134
               7.53552296               -0.12203947               16.87369769                0.85887904                0.05120583                0.20153478               -0.68942817                0.04535578               -0.04978207                0.04660549
               8.53638027               -0.17470433               16.81504317                1.00000000                0.18435720                0.30911633               -1.00020508                0.03229436               -0.42839105                0.40017479
               9.53921010               -0.22985343               16.75356417                1.00000000                0.35047682                0.37898254               -1.30220753               -0.04795499               -0.54677845                0.01456302
              10.54338981               -0.28524236               16.69261146                1.00000000                0.41797109                0.46028268               -1.58913841               -0.07192317               -0.52662631               -0.54657117
               0.60234026                1.28977609               17.24438736                1.00000000               -0.33871642               -0.37431612                1.25847140               -0.03225471               -0.08754425                0.97895763
               1.59895310                1.21954934               17.18148313                1.00000000               -0.30261701               -0.29308967                0.98241513               -0.01480876               -0.04935405                0.06634687
               2.59628792                1.14912189               17.11928893                0.80264390               -0.24697661               -0.21444859                0.70215749                0.02516380                0.17366565               -0.55060131
               3.59401357                1.07957382               17.06081222                0.12946080               -0.54834778               -0.17534734                0.42872675                0.68947045                1.60220684               -0.93608813
               4.58532097                1.02288834               17.02720370                0.28241989               -0.54921793                0.06688773                0.19752068               -0.02360730                2.28743845                0.88677391
               5.58302921                0.97478571               16.98281106                0.37101137               -0.07779664                0.08678847               -0.08325089                0.23375895                1.51346865                0.34380870
               6.58376503                0.92794983               16.93385832                0.26972938                0.18730443                0.02865237               -0.36793613                0.25524207                1.37464995               -0.37803759
               7.58677530                0.87997587               16.88688008                0.42560538                0.34225819                0.19914631               -0.64254246                0.34026550                1.33437973                0.57889485
               8.59061020                0.82838684               16.83747344                1.00000000                0.36121344                0.28809098               -0.91455959                0.14641468                0.68198012                0.56303519
               9.59399957                0.77393639               16.77772723                1.00000000                0.37246522                0.36561625               -1.19863434               -0.00025745                0.09906188                0.08331781
              10.59805950                0.71936047               16.71675559                1.00000000                0.40599371                0.43779415               -1.48486631               -0.02646132                0.03292932               -0.64776125
               0.67184430                2.28624998               17.22593258                1.00000000               -0.30731884               -0.33838326                1.14871329               -0.02455470                0.03233304                1.25492987
               1.66877111                2.21684561               17.15787076                1.00000000               -0.26561201               -0.25488182                0.85877134                0.00077072                0.14909546                0.04437152
               2.66653206                2.14720193               17.09211535                0.43699231               -0.17722084               -0.18197351                0.57458840                0.05537193                0.73304430               -1.19476158
               3.66522669                2.07791561               17.03571011                0.00010000               -1.48960236               -0.16374996                0.28481152                0.97813431                4.14254601               -1.71649549
               4.63674001                2.02495175               17.03813862                0.00010000               -1.55040408                0.20627130                0.19291212                1.90340198                4.45129645               -1.16209425
               5.63421861                1.97631980               16.98962601                0.00010000               -0.07345871               -0.02722713               -0.09036416                1.64595882                1.53148227               -0.46966930
               6.63527084                1.92746629               16.93348052                0.00010000                0.38363240               -0.15038405               -0.36248404                1.45587491                2.81280410                0.15479060
               7.64189126                1.88194345               16.91074435                0.00010000                0.50386061               -0.10082067               -0.59636413                1.01764460                3.18849573                0.60205031
               8.64534805                1.83105749               16.86325375                0.45891920                0.31700283                0.27956345               -0.81020796                0.25592989                1.32637346                1.08228754
               9.64823132                1.77745889               16.80336136                1.00000000                0.33321887                0.35229286               -1.08916807                0.04389450                0.48125082                0.47522693
              10.65201243                1.72351353               16.73898495                1.00000000                0.37811103                0.39711296               -1.39271035               -0.01274024                0.25393401               -0.65736163
               0.74065792                3.28300842               17.20777757                1.00000000               -0.26413491               -0.31396553                1.03737248               -0.01788917                0.03947000                1.24636883
               1.73801657                3.21445170               17.13339142                1.00000000               -0.21662784               -0.22354490                0.73213489                0.00437801                0.04678438               -0.03038124
               2.73632536                3.14548242               17.05910975                0.23743205               -0.10950668               -0.14063428                0.43079401                0.01899670                0.95432717               -1.42267109
               3.73582643                3.07629882               17.00284233                0.00010000               -0.56702703               -0.10493197                0.13634854                1.05442172                4.18455263               -2.18006639
               4.72498482                3.02701377               16.99300197                0.00010000               -1.11962939                0.13533918                0.01491372                2.71801849                6.02118827               -2.75128502
               5.71343384                2.97424117               16.97466602                0.00010000               -0.88629703               -0.00676278               -0.13049976                2.31048670                5.23321774               -1.21877689
               6.70725888                2.92494215               16.95018088                0.00010000               -0.49484316               -0.08069374               -0.30145238                2.02881684                4.82279566                0.54096243
               7.70353698                2.87795946               16.92449622                0.00010000               -0.35227602               -0.16028910               -0.47769702                1.50984307                4.59151722                0.57229397
               8.70021336                2.83397811               16.89611859                0.25287629               -0.05577798                0.27192793               -0.67344246                0.61038613                2.79546989                1.99706632
               9.70242142                2.78098225               16.83542137                1.00000000                0.27410356                0.32086568               -0.94526009                0.05576720                0.59242345                0.74709134
              10.70569543                2.72730273               16.76296835                1.00000000                0.32740061                0.37099220               -1.28707535               -0.02288108                0.00379322               -0.48639224
               0.80859996                4.27997067               17.18905446                1.00000000               -0.22152857               -0.28998152                0.91854694               -0.02107843                0.03862161                1.16843402
               1.80638467                4.21237471               17.10823452                0.98089749               -0.17675416               -0.18581469                0.59908614                0.00082288                0.03970003               -0.08377855
               2.80506487                4.14438924               17.02739128                0.13406936               -0.08004423               -0.08130979                0.28720800               -0.00726658                1.14609847               -1.26330329
               3.80478378                4.07581697               16.96869605                0.00010000               -0.59534184                0.18006526               -0.08808334                0.80880794                5.38555883               -1.32218657
               4.79315804                4.02765853               16.97242978                0.00010000               -1.11419106                0.14074284               -0.12850772                1.62973380                7.98271632               -1.09827580
               5.78249996                3.97618454               16.96709669                0.00010000               -1.05145753                0.22703912               -0.17144762                1.49099807                7.27050365               -0.58600125
               6.77212888                3.92585241               16.95806579                0.00010000               -0.97238984                0.18253549               -0.25464007                1.38614182                6.96085376                0.20254751
               7.76305217                3.87873767               16.94793201                0.00010000               -0.87979500                0.15371430               -0.36061329                1.34211601                6.96330490                1.10138570
               8.75453298                3.83649605               16.94025998                0.24114192               -0.35150646                0.19950991               -0.47816634                0.62644725                3.72762858                2.27904518
               9.75602204                3.78387621               16.86655380                1.00000000                0.21904304                0.25725299               -0.79349700                0.03339227                0.21461961                0.67778065
              10.75891385                3.73093337               16.78855796                1.00000000                0.28918078                0.35036600               -1.16218266               -0.02080926               -0.00083931               -0.39263086
               0.87542827                5.27720879               17.16926050                1.00000000               -0.18138162               -0.25629377                0.79122285               -0.02456955                0.10487106                1.05670058
               1.87361445                5.21073541               17.08266530                0.79026400               -0.13452513               -0.14028807                0.45303165               -0.00380539                0.18419620               -0.21970381
               2.87273777                5.14385623               16.99761697                0.08137143               -0.24405750               -0.02614530                0.12614074                0.16729664                2.29990028               -1.36859314
               3.86873330                5.07990013               16.95331710                0.00010000               -0.77629220                0.47222131               -0.47465779                0.60337231                6.95840925                0.03786760
               4.85721192                5.02982862               16.96075188                0.00010000               -1.18366886                0.29094917               -0.23632367                1.23096203                9.27299738               -0.42614894
               5.84505992                4.97878195               16.96494226                0.00010000               -1.23916683                0.31875239               -0.19487932                1.06447847                8.96937362               -0.16015561
               6.83242859                4.92859286               16.96828803                0.00010000               -1.26621318                0.32006457               -0.20313349                1.00029382                8.87142128                0.39766459
               7.81973566                4.88103375               16.97239590                0.00010000               -1.24124088                0.25027548               -0.23881445                1.03528640                8.94899397                1.12891226
               8.80760377                4.83796830               16.97900051                0.25010285               -0.55418563                0.10866487               -0.28589312                0.49764923                4.58566384                1.89358009
               9.80865195                4.78612731               16.89729276                0.89679448                0.17805724                0.20183660               -0.65721198                0.01606366                0.10881249                0.65775257
              10.81116491                4.73431005               16.81434229                1.00000000                0.25129635                0.32511358               -1.04267870               -0.02048417                0.04633004               -0.40335548
               0.94105533                6.27484479               17.14821325                1.00000000               -0.13942049               -0.21378737                0.65655615               -0.02563024                0.06922823                0.93919801
               1.93966113                6.20956895               17.05477518                0.66773806               -0.09046229               -0.09281431                0.30104827               -0.00508388                0.19623894               -0.39964963
               2.93924608                6.14386633               16.96383644                0.05764852               -0.43911453                0.02697626               -0.04160089                0.37540345                4.04195306               -1.70039801
               3.93087883                6.08526140               16.94729131                0.00010000               -1.01753164                0.48772091               -0.46797105                0.73991243                8.89612380                0.00227539
               4.91889545                6.03347751               16.95365680                0.00010000               -1.29267690                0.43039528               -0.29427207                0.99972301               10.22766634               -0.17118345
               5.90502530                5.98255959               16.96582713                0.00010000               -1.45062422                0.45113043               -0.19278939                0.86124276               10.50179290                0.05522907
               6.88988297                5.93225370               16.98000870                0.00010000               -1.53214227                0.42015565               -0.14240840                0.71811574               10.59800761                0.50153191
               7.87438245                5.88374318               16.99638282                0.00010000               -1.52452800                0.28460427               -0.11764337                0.69990780               10.74610659                1.08451989
               8.85939241                5.83866935               17.01560249                0.26663001               -0.71904430                0.03848121               -0.10865334                0.31622898                5.46168329                1.73819958
               9.86000157                5.78791294               16.92807950                0.82724525                0.13731370                0.15896704               -0.51773916                0.00444994                0.08287041                0.61518842
              10.86213868                5.73743564               16.83968235                1.00000000                0.21371158                0.29802351               -0.93962428               -0.01926808                0.04276993               -0.47095268
               1.00546736                7.27293304               17.12595766                1.00000000               -0.09761234               -0.16802173                0.51908545               -0.02507713                0.03127286                0.85325242
               2.00449123                7.20887912               17.02559553                0.60213558               -0.04569853               -0.04563616                0.14941828               -0.00473170                0.14586359               -0.48733998
               3.00455339                7.14439575               16.92748911                0.04934625               -0.52854307                0.07782203               -0.21381404                0.50851864                5.34113247               -1.89746853
               3.99392037                7.08965455               16.93102420                0.00010000               -1.23225992                0.44478195               -0.40903504                0.97076491               10.97519918               -0.69550908
               4.97990819                7.03843653               16.94678178                0.00010000               -1.52058904                0.57113270               -0.28694672                0.95683017               11.72480593               -0.21070217
               5.96350859                6.98780456               16.96758966                0.00010000               -1.71504390                0.61848478               -0.16921742                0.71318736               12.02639136                0.10953615
               6.94560731                6.93699597               16.99198970                0.00010000               -1.80952101                0.55096874               -0.07552296                0.44700292               12.24496545                0.50282222
               7.92731817                6.88672583               17.01980212                0.00010000               -1.79243597                0.33095334                0.00040550                0.30527143               12.47853533                1.01297365
               8.90975859                6.83873793               17.05129296                0.28862810               -0.86717582               -0.02214193                0.06314753                0.08918490                6.31700946                1.65052758
               9.90997465                6.78930665               16.95793276                0.79377803                0.09877753                0.11699609               -0.38035405               -0.00107280                0.05119140                0.53694219
              10.91173414                6.74027052               16.86402160                1.00000000                0.17594863                0.26666902               -0.82786276               -0.01803029                0.02884155               -0.54761268
               1.06866163                8.27148436               17.10308362                1.00000000               -0.05578488               -0.12267206                0.38190546               -0.02425686                0.01352140                0.81822868
               2.06810378                8.20865622               16.99595057                0.58675414               -0.00102993                0.00090964               -0.00075297               -0.00302114                0.06735633               -0.52003627
               3.06864103                8.14542278               16.88986566                0.04579885               -0.59252131                0.12622680               -0.38449574                0.62140109                6.44705748               -1.88890439
               4.05625336                8.09415703               16.91034060                0.00010000               -1.43794961                0.52070182               -0.41462157                1.11145765               13.05158853               -0.80244719
               5.03988204                8.04490017               16.93826667                0.00010000               -1.77618779                0.74726126               -0.27230285                0.89469529               13.42211566               -0.25612445
               6.02072960                7.99492929               16.96887812                0.00010000               -1.99901429                0.79411357               -0.13782795                0.55406914               13.59091961                0.08805423
               6.99990175                7.94327308               17.00316506                0.00010000               -2.09918376                0.73817309               -0.01041304                0.17606848               13.85366663                0.41188821
               7.97874592                7.89036225               17.04203190                0.00551202               -2.06532336                0.44648298                0.11130861               -0.17791914               14.20538561                0.84062145
               8.95859529                7.83822651               17.08611699                0.31622855               -1.01492037               -0.07540448                0.22881788               -0.20503771                7.19122359                1.50645925
               9.95844752                7.79025286               16.98703622                0.79969291                0.06275242                0.07106500               -0.24236314               -0.00704344                0.02391271                0.49617593
              10.95985034                7.74276902               16.88764886                1.00000000                0.14028180                0.23167349               -0.71656888               -0.01722630                0.01567949               -0.59636149
               1.13063849                9.27047960               17.08004033                1.00000000               -0.01460959               -0.08011011                0.24682229               -0.02342719               -0.00210728                0.68805336
               2.13049239                9.20889731               16.96612006                0.60860428                0.04210535                0.04683713               -0.14897402               -0.00106696                0.07871379               -0.45919800
               3.13148060                9.14692029               16.85379649                0.02641345               -0.69101306                0.17023218               -0.54452560                0.77949716                7.64429358               -1.33089505
               4.11667213                9.10006858               16.89122336                0.00010000               -1.72253770                0.81542556               -0.43381479                0.96328797               15.04254596               -0.47481687
               5.09702984                9.05338175               16.92954735                0.00010000               -2.02275344                0.89428338               -0.27420449                0.63216393               14.99163048               -0.16055616
               6.07621706                9.00368683               16.96921622                0.00010000               -2.16670626                0.90848696               -0.11606600                0.33187868               15.07825115                0.05027679
               7.05369572                8.95175944               17.01247452                0.00010000               -2.37053545                0.88257094                0.04294657               -0.00944350               15.38437923                0.23965811
               8.02880635                8.89565549               17.06149536                0.02021314               -2.39642468                0.76879590                0.20617048               -0.48918984               15.92366044                0.48746169
               9.00576722                8.83722984               17.11885067                0.34746388               -1.17575406               -0.10763838                0.37968193               -0.59209612                8.19046142                1.01143903
              10.00529127                8.79072795               17.01593809                0.84768433                0.02950318                0.02725665               -0.10792275               -0.01607285                0.07469631                0.42119465
              11.00635729                8.74490399               16.91081070                0.97639314                0.10660139                0.19516643               -0.60904098               -0.01728869               -0.02700505               -0.51605414
               1.19135766               10.26988216               17.05449786                1.00000000                0.02840943               -0.05974457                0.11204274                0.04299823                0.37614122                0.56556232
               2.19164176               10.20959297               16.93769912                0.83692091                0.08510225                0.06956515               -0.29100791                0.06219939                0.70307935               -0.38956091
               3.19305971               10.14882742               16.82743030                0.51603660               -1.12920536                0.19071301               -0.68083607                1.20154004                8.98072051               -0.85005326
               4.16905765               10.11046555               16.87623969                0.36238988               -2.20763190                1.03969628               -0.47729123                0.93647249               16.55426218               -0.19460546
               5.14890707               10.06278584               16.92170510                0.35504933               -2.00340778                0.94040805               -0.29993978                0.31939658               16.29118818               -0.05066562
               6.12898949               10.01309902               16.96848435                0.37506482               -2.05814219                0.94121917               -0.11266987                0.18417603               16.39414913                0.06512892
               7.10774423                9.96092450               17.01897787                0.42002507               -2.27488846                0.91650612                0.07734551                0.03680781               16.74790577                0.16911061
               8.08349172                9.90573816               17.07585448                0.51643147               -2.80316593                1.00826730                0.27441109               -0.77400069               17.44546443                0.31325562
               9.05168091                9.83607374               17.14364192                0.68918142               -1.65199074               -0.11560957                0.48628462               -1.15564037                9.37387364                0.62562346
              10.05045191                9.79079799               17.04338364                0.95676128               -0.02642119                0.00700419                0.01329081                0.04599402                0.61375479                0.35834586
              11.05115248                9.74667235               16.93583496                0.98725333                0.07005732                0.17683614               -0.50010069                0.06695544                0.26040508               -0.41193827
               0.58899622                0.32523780               18.28173450                1.00000000               -0.35825084               -0.39175498                1.37040045               -0.07152472               -0.70264940                0.74115285
               1.58541371                0.24778921               18.21650172                1.00000000               -0.29570559               -0.31305964                1.09863140               -0.05733450               -0.88410586                0.04794579
               2.58308211                0.17018272               18.14756346                1.00000000               -0.15889346               -0.23621687                0.81274102               -0.03828976               -0.82168513               -0.20406579
               3.58223584                0.09375301               18.08352605                0.61980972                0.31532555               -0.18569185                0.53762655                0.48633661                0.15458450               -0.56226063
               4.58938862                0.02951225               18.03411108                0.70111565                0.46382740               -0.06823417                0.24374964               -0.06083625                0.68793383                0.12587694
               5.59151239               -0.02590628               17.98090894                0.78391309                0.14466838                0.02213563               -0.06371018                0.00392772                0.30057511                0.07083406
               6.59228199               -0.07991063               17.92382734                0.76564271                0.05064841                0.10542130               -0.36580186                0.00921756                0.11486931               -0.04619764
               7.59252536               -0.13496864               17.86686514                0.86179974                0.05756398                0.19981466               -0.67729689                0.04162813               -0.11014821                0.05138125
               8.59343327               -0.19350625               17.80512360                1.00000000                0.18532066                0.30446985               -0.98384184                0.02847783               -0.48077174                0.41119975
               9.59623177               -0.25439756               17.74064065                1.00000000                0.34587427                0.37418311               -1.28250109               -0.04682530               -0.58678212                0.01288994
              10.60035075               -0.31553106               17.67683674                1.00000000                0.41189801                0.45488445               -1.56578004               -0.06957401               -0.55882593               -0.57803410
               0.66572956                1.32132025               18.25691161                1.00000000               -0.33616530               -0.36990983                1.24645151               -0.03179710               -0.09139504                1.00901081
               1.66236790                1.24465862               18.19126288                1.00000000               -0.30061228               -0.29040326                0.97419576               -0.01463930               -0.05487862                0.07022260
               2.65971731                1.16782056               18.12628842                0.80269930               -0.24667282               -0.21409783                0.69917329                0.02732135                0.17037604               -0.56243935
               3.65743445                1.09189610               18.06512950                0.13495075               -0.55537035               -0.17781580                0.43762125                0.69340548                1.61872278               -0.96844013
               4.64860990                1.02882991               18.02918400                0.29328582               -0.55856690                0.06243279                0.19780733               -0.05204813                2.30912239                0.91762847
               5.64626311                0.97431508               17.98197970                0.38465058               -0.08522803                0.08702976               -0.08367531                0.21436280                1.51343221                0.35501416
               6.64690534                0.92114358               17.93019555                0.28113535                0.17381691                0.03583241               -0.36522581                0.24456737                1.37976977               -0.38198121
               7.64973945                0.86702951               17.88049219                0.43546475                0.32635800                0.19618421               -0.63570301                0.31762039                1.34600447                0.58299177
               8.65343250                0.80953845               17.82837744                1.00000000                0.35182387                0.28462348               -0.90511264                0.13807552                0.68847649                0.58326977
               9.65677593                0.74934427               17.76580629                1.00000000                0.36780052                0.36172228               -1.18593228                0.00021556                0.09894235                0.08447768
              10.66078851                0.68901779               17.70199019                1.00000000                0.40125888                0.43441371               -1.46853938               -0.02474968                0.03212407               -0.68531802
               0.74168354                2.31783960               18.23736634                1.00000000               -0.30629202               -0.33397863                1.13803421               -0.02335334                0.03361620                1.29054503
               1.73862062                2.24198115               18.16642099                1.00000000               -0.26462402               -0.25252226                0.85272127                0.00255151                0.15233590                0.04740957
               2.73639106                2.16590077               18.09781954                0.45424301               -0.17630082               -0.18239011                0.56656901                0.05904587                0.73470318               -1.21906513
               3.73509460                2.09019670               18.03853452                0.00010000               -1.52311909               -0.17467663                0.28394346                0.98821483                4.22835731               -1.75768199
               4.70592868                2.03076090               18.04002691                0.00010000               -1.58043137                0.19375570                0.18182924                1.89284617                4.58408195               -1.18872952
               5.70348597                1.97583432               17.98869564                0.00010000               -0.07348854               -0.04224164               -0.09756627                1.62873817                1.57534180               -0.46602010
               6.70445891                1.92080602               17.92985403                0.00010000                0.34984606               -0.15523371               -0.36325413                1.42239905                2.88004087                0.17963868
               7.71048290                1.86895504               17.90478479                0.00010000                0.47105520               -0.10642964               -0.59642963                0.99052957                3.28134850                0.64485113
               8.71388001                1.81218622               17.85516598                0.46578314                0.31369266                0.27665592               -0.80819022                0.24349697                1.39461071                1.12852023
               9.71675675                1.75283689               17.79250050                1.00000000                0.33143629                0.34899606               -1.08372233                0.04179355                0.50529872                0.49627286
              10.72050874                1.69315722               17.72510571                1.00000000                0.37519864                0.39825215               -1.38366291               -0.01178498                0.26627651               -0.69405632
               0.81697939                3.31464067               18.21809984                1.00000000               -0.26216268               -0.31007824                1.02732778               -0.01589947                0.04285518                1.27551190
               1.81435777                3.23960817               18.14068204                1.00000000               -0.21483570               -0.22205880                0.72655878                0.00741349                0.05213580               -0.03212445
               2.81268268                3.16417275               18.06341361                0.25093229               -0.10095795               -0.14221082                0.42980154                0.01615308                0.96360216               -1.45275047
               3.81233861                3.08840256               18.00421113                0.00010000               -0.59267347               -0.11431381                0.13663304                1.05510215                4.25345779               -2.23176130
               4.80082921                3.03270502               17.99319270                0.00010000               -1.17729227                0.11898618                0.01820117                2.72632596                6.18552130               -2.84427020
               5.78879276                2.97347024               17.97336298                0.00010000               -0.92983070               -0.02533785               -0.13283129                2.29598802                5.39388970               -1.22590101
               6.78223260                2.91803891               17.94716476                0.00010000               -0.53114653               -0.10010919               -0.30310903                2.00200109                4.97882854                0.59261605
               7.77816983                2.86490091               17.91971658                0.00010000               -0.39059991               -0.16717221               -0.47933785                1.49668533                4.73958744                0.65418286
               8.77442060                2.81507157               17.88936628                0.25263766               -0.07645146                0.26384674               -0.67827977                0.59386257                2.90271530                2.08862134
               9.77664080                2.75632420               17.82596608                1.00000000                0.27457809                0.31728458               -0.94695719                0.05119866                0.62898358                0.78977186
              10.77991216                2.69698283               17.75011154                1.00000000                0.32713574                0.37542051               -1.28548993               -0.02153550                0.00669611               -0.50279862
               0.89143055                4.31163804               18.19818585                1.00000000               -0.21937444               -0.28627050                0.90802238               -0.01980916                0.04541045                1.18857244
               1.88923681                4.23753997               18.11420939                0.96845825               -0.17554122               -0.18504057                0.59563493                0.00234637                0.05055574               -0.09600106
               2.88791973                4.16305655               18.03029291                0.14232403               -0.07862159               -0.08350988                0.29212084               -0.00976066                1.12858932               -1.30474403
               3.88766438                4.08791042               17.96787159                0.00010000               -0.62661073                0.15716575               -0.06527027                0.80679016                5.47562599               -1.48247272
               4.87538751                4.03314063               17.97119833                0.00010000               -1.17962635                0.12746411               -0.12072927                1.62181854                8.25584324               -1.16213303
               5.86407185                3.97532756               17.96538773                0.00010000               -1.11596284                0.22368891               -0.17216826                1.48288203                7.53962600               -0.58918468
               6.85306826                3.91880383               17.95551549                0.00010000               -1.03439563                0.17640859               -0.25664933                1.36649552                7.21296194                0.24963112
               7.84338394                3.86561160               17.94430914                0.00010000               -0.93671396                0.14996055               -0.36518356                1.31389302                7.20642159                1.18451694
               8.83433398                3.81746316               17.93542930                0.23907694               -0.37572378                0.18901166               -0.48890071                0.60676260                3.87664950                2.39767288
               9.83586946                3.75918258               17.85862524                0.99006147                0.22133894                0.25461931               -0.79974609                0.03022801                0.24447759                0.71869958
              10.83876076                3.70066563               17.77698434                1.00000000                0.28912952                0.35447181               -1.16037634               -0.01950516                0.00533692               -0.39887384
               0.96477934                5.30891526               18.17711745                1.00000000               -0.17931580               -0.25183355                0.78028180               -0.02400018                0.10810773                1.06821844
               1.96298618                5.23590736               18.08717074                0.78138082               -0.13311596               -0.13961362                0.44824001               -0.00284693                0.19306684               -0.24192866
               2.96211702                5.16250256               17.99888058                0.08862522               -0.22979220               -0.02848957                0.12725662                0.14525560                2.18172567               -1.42301515
               3.95839033                5.09154588               17.94869611                0.00010000               -0.81342865                0.44823521               -0.43108664                0.59436372                7.10032785               -0.04843039
               4.94584844                5.03525430               17.95838440                0.00010000               -1.28015674                0.29452621               -0.23779597                1.24006162                9.75082290               -0.45385248
               5.93278720                4.97794402               17.96298543                0.00010000               -1.32849894                0.32884184               -0.19695966                1.05187432                9.34385316               -0.14484048
               6.91927847                4.92156708               17.96624423                0.00010000               -1.34994169                0.32860266               -0.20664831                0.97301114                9.21876453                0.44940716
               7.90578837                4.86790012               17.96997816                0.00010000               -1.31467982                0.25337165               -0.24597416                0.99977180                9.28699783                1.21308194
               8.89298487                4.81885180               17.97607839                0.24760496               -0.58727364                0.10313665               -0.29990775                0.47239897                4.77004278                2.00517352
               9.89404289                4.76141658               17.89072774                0.87950869                0.17855477                0.20266369               -0.66123480                0.01238028                0.12762949                0.69199853
              10.89655596                4.70407227               17.80394283                1.00000000                0.25130712                0.32910461               -1.04630913               -0.01879700                0.05874594               -0.42260207
               1.03696636                6.30660136               18.15472303                1.00000000               -0.13737782               -0.20874053                0.64538992               -0.02487608                0.06972691                0.94491613
               2.03559258                6.23474770               18.05776235                0.66127304               -0.08900168               -0.09231390                0.29652942               -0.00347511                0.20319361               -0.42344012
               3.03518632                6.16248676               17.96342912                0.06388845               -0.43963375                0.02368400               -0.03964482                0.35538681                3.99693012               -1.75729117
               4.02679990                6.09687513               17.94232887                0.00010000               -1.06978606                0.50210144               -0.51466828                0.70671166                9.13702212                0.10867454
               5.01379060                6.03903115               17.95065223                0.00010000               -1.40016710                0.45195281               -0.30406819                1.00266362               10.75205552               -0.14330155
               5.99879656                5.98190440               17.96387117                0.00010000               -1.56091125                0.47682443               -0.19849066                0.83876980               10.96272107                0.09196840
               6.98257238                5.92537588               17.97856039                0.00010000               -1.63509572                0.44116100               -0.14810146                0.67787849               11.02998648                0.55852305
               7.96609465                5.87067903               17.99516374                0.00010000               -1.61534389                0.29575463               -0.12740773                0.64948436               11.16845265                1.16507587
               8.95026550                5.81952589               18.01444282                0.26418580               -0.75990216                0.03783767               -0.12481655                0.28361442                5.68015215                1.83951737
               9.95089660                5.76323585               17.92282765                0.81179094                0.14039748                0.16384998               -0.53403090                0.00210935                0.08851521                0.65177814
              10.95307345                5.70724772               17.83021469                1.00000000                0.21768448                0.30514375               -0.95505670               -0.01773094                0.04310645               -0.49273003
               1.10798914                7.30474045               18.13109575                1.00000000               -0.09578628               -0.16334851                0.50846979               -0.02427217                0.03115349                0.85742046
               2.10703128                7.23406108               18.02707548                0.59719759               -0.04459079               -0.04542794                0.14638194               -0.00300474                0.14908654               -0.50919426
               3.10709733                7.16297624               17.92537633                0.05402515               -0.55255526                0.07354714               -0.20931306                0.50845694                5.41578996               -1.95346298
               4.09598018                7.10158791               17.92668456                0.00010000               -1.31124403                0.47850696               -0.45808023                0.95499082               11.31853497               -0.57767704
               5.08087245                7.04429336               17.94381147                0.00010000               -1.63811561                0.60898948               -0.30598411                0.95107302               12.25066827               -0.14504935
               6.06321786                6.98748051               17.96585583                0.00010000               -1.84055246                0.65902971               -0.17764234                0.68241895               12.54184580                0.15931335
               7.04406140                6.93039030               17.99119885                0.00010000               -1.92949081                0.58500410               -0.08354129                0.39279089               12.74878460                0.55920328
               8.02462805                6.87381522               18.01974933                0.00010000               -1.89805312                0.35075686               -0.01223331                0.23756429               12.97850238                1.08614597
               9.00610034                6.81960856               18.05182366                0.28632844               -0.91323977               -0.01944332                0.04177752                0.04933315                6.57147807                1.74548885
              10.00636325                6.76469358               17.95402681                0.77922271                0.10386407                0.12358601               -0.40152903               -0.00181533                0.05372704                0.57555297
              11.00817762                6.71017514               17.85564084                1.00000000                0.18143651                0.27640281               -0.84897902               -0.01700634                0.03030447               -0.56204353
               1.17783966                8.30333439               18.10685527                1.00000000               -0.05429535               -0.11891397                0.37230495               -0.02355495                0.01310337                0.82357596
               2.17729670                8.23383914               17.99593928                0.58284891               -0.00055088                0.00088563               -0.00194069               -0.00172432                0.06665835               -0.53956151
               3.17782864                8.16395770               17.88606292                0.04852302               -0.63570529                0.12183332               -0.37703228                0.64279293                6.61164244               -1.93714181
               4.16458260                8.10644527               17.90605586                0.00010000               -1.54545899                0.55934938               -0.44336230                1.12873758               13.50033789               -0.72167796
               5.14691946                8.05121094               17.93546917                0.00010000               -1.91172970                0.79959600               -0.28745531                0.89505372               13.97805105               -0.19509224
               6.12634800                7.99508499               17.96745624                0.00010000               -2.14129851                0.84840065               -0.14712827                0.52289924               14.15162385                0.13372231
               7.10409349                7.93707597               18.00301631                0.00010000               -2.23601643                0.78806006               -0.02039432                0.11521191               14.42086486                0.45765007
               8.08162767                7.87769417               18.04307244                0.00589861               -2.18598453                0.47798505                0.09542750               -0.26391091               14.78060717                0.89952319
               9.06037380                7.81913702               18.08827981                0.31394998               -1.06669805               -0.06990689                0.20237167               -0.25681374                7.48549044                1.59123202
              10.06029371                7.76570757               17.98448726                0.78444870                0.06982029                0.07848684               -0.26826300               -0.00809550                0.02582163                0.53295154
              11.06177020                7.71277578               17.88035452                1.00000000                0.14764907                0.24204460               -0.74265869               -0.01599173                0.01646971               -0.61295687
               1.24650855                9.30236217               18.08246747                1.00000000               -0.01350646               -0.07722466                0.23840731               -0.02289776               -0.00330875                0.69475749
               2.24637349                9.23407880               17.96463791                0.60475825                0.04192561                0.04647684               -0.14814082               -0.00035455                0.07804794               -0.47424060
               3.24734706                9.16541290               17.84841076                0.02641182               -0.75358987                0.16624210               -0.53395821                0.82505280                7.88997839               -1.36113810
               4.23130169                9.11277489               17.88684462                0.00010000               -1.86066327                0.87086891               -0.44302115                0.99794070               15.58415383               -0.41840817
               5.21013380                9.06028528               17.92676617                0.00010000               -2.17454325                0.95519383               -0.28292281                0.63872038               15.58325607               -0.12613896
               6.18781082                9.00444852               17.96801737                0.00010000               -2.31886706                0.97142790               -0.12469858                0.31147110               15.68767605                0.07624781
               7.16375646                8.94615150               18.01285180                0.00010000               -2.52610260                0.94562657                0.03126581               -0.05670600               16.01195163                0.26461547
               8.13728877                8.88337492               18.06346964                0.02121768               -2.54028999                0.82747649                0.18727527               -0.56957457               16.57283421                0.52134924
               9.11295066                8.81821042               18.12249637                0.34492113               -1.23630904               -0.09823736                0.34782398               -0.65985684                8.53052984                1.06702220
              10.11256259                8.76626332               18.01470698                0.82932085                0.03853627                0.03642810               -0.13931889               -0.01790022                0.08124837                0.44926773
              11.11372138                8.71501603               17.90456320                0.97768183                0.11587908                0.20597184               -0.64075929               -0.01601435               -0.02697112               -0.53427648
               1.31394846               10.30178990               18.05558455                1.00000000                0.02904252               -0.05722734                0.10492796                0.04186860                0.37963202                0.57263191
               2.31423888               10.23476868               17.93480682                0.83545638                0.08425685                0.06898826               -0.28837625                0.06117206                0.71356655               -0.40107672
               3.31563360               10.16728254               17.82069104                0.51547712               -1.22849252                0.18696427               -0.66858228                1.28335163                9.28962966               -0.86786491
               4.28966903               10.12386264               17.87147370                0.36295725               -2.38066792                1.10877490               -0.47704050                0.98834823               17.17678578               -0.16213816
               5.26802024               10.07031482               17.91868336                0.35527025               -2.14789140                1.00295388               -0.30554743                0.32118928               16.93166275               -0.03653158
               6.24671121               10.01451355               17.96732141                0.37490046               -2.19936316                1.00650239               -0.12111852                0.17372226               17.06028503                0.07510628
               7.22403297                9.95598850               18.01969033                0.41951898               -2.42669713                0.98369991                0.06382273                0.01415950               17.43398886                0.17884351
               8.19817726                9.89424370               18.07849383                0.51729550               -2.98723568                1.08687816                0.25214583               -0.85196184               18.15482880                0.32819923
               9.16428826                9.81717228               18.14832247                0.68817266               -1.75235841               -0.10381419                0.44822737               -1.25661764                9.76650897                0.65975316
              10.16313009                9.76643614               18.04333214                0.94627109               -0.01718862                0.01728179               -0.02460824                0.04289723                0.64804615                0.38006899
              11.16394449                9.71689521               17.93064164                0.98713900                0.08143936                0.18791789               -0.53870554                0.06821829                0.27455928               -0.42971628
               0.64844847                0.35820515               19.29536891                1.00000000               -0.35464463               -0.38806824                1.35707887               -0.06998006               -0.72570557                0.76399536
               1.64490202                0.27414400               19.22743732                1.00000000               -0.29266153               -0.31094800                1.08938394               -0.05460631               -0.91562988                0.05085140
               2.64259524                0.18995965               19.15565451                1.00000000               -0.15771109               -0.23426237                0.80535823               -0.03531981               -0.85818766               -0.21125651
               3.64174780                0.10697044               19.08885955                0.61959810                0.31022965               -0.17738860                0.52994263                0.47576539                0.11377128               -0.57588111
               4.64879983                0.03598568               19.03652273                0.70414785                0.45761826               -0.06605942                0.23914201               -0.07022333                0.63575762                0.13542817
               5.65090017               -0.02614080               18.98027022                0.78776615                0.14487545                0.02400956               -0.06354263                0.00097213                0.24630201                0.07695478
               6.65169734               -0.08676715               18.92019996                0.76849466                0.05617818                0.10506603               -0.35945467                0.00880234                0.05890516               -0.05038442
               7.65202373               -0.14826594               18.86015175                0.86423781                0.06459977                0.19820045               -0.66543984                0.03793416               -0.16861993                0.05670509
               8.65298934               -0.21298801               18.79536633                1.00000000                0.18687908                0.29978564               -0.96770386                0.02457988               -0.53291600                0.42215939
               9.65576131               -0.27992693               18.72791414                1.00000000                0.34158824                0.36930135               -1.26284687               -0.04566143               -0.62701993                0.01121853
              10.65982110               -0.34710993               18.66129586                1.00000000                0.40597893                0.44950789               -1.54250444               -0.06699222               -0.59113601               -0.60942244
               0.73180982                1.35432447               19.26931639                1.00000000               -0.33311063               -0.36662499                1.23464961               -0.03105220               -0.09452367                1.03873204
               1.72847871                1.27103452               19.20096704                1.00000000               -0.29904975               -0.28846801                0.96667747               -0.01224180               -0.05856873                0.07470719
               2.72582882                1.18761702               19.13327239                0.78779224               -0.24931351               -0.21321056                0.69969922                0.03396955                0.17443297               -0.58174866
               3.72349244                1.10519655               19.06956465                0.14098878               -0.55878019               -0.16450489                0.44535555                0.67733653                1.63668698               -1.01589212
               4.71465322                1.03532508               19.03115985                0.30437283               -0.56030697                0.05913913                0.19422360               -0.08182831                2.31900657                0.93724510
               5.71228630                0.97409929               18.98113756                0.39790133               -0.09026417                0.08784568               -0.08586869                0.19782905                1.50899574                0.36220315
               6.71284794                0.91428351               18.92655380                0.29212568                0.16136005                0.04285032               -0.36385338                0.23509668                1.38349837               -0.38536424
               7.71551350                0.85371606               18.87416602                0.44492775                0.31088457                0.19410129               -0.63016585                0.29544422                1.35659078                0.58687902
               8.71906563                0.79000984               18.81937119                1.00000000                0.34260781                0.28135343               -0.89656025                0.12926211                0.69398839                0.60318706
               9.72236566                0.72376609               18.75400859                1.00000000                0.36342808                0.35757444               -1.17401547                0.00057782                0.09833652                0.08555679
              10.72633419                0.65738514               18.68738480                1.00000000                0.39685291                0.43104942               -1.45298219               -0.02277181                0.03105460               -0.72279429
               0.81440732                2.35087265               19.24869326                1.00000000               -0.30426871               -0.33126600                1.12693882               -0.02276062                0.03748933                1.32491686
               1.81136463                2.26837464               19.17492518                1.00000000               -0.26473593               -0.25068536                0.84718002                0.00447933                0.15592896                0.04944428
               2.80911260                2.18569544               19.10344673                0.45519566               -0.18890783               -0.18314919                0.56715002                0.07725931                0.74264898               -1.24972589
               3.80758647                2.10368034               19.04138898                0.00010000               -1.54260374               -0.14350149                0.30831846                0.95485397                4.32916799               -1.83973976
               4.77826052                2.03716846               19.04177521                0.00010000               -1.58440767                0.18159297                0.16084395                1.84129731                4.70579124               -1.21900814
               5.77589832                1.97561611               18.98767469                0.00010000               -0.07390084               -0.05341124               -0.10688532                1.59873384                1.61622492               -0.46420971
               6.77678251                1.91408986               18.92621543                0.00010000                0.31539798               -0.15752457               -0.36556388                1.38169403                2.94179570                0.20634015
               7.78220628                1.85561608               18.89881576                0.00010000                0.43710225               -0.10986452               -0.59825474                0.95814544                3.36989984                0.68892040
               8.78552455                1.79263906               18.84708994                0.47249139                0.30956443                0.27386854               -0.80778338                0.22805116                1.46155313                1.17440318
               9.78839757                1.72722456               18.78168691                1.00000000                0.33014999                0.34434336               -1.07966352                0.03810867                0.52883384                0.51716612
              10.79212755                1.66151105               18.71131169                1.00000000                0.37299835                0.39914887               -1.37580472               -0.01113862                0.27825133               -0.73105786
               0.89635062                3.34769915               19.22832413                1.00000000               -0.26051114               -0.30740688                1.01686094               -0.01514490                0.04722733                1.30234924
               1.89374551                3.26602081               19.14792260                1.00000000               -0.21411565               -0.22043295                0.72185619                0.00894939                0.05887621               -0.03594160
               2.89206831                3.18395404               19.06770578                0.25872102               -0.13145065               -0.14340211                0.42810278                0.05837842                0.97179438               -1.48044790
               3.89111650                3.10232652               19.00557499                0.00010000               -0.62624580               -0.09989004                0.14158101                1.04036592                4.32579677               -2.29693544
               4.87954339                3.03895694               18.99336600                0.00010000               -1.18884579                0.10278576                0.00948394                2.66013949                6.35222532               -2.93211286
               5.86733958                2.97303107               18.97200939                0.00010000               -0.95307740               -0.04188540               -0.13923282                2.26265400                5.55344714               -1.22738790
               6.86048185                2.91113302               18.94411870                0.00010000               -0.56061857               -0.11621462               -0.30683867                1.95859520                5.13225260                0.64746203
               7.85612721                2.85151877               18.91490946                0.00010000               -0.42318380               -0.17248229               -0.48313171                1.47073506                4.88184100                0.73951734
               8.85201817                2.79548722               18.88255299                0.25236292               -0.09356876                0.25491679               -0.68529852                0.56797553                3.00596120                2.18103114
               9.85425584                2.73065296               18.81648223                1.00000000                0.27601324                0.31319847               -0.95118561                0.04199433                0.66463452                0.83124273
              10.85753843                2.66536812               18.73725855                1.00000000                0.32825987                0.38067752               -1.28632457               -0.01974243                0.00859800               -0.51931651
               0.97746109                4.34472451               19.20721491                1.00000000               -0.21723608               -0.28315820                0.89741869               -0.01919269                0.05367708                1.20578042
               1.97528872                4.26396598               19.12014722                0.95572543               -0.17433134               -0.18384666                0.59152952                0.00350147                0.06362696               -0.10981987
               2.97397446                4.18282739               19.03323370                0.14817936               -0.09489171               -0.08471615                0.29526889                0.02475824                1.12509277               -1.34607231
               3.97339089                4.10168254               18.96739065                0.00010000               -0.66078459                0.10738587               -0.02789357                0.82581612                5.57159520               -1.63935698
               4.96075877                4.03922417               18.97001519                0.00010000               -1.22077833                0.11703656               -0.11952067                1.57457659                8.51610083               -1.23164256
               5.94897532                3.97477840               18.96365332                0.00010000               -1.16460289                0.21853158               -0.17492881                1.46394819                7.80424762               -0.58692009
               6.93746671                3.91176556               18.95293280                0.00010000               -1.08542700                0.17015414               -0.26076909                1.33586662                7.46056511                0.30125676
               7.92726678                3.85216644               18.94062834                0.00010000               -0.98584153                0.14610049               -0.37199334                1.27430355                7.44212550                1.27120900
               8.91774988                3.79773739               18.93048197                0.23702197               -0.39551178                0.17855215               -0.50207373                0.57794825                4.01965624                2.51940911
               9.91935655                3.73348853               18.85055888                0.97073551                0.22762457                0.25559569               -0.81909627                0.02357423                0.27427224                0.76584986
              10.92230237                3.66912460               18.76535044                1.00000000                0.29458216                0.36297693               -1.17417883               -0.01783125                0.01600069               -0.40575768
               1.05748383                5.34203598               19.18486614                1.00000000               -0.17711703               -0.24798481                0.76912228               -0.02370272                0.11128451                1.07732089
               2.05571266                5.26234388               19.09163010                0.77287746               -0.13184559               -0.13852846                0.44367887               -0.00230412                0.20204718               -0.26570587
               3.05484692                5.18225972               19.00016210                0.09524083               -0.22383090               -0.03013167                0.12944888                0.13870305                2.09082197               -1.47896609
               4.05123604                5.10447424               18.94469537                0.00010000               -0.84539280                0.38819461               -0.37560826                0.60216172                7.25655847               -0.18917668
               5.03793906                5.04129767               18.95599596                0.00010000               -1.35794416                0.29801157               -0.23710974                1.22814808               10.19875504               -0.48664304
               6.02407716                4.97740170               18.96100307                0.00010000               -1.40639579                0.33750773               -0.19947096                1.03173310                9.71380420               -0.12646747
               7.00981114                4.91453610               18.96415506                0.00010000               -1.42178522                0.33519891               -0.21186181                0.93812457                9.55965073                0.50539675
               7.99564145                4.85444078               18.96747641                0.00010000               -1.37780532                0.25535431               -0.25557931                0.95622250                9.61659379                1.30138972
               8.98225504                4.79905826               18.97300235                0.24516866               -0.61506721                0.09885178               -0.31668649                0.44528790                4.95181027                2.12157447
               9.98334011                4.73576487               18.88406806                0.86218097                0.18273134                0.20804482               -0.67849085                0.01064254                0.14733652                0.73397628
              10.98590966                4.67262766               18.79341611                1.00000000                0.25695570                0.33792114               -1.06747872               -0.01750320                0.06809053               -0.44117889
               1.13637124                6.33976481               19.16112105                1.00000000               -0.13523275               -0.20433847                0.63404977               -0.02458319                0.07008253                0.94909946
               2.13501891                6.26119541               19.06070577                0.65508904               -0.08765375               -0.09127890                0.29208548               -0.00301646                0.20993391               -0.44743189
               3.13461816                6.18222476               18.96304354                0.06974781               -0.43113694                0.02164883               -0.03748957                0.33321013                3.92874990               -1.81307717
               4.12639617                6.10944643               18.93699794                0.00010000               -1.11119465                0.49498884               -0.54334685                0.67897659                9.36167231                0.16113098
               5.11239427                6.04518441               18.94757544                0.00010000               -1.50123057                0.47104631               -0.30972536                0.99466780               11.28465802               -0.12003592
               6.09637156                5.98152856               18.96185731                0.00010000               -1.66020735                0.50020306               -0.20381147                0.80830549               11.41831193                0.13041615
               7.07919012                5.91846954               18.97704667                0.00010000               -1.72512406                0.45940071               -0.15530761                0.63116576               11.45487241                0.61898860
               8.06186908                5.85727352               18.99383466                0.00010000               -1.69292860                0.30496370               -0.13963120                0.59334207               11.58226484                1.24959360
               9.04533155                5.79971443               19.01310616                0.26184825               -0.79345398                0.03762256               -0.14462388                0.25157694                5.89433216                1.94511650
              10.04600000                5.73764943               18.91739888                0.79627759                0.14475872                0.16966158               -0.55313858                0.00302549                0.09479790                0.69009863
              11.04822672                5.67588303               18.82058121                1.00000000                0.22267259                0.31310784               -0.97286021               -0.01651454                0.04485923               -0.51181341
               1.21413097                7.33794921               19.13612705                1.00000000               -0.09385866               -0.15903300                0.49759377               -0.02386903                0.03102001                0.86081125
               2.21319238                7.26051830               19.02852317                0.59251667               -0.04354351               -0.04464240                0.14297785               -0.00230638                0.15219370               -0.53051764
               3.21326010                7.18269269               18.92330285                0.05853283               -0.56682285                0.07103763               -0.20569130                0.49974270                5.46045435               -2.00731607
               4.20185593                7.11437402               18.92186259                0.00010000               -1.37549052                0.50584925               -0.50284703                0.92417993               11.64191605               -0.45387937
               5.18575029                7.05071860               18.94066210                0.00010000               -1.74488980                0.64296117               -0.32183353                0.93400840               12.78715776               -0.08104948
               6.16695813                6.98740576               18.96403682                0.00010000               -1.95303971                0.69568144               -0.18595895                0.64244478               13.05465125                0.21071746
               7.14668950                6.92372412               18.99031887                0.00010000               -2.03473618                0.61517921               -0.09319997                0.33235089               13.24496384                0.61830697
               8.12626341                6.86054005               19.01955745                0.00010000               -1.98894122                0.36794379               -0.02747323                0.16560433               13.46882867                1.16251534
               9.10691067                6.79981071               19.05212851                0.28415141               -0.95156939               -0.01679914                0.01777326                0.00883901                6.82146982                1.84289121
              10.10723202                6.73915810               18.94990218                0.76458718                0.11007534                0.12911473               -0.42428471               -0.00158236                0.05653956                0.61692794
              11.10911218                6.67888982               18.84704202                1.00000000                0.18801588                0.28522475               -0.87120511               -0.01590464                0.03177157               -0.57406914
               1.29075568                8.33658415               19.11052972                1.00000000               -0.05263762               -0.11518717                0.36232385               -0.02313524                0.01275029                0.82846219
               2.29022930                8.26030256               18.99591176                0.57927262                0.00008121                0.00133335               -0.00394329               -0.00104782                0.06606954               -0.55826162
               3.29075730                8.18364551               18.88232502                0.05123551               -0.66877189                0.11883582               -0.37124222                0.65371008                6.75403203               -1.98285956
               4.27685386                8.11956342               18.90147336                0.00010000               -1.63573052                0.59542821               -0.47186445                1.12709935               13.92897259               -0.62117177
               5.25804269                8.05804363               18.93251756                0.00010000               -2.03194625                0.84630926               -0.30210581                0.88253484               14.53515969               -0.12863888
               6.23621494                7.99544219               18.96593556                0.00010000               -2.26699223                0.89704240               -0.15715805                0.48281576               14.70728630                0.18123487
               7.21270285                7.93077313               19.00275717                0.00010000               -2.35601841                0.83268065               -0.03235912                0.04915964               14.97936367                0.50541896
               8.18909457                7.86463240               19.04394045                0.00643223               -2.29062813                0.50605154                0.07678313               -0.35198058               15.34477494                0.96100346
               9.16689028                7.79937845               19.09016442                0.31175884               -1.11026636               -0.06415409                0.17301206               -0.30854299                7.77467021                1.67787778
              10.16688924                7.74023172               18.98167096                0.76909162                0.07774568                0.08551577               -0.29586085               -0.00867673                0.02822815                0.57163203
              11.16844520                7.68158752               18.87279569                1.00000000                0.15559548                0.25207603               -0.76930644               -0.01475805                0.01735162               -0.62753118
               1.36623145                9.33564547               19.08480847                1.00000000               -0.01213774               -0.07417630                0.22943414               -0.02254490               -0.00435553                0.70112163
               2.36611007                9.26054497               18.96315725                0.60132645                0.04210014                0.04655228               -0.14857663                0.00006222                0.07771891               -0.48850697
               3.36707345                9.18506941               18.84311732                0.02656765               -0.80551361                0.16320211               -0.52569440                0.85828627                8.12170553               -1.38954391
               4.34999980                9.12628258               18.88236294                0.00010000               -1.97756170                0.92006011               -0.45321791                1.01612756               16.10732656               -0.34800741
               5.32752222                9.06764478               18.92388889                0.00010000               -2.30574240                1.00885905               -0.29265842                0.63569761               16.16667049               -0.08736486
               6.30388495                9.00534661               18.96672225                0.00010000               -2.45198694                1.02754367               -0.13494228                0.28531185               16.28822079                0.10359929
               7.27848248                8.94037773               19.01309983                0.00010000               -2.66332368                1.00255949                0.01724864               -0.10683925               16.62896784                0.29060872
               8.25061847                8.87066109               19.06524087                0.02244734               -2.66709953                0.88106862                0.16561268               -0.64942538               17.20905326                0.55717853
               9.22514049                8.79852763               19.12580715                0.34239974               -1.28845339               -0.08809201                0.31259769               -0.72550884                8.86436345                1.12399126
              10.22484941                8.74086842               19.01315171                0.81073143                0.04824667                0.04586589               -0.17272742               -0.01959369                0.08843253                0.47836920
              11.22610542                8.68393134               18.89799552                0.97885386                0.12560119                0.21668094               -0.67288259               -0.01473419               -0.02669424               -0.55166302
               1.44050578               10.33510063               19.05659642                1.00000000                0.03008255               -0.05448405                0.09692810                0.04073131                0.38321122                0.57945459
               2.44080660               10.26123361               18.93193160                0.83420196                0.08398178                0.06886408               -0.28745587                0.06009980                0.72403960               -0.41198741
               3.44218541               10.18690955               18.81405865                0.51503253               -1.31027826                0.18401453               -0.65900853                1.34774693                9.58796756               -0.88470599
               4.41460104               10.13796462               18.86669888                0.36348699               -2.52464007                1.16820380               -0.47848113                1.02568695               17.78163455               -0.12144416
               5.39169261               10.07822081               18.91559415                0.35548353               -2.27064046                1.05760261               -0.31286685                0.31846186               17.55893846               -0.02035614
               6.36918823               10.01599306               18.96606198                0.37473073               -2.32205141                1.06464509               -0.13164827                0.16050334               17.71437176                0.08537991
               7.34525158                9.95082432               19.02025432                0.41897980               -2.56160339                1.04465871                0.04780687               -0.01005367               18.10677834                0.18856950
               8.31795616                9.88225377               19.08089740                0.51831146               -3.15394045                1.15926856                0.22737786               -0.92661684               18.84793032                0.34368220
               9.28217278                9.79761661               19.15260647                0.68716990               -1.84312523               -0.09110223                0.40691881               -1.35200751               10.15152224                0.69501950
              10.28109366                9.74114904               19.04289147                0.93563106               -0.00740535                0.02806255               -0.06444435                0.03965179                0.68288505                0.40236478
              11.28202467                9.68592114               18.92506085                0.98704884                0.09310112                0.19898030               -0.57735896                0.06913488                0.28887657               -0.44737446
               0.71034528                0.39262274               20.30887608                1.00000000               -0.35297753               -0.38522047                1.34568336               -0.06834630               -0.74826416                0.78582322
               1.70681551                0.30174679               20.23828940                1.00000000               -0.29245811               -0.30818926                1.08172848               -0.05254390               -0.94871308                0.05296892
               2.70449612                0.21072183               20.16367062                1.00000000               -0.15862306               -0.23284620                0.80055257               -0.03485530               -0.89863839               -0.21204117
               3.70364305                0.12082520               20.09412490                0.62022301                0.30984889               -0.17763693                0.53059694                0.47500655                0.06973006               -0.58604058
               4.71069310                0.04294659               20.03889392                0.70695176                0.45590762               -0.06242515                0.23584295               -0.07394916                0.58673675                0.14210887
               5.71276120               -0.02610185               19.97963809                0.79103575                0.14427307                0.02565245               -0.06180232                0.00015794                0.19522334                0.08323643
               6.71357856               -0.09362599               19.91663824                0.77078498                0.06126977                0.10468202               -0.35255884                0.00876779                0.00565142               -0.05444073
               7.71398660               -0.16186307               19.85355635                0.86623728                0.07169979                0.19661488               -0.65366166                0.03438872               -0.22559238                0.06248915
               8.71501256               -0.23307278               19.78576952                1.00000000                0.18876244                0.29513575               -0.95187041                0.02076446               -0.58464711                0.43326575
               9.71776184               -0.30636207               19.71538371                1.00000000                0.33760230                0.36447130               -1.24352248               -0.04451132               -0.66720350                0.00980751
              10.72176460               -0.37989740               19.64598665                1.00000000                0.40027588                0.44434694               -1.51976781               -0.06427589               -0.62328037               -0.64020365
               0.80053777                1.38877053               20.28160460                1.00000000               -0.32972468               -0.36462695                1.22349062               -0.02935407               -0.09833278                1.06697581
               1.79724052                1.29866490               20.21059643                1.00000000               -0.29647027               -0.28661523                0.95971908               -0.01034717               -0.06075921                0.07888012
               2.79460837                1.20839337               20.14028241                0.79072543               -0.24798945               -0.21244849                0.69731538                0.03340254                0.17938368               -0.59625482
               3.79228074                1.11904883               20.07403661                0.15026658               -0.55956180               -0.17168182                0.43471198                0.68176998                1.65133581               -1.05043356
               4.78341713                1.04232233               20.03306848                0.31502421               -0.56158328                0.06140024                0.18502705               -0.09142281                2.32216326                0.94594984
               5.78104907                0.97415468               19.98026232                0.41061808               -0.09351404                0.08900664               -0.09029164                0.18537691                1.50395554                0.36830820
               6.78154685                0.90742083               19.92291849                0.30257640                0.15024026                0.04969557               -0.36359415                0.22617956                1.38699272               -0.38768541
               7.78405387                0.84010308               19.86788887                0.45390353                0.29614273                0.19265393               -0.62575141                0.27387702                1.36672887                0.59076777
               8.78746970                0.76987858               19.81044623                1.00000000                0.33375828                0.27826295               -0.88881732                0.12034615                0.69894938                0.62304683
               9.79072904                0.69728264               19.74232598                1.00000000                0.35937338                0.35343194               -1.16300246                0.00086651                0.09738297                0.08706023
              10.79465717                0.62454607               19.67293055                1.00000000                0.39281304                0.42798562               -1.43852298               -0.02067662                0.02976750               -0.75937638
               0.88996948                2.38533020               20.25990512                1.00000000               -0.29837467               -0.33022619                1.11537142               -0.02210990                0.04049684                1.35803636
               1.88698573                2.29601448               20.18336459                1.00000000               -0.25946178               -0.24987974                0.83968438                0.00278855                0.16295001                0.05249239
               2.88478024                2.20647286               20.10916254                0.44928228               -0.18181253               -0.18082715                0.57738913                0.06174393                0.77148290               -1.28388272
               3.88334948                2.11739156               20.04470089                0.00010000               -1.55107250               -0.12933208                0.33660899                0.93076629                4.42546112               -1.94319839
               4.85375879                2.04417459               20.04324378                0.00010000               -1.59896170                0.17502216                0.13288031                1.81544574                4.79725189               -1.25094038
               5.85137025                1.97567829               19.98655794                0.00010000               -0.08025226               -0.06054145               -0.11725606                1.56266288                1.66235375               -0.46094808
               6.85215375                1.90736792               19.92254276                0.00010000                0.28180680               -0.15750256               -0.36823325                1.33712297                3.00110235                0.23632410
               7.85700638                1.84199001               19.89281970                0.00010000                0.40430858               -0.11122000               -0.60250194                0.92215235                3.45578859                0.73506173
               8.86023992                1.77249248               19.83901032                0.47892510                0.30526491                0.27107938               -0.80865571                0.21069524                1.52746092                1.22026314
               9.86311168                1.70070657               19.77090723                1.00000000                0.32921460                0.33972189               -1.07697127                0.03343668                0.55203177                0.53849617
              10.86682421                1.62866232               19.69758961                1.00000000                0.37125300                0.40058387               -1.36945079               -0.01070972                0.28968879               -0.76739424
               0.97872700                3.38216601               20.23843706                1.00000000               -0.25733694               -0.30592842                1.00523581               -0.01637131                0.05227181                1.32842057
               1.97615363                3.29366730               20.15511916                1.00000000               -0.21304175               -0.21892045                0.71688061                0.00578225                0.06459514               -0.03900386
               2.97446617                3.20477682               20.07197567                0.26133452               -0.14796521               -0.13970349                0.42727704                0.05964001                0.98379804               -1.51175324
               3.97319433                3.11646218               20.00704275                0.00010000               -0.65134254               -0.06943246                0.15623167                1.00056285                4.47366676               -2.46703717
               4.96143932                3.04582278               19.99338238                0.00010000               -1.20426648                0.08516111                0.00451797                2.60848627                6.53578031               -3.00182435
               5.94910900                2.97294385               19.97057832                0.00010000               -0.97308682               -0.05414030               -0.14546295                2.21584710                5.71921032               -1.22231093
               6.94197758                2.90427077               19.94102798                0.00010000               -0.58683211               -0.12876551               -0.31162691                1.90428169                5.28363337                0.70672030
               7.93737236                2.83787868               19.91005395                0.00010000               -0.45052653               -0.17605942               -0.48854479                1.43501463                5.01866775                0.82919093
               8.93296705                2.77530017               19.87566031                0.25198073               -0.10722097                0.24547510               -0.69382018                0.53775192                3.10529022                2.27427692
               9.93522794                2.70407708               19.80694237                1.00000000                0.27822157                0.31035884               -0.95827021                0.03161705                0.69983088                0.86935601
              10.93853148                2.63255775               19.72438504                1.00000000                0.33035435                0.38652984               -1.28994677               -0.01826057                0.01013745               -0.54016323
               1.06663947                4.37921163               20.21613423                1.00000000               -0.21489078               -0.28052337                0.88609962               -0.02004996                0.06233363                1.22178795
               2.06449056                4.29163607               20.12603998                0.94464740               -0.17306549               -0.18163036                0.58638776                0.00223445                0.07753185               -0.12416109
               3.06317816                4.20367879               20.03619829                0.15459763               -0.10878881               -0.08317170                0.29650263                0.03844263                1.13813810               -1.38508607
               4.06231479                4.11600291               19.96731372                0.00010000               -0.68656524                0.08464323               -0.01484086                0.83461672                5.70621486               -1.87141555
               5.04944685                4.04587781               19.96880791                0.00010000               -1.25377968                0.10692093               -0.11586495                1.53345465                8.76467499               -1.28488621
               6.03723919                3.97459548               19.96188915                0.00010000               -1.20711535                0.21334186               -0.17699767                1.43549887                8.06814357               -0.57674448
               7.02530455                3.90479261               19.95030011                0.00010000               -1.12809541                0.16451854               -0.26595742                1.29469485                7.70319395                0.35795853
               8.01467728                3.83846882               19.93686927                0.00010000               -1.02539943                0.14214559               -0.38086349                1.22549840                7.67070818                1.36165744
               9.00479656                3.77740198               19.92538783                0.23490950               -0.40954222                0.16794691               -0.51946192                0.54536494                4.15492481                2.64457791
              10.00648644                3.70691375               19.84224331                0.95133939                0.23505511                0.25895153               -0.84244786                0.01694284                0.30057853                0.81340107
              11.00949766                3.63639291               19.75350077                1.00000000                0.30112221                0.37300819               -1.19391752               -0.01757338                0.02646642               -0.41746795
               1.15347712                5.37655554               20.19249989                1.00000000               -0.17459523               -0.24445949                0.75743790               -0.02413011                0.11461970                1.08509724
               2.15173116                5.29003469               20.09604432                0.76475504               -0.13044649               -0.13650428                0.43869077               -0.00319724                0.21122000               -0.28982715
               3.15086819                5.20311339               20.00146956                0.10139019               -0.20217609               -0.02971630                0.13154244                0.12056736                2.01993585               -1.53440307
               4.14768764                5.11815505               19.94118394                0.00010000               -0.86761725                0.34638046               -0.34558333                0.60172359                7.41015188               -0.39019571
               5.13351584                5.04796120               19.95364220                0.00010000               -1.43917291                0.30432420               -0.23184789                1.21165881               10.61511564               -0.51886847
               6.11890418                4.97721069               19.95899601                0.00010000               -1.47588533                0.34417459               -0.20138865                1.00261636               10.07556043               -0.10317284
               7.10399813                4.90756115               19.96200699                0.00010000               -1.48156165                0.33996194               -0.21821206                0.89494185                9.89299560                0.56592906
               8.08927295                4.84072159               19.96486657                0.00010000               -1.42843535                0.25605218               -0.26763264                0.90505680                9.93782686                1.39335713
               9.07542943                4.77865911               19.96974466                0.24272359               -0.63485423                0.09500397               -0.33785572                0.41629432                5.12792870                2.24131843
              10.07657587                4.70925611               19.87715792                0.84480997                0.18961267                0.21449821               -0.70406713                0.00949389                0.16294319                0.78431439
              11.07922168                4.64001791               19.78259325                1.00000000                0.26458151                0.34963121               -1.09416419               -0.01840438                0.07093138               -0.45338071
               1.23919856                6.37432244               20.16740403                1.00000000               -0.13297957               -0.20037640                0.62237263               -0.02463529                0.07010910                0.95257098
               2.23786877                6.28890599               20.06360406                0.64910580               -0.08647062               -0.08949751                0.28744198               -0.00348917                0.21619293               -0.47127765
               3.23746915                6.20308446               19.96267933                0.07520812               -0.41836582                0.02175228               -0.03551123                0.30616671                3.84536844               -1.86770957
               4.22950145                6.12293052               19.93146194                0.00010000               -1.14223783                0.49399284               -0.55992889                0.63257206                9.57269247                0.16611314
               5.21462439                6.05196430               19.94445772                0.00010000               -1.59049412                0.48845248               -0.31276930                0.97369944               11.81537976               -0.10382944
               6.19769157                5.98147897               19.95979494                0.00010000               -1.74659592                0.52029653               -0.20824817                0.76887403               11.86506134                0.17065900
               7.17969248                5.91159185               19.97545424                0.00010000               -1.80055547                0.47423942               -0.16380503                0.57764000               11.87075592                0.68277899
               8.16168046                5.84358987               19.99237112                0.00010000               -1.75522742                0.31190700               -0.15450562                0.53161236               11.98631353                1.33725513
               9.14458793                5.77930206               20.01155034                0.25954237               -0.81814759                0.03745062               -0.16853593                0.21847104                6.10447898                2.05298998
              10.14531751                5.71120371               19.91176488                0.78070448                0.15090204                0.17519755               -0.57579722                0.00440692                0.10228774                0.73348851
              11.14760597                5.64338554               19.81075749                1.00000000                0.22884604                0.32306824               -0.99357576               -0.01623329                0.04764719               -0.52337789
               1.32381731                7.37254801               20.14104762                1.00000000               -0.09179562               -0.15501101                0.48634265               -0.02372647                0.03078171                0.86396262
               2.32289936                7.28824474               20.02993503                0.58803381               -0.04251612               -0.04330783                0.13916244               -0.00227774                0.15493010               -0.55121316
               3.32296699                7.20354844               19.92126250                0.06275512               -0.57200533                0.07007890               -0.20267911                0.48343463                5.47875269               -2.05918811
               4.31145925                7.12803491               19.91662762                0.00010000               -1.42628063                0.52954822               -0.53809542                0.88249310               11.94592533               -0.33111683
               5.29444138                7.05773025               19.93737480                0.00010000               -1.84025676                0.67235376               -0.33327770                0.90588848               13.33004221               -0.01973465
               6.27465411                6.98761662               19.96213665                0.00010000               -2.05006696                0.72726407               -0.19374575                0.59391189               13.56117343                0.26293311
               7.25344004                6.91704593               19.98933485                0.00010000               -2.12295666                0.64057692               -0.10434619                0.26632538               13.73135386                0.67959548
               8.23219498                6.84695973               20.01919987                0.00010000               -2.06275167                0.38204800               -0.04547842                0.08988259               13.94831953                1.24115238
               9.21218501                6.77940812               20.05217913                0.28204300               -0.98072260               -0.01430631               -0.00951491               -0.03254500                7.06685159                1.94153944
              10.21258053                6.71276006               19.94554112                0.74986214                0.11741778                0.13434877               -0.44919794               -0.00096707                0.05996215                0.65971379
              11.21453336                6.64647928               19.83821674                1.00000000                0.19528315                0.29430600               -0.89412647               -0.01498835                0.03304866               -0.58420421
               1.40733057                8.37122222               20.11410175                1.00000000               -0.05077841               -0.11150552                0.35180096               -0.02290981                0.01238988                0.83330442
               2.40682279                8.28803983               19.99586042                0.57597029                0.00085533                0.00220362               -0.00668587               -0.00082604                0.06530655               -0.57618852
               3.40734768                8.20448604               19.87863808                0.05381130               -0.69266434                0.11699758               -0.36665371                0.65450694                6.87613195               -2.02637613
               4.39296950                8.13352148               19.89661857                0.00010000               -1.70936138                0.62771587               -0.49544318                1.10713655               14.33810059               -0.50378487
               5.37316045                8.06541137               19.92942706                0.00010000               -2.13576927                0.88655764               -0.31431253                0.85846430               15.09116684               -0.05882127
               6.35025412                7.99602425               19.96431307                0.00010000               -2.37422940                0.93887367               -0.16719844                0.43510969               15.25548255                0.22978037
               7.32567587                7.92440338               20.00236913                0.00010000               -2.45690953                0.87102966               -0.04609875               -0.02081326               15.52708873                0.55458397
               8.30111593                7.85123083               20.04460810                0.00712954               -2.37695835                0.53009050                0.05527869               -0.44099576               15.89628095                1.02431248
               9.27813670                7.77901594               20.09174005                0.30964621               -1.14444614               -0.05799617                0.14032332               -0.35990335                8.05806920                1.76469027
              10.27822701                7.71389069               19.97857004                0.75360647                0.08655347                0.09250633               -0.32537178               -0.00909660                0.03116928                0.61097987
              11.27986777                7.64927166               19.86496839                1.00000000                0.16407631                0.26191690               -0.79626674               -0.01357689                0.01825400               -0.64050133
               1.48972389                9.37031790               20.08705615                1.00000000               -0.01048777               -0.07095607                0.21969335               -0.02232138               -0.00530420                0.70739866
               2.48961901                9.28828882               19.96166637                0.59824867                0.04257934                0.04701949               -0.15012339                0.00025670                0.07749993               -0.50206085
               3.49057548                9.20588839               19.83789687                0.02677701               -0.84711816                0.16098582               -0.51914127                0.87891961                8.34061051               -1.41625799
               4.47267665                9.14058922               19.87778026                0.00010000               -2.07337921                0.96201979               -0.46188774                1.01848696               16.61280206               -0.26494289
               5.44910789                9.07546140               19.92091300                0.00010000               -2.41561774                1.05429040               -0.30187826                0.62401613               16.74076591               -0.04527421
               6.42436430                9.00639409               19.96531852                0.00010000               -2.56453478                1.07587218               -0.14607211                0.25447392               16.87828671                0.13172908
               7.39781720                8.93446653               20.01319678                0.00010000               -2.78008907                1.05237637                0.00118581               -0.15876457               17.23376225                0.31724979
               8.36876251                8.85756154               20.06678190                0.02394699               -2.77450594                0.92867254                0.14129907               -0.72752703               17.83031070                0.59450587
               9.34232708                8.77824819               20.12874832                0.33996615               -1.33098191               -0.07709504                0.27374996               -0.78817102                9.19058444                1.18103369
              10.34214288                8.71461019               20.01125243                0.79197658                0.05863999                0.05566123               -0.20817035               -0.02120822                0.09613344                0.50763291
              11.34349988                8.65171762               19.89110555                0.97990709                0.13570032                0.22727035               -0.70511504               -0.01348227               -0.02615530               -0.56837432
               1.57094232               10.36980310               20.05752312                1.00000000                0.03151181               -0.05148047                0.08786276                0.03955538                0.38686580                0.58615212
               2.57125744               10.28898022               19.92905770                0.83315376                0.08416720                0.06914064               -0.28800881                0.05897559                0.73440500               -0.42233678
               3.57262567               10.20770576               19.80751087                0.51465386               -1.37456041                0.18173706               -0.65142505                1.39410157                9.87650264               -0.90053312
               4.54376623               10.15276188               19.86190408                0.36398378               -2.63948780                1.21726558               -0.48041511                1.04852920               18.36957302               -0.07326781
               5.51983591               10.08649718               19.91242603                0.35569438               -2.37138821                1.10357815               -0.32075418                0.31179242               18.17256079               -0.00260621
               6.49633847               10.01754170               19.96468845                0.37455559               -2.42513952                1.11476067               -0.14365397                0.14510377               18.35537011                0.09569958
               7.47133312                9.94545091               20.02064647                0.41841269               -2.67773739                1.09843845                0.02956260               -0.03527884               18.76519656                0.19815935
               8.44278372                9.86980428               20.08304139                0.51950867               -3.30042434                1.22427341                0.20033988               -0.99672328               19.52297705                0.35965120
               9.40532463                9.77747404               20.15646084                0.68622494               -1.92251511               -0.07741592                0.36211096               -1.44026313               10.52697983                0.73047184
              10.40433342                9.71500391               20.04204326                0.92490045                0.00293172                0.03937207               -0.10617142                0.03620558                0.71788390                0.42469155
              11.40538327                9.65381706               19.91909446                0.98698901                0.10498491                0.20994470               -0.61574713                0.06965414                0.30332401               -0.46486257
               0.77465655                0.42846457               21.32228257                1.00000000               -0.35233221               -0.38296267                1.33680726               -0.06722926               -0.76891087                0.80454283
               1.77113322                0.33058932               21.24907189                1.00000000               -0.29347864               -0.30523912                1.07499741               -0.05321645               -0.97776323                0.05593254
               2.76878697                0.23249525               21.17166556                1.00000000               -0.16070582               -0.22952407                0.79822102               -0.03922175               -0.92857553               -0.21005217
               3.76791911                0.13542620               21.09947149                0.62178186                0.31172037               -0.18143083                0.53557786                0.48057260                0.02893906               -0.60708636
               4.77502138                0.05047874               21.04123959                0.70988587                0.45706010               -0.05845243                0.23314183               -0.07259795                0.52844286                0.15287741
               5.77706031               -0.02572454               20.97903418                0.79395816                0.14353660                0.02701511               -0.05881901                0.00074993                0.14429111                0.08911992
               6.77789211               -0.10041645               20.91314879                0.77263644                0.06601486                0.10417411               -0.34523406                0.00907909               -0.04685315               -0.05819559
               7.77838061               -0.17568121               20.84707852                0.86783186                0.07884604                0.19492811               -0.64211635                0.03098949               -0.28166310                0.06853386
               8.77946903               -0.25367612               20.77632892                1.00000000                0.19097514                0.29061056               -0.93669534                0.01714198               -0.63592036                0.44462661
               9.78220011               -0.33361532               20.70304369                1.00000000                0.33402870                0.35990901               -1.22506421               -0.04339401               -0.70711058                0.00873007
              10.78614961               -0.41380179               20.63090050                1.00000000                0.39494979                0.43964504               -1.49825374               -0.06156661               -0.65505431               -0.67017819
               0.87185950                1.42463495               21.29378620                1.00000000               -0.32737829               -0.36318277                1.21390471               -0.02771377               -0.10232733                1.09222024
               1.86858572                1.32753693               21.22016143                1.00000000               -0.29415947               -0.28437831                0.95343313               -0.01009765               -0.06613541                0.08197149
               2.86597631                1.23020001               21.14721870                0.81252584               -0.24263157               -0.20853632                0.68714595                0.02469783                0.16904695               -0.59497719
               3.86373309                1.13361190               21.07825889                0.16053234               -0.55527704               -0.18079852                0.41050904                0.68947737                1.65299755               -1.05311688
               4.85487077                1.04989421               21.03486039                0.32533505               -0.56088434                0.06785057                0.17295650               -0.08695777                2.33128535                0.95315979
               5.85251540                0.97454561               20.97933172                0.42234046               -0.09547672                0.09028454               -0.09587993                0.17585960                1.50087655                0.37518797
               6.85296124                0.90062529               20.91928192                0.31335309                0.14024662                0.05616464               -0.36369064                0.21865702                1.39103996               -0.38710601
               7.85532033                0.82626807               20.86165099                0.46229569                0.28231336                0.19167281               -0.62207245                0.25392910                1.37671383                0.59382660
               8.85860751                0.74922998               20.80159484                1.00000000                0.32543348                0.27531829               -0.88182683                0.11164517                0.70367027                0.64299371
               9.86182900                0.66998377               20.73074854                1.00000000                0.35564528                0.34967130               -1.15305752                0.00117361                0.09617116                0.08906883
              10.86572041                0.59059466               20.65861434                1.00000000                0.38914072                0.42552321               -1.42549696               -0.01856290                0.02830446               -0.79487703
               0.96829830                2.42120092               21.27100069                1.00000000               -0.29320922               -0.32982500                1.10448896               -0.02129875                0.03982873                1.38930818
               1.96536621                2.32490176               21.19171887                1.00000000               -0.25461680               -0.24857924                0.83251245                0.00183449                0.17120947                0.05650477
               2.96320596                2.22832452               21.11499451                0.45924581               -0.16758787               -0.17583925                0.58118221                0.03764223                0.79309107               -1.30431084
               3.96201445                2.13181023               21.04812116                0.00010000               -1.54287269               -0.16194761                0.32329678                0.94806275                4.45388004               -1.96031759
               4.93234851                2.05183575               21.04443281                0.00010000               -1.60840134                0.17310569                0.10903292                1.80617838                4.86375043               -1.27077876
               5.92984642                1.97608115               20.98532957                0.00010000               -0.09028581               -0.06459853               -0.12866382                1.52169371                1.71463687               -0.45069476
               6.93054279                1.90070684               20.91885077                0.00010000                0.25040336               -0.15576062               -0.36964396                1.28943708                3.05676998                0.27157831
               7.93485449                1.82815224               20.88676572                0.00010000                0.37217199               -0.11075262               -0.60824214                0.88356565                3.53692105                0.78325467
               8.93798623                1.75183024               20.83091683                0.48495373                0.30022082                0.26826297               -0.81033017                0.19269573                1.59347087                1.26636184
               9.94085891                1.67337810               20.76014749                1.00000000                0.32851679                0.33601157               -1.07558238                0.02885692                0.57486575                0.55958317
              10.94455657                1.59470867               20.68392267                1.00000000                0.36976624                0.40295236               -1.36474840               -0.01017259                0.30074866               -0.80367670
               1.06403185                3.41803845               21.24842884                1.00000000               -0.25330461               -0.30517407                0.99372631               -0.01741274                0.05630309                1.35429378
               2.06149881                3.32256535               21.16226021                1.00000000               -0.21055853               -0.21720781                0.71107708                0.00269333                0.06775843               -0.03891297
               3.05982068                3.22668322               21.07625132                0.26841475               -0.11578431               -0.13463693                0.42839965                0.00325576                0.99938920               -1.54321570
               4.05918312                3.13037294               21.00869963                0.00010000               -0.65486279               -0.08485980                0.16464949                0.97821080                4.56809081               -2.55675838
               5.04672343                3.05335632               20.99345636                0.00010000               -1.25524678                0.07154405                0.01139238                2.60045115                6.69247544               -3.05369519
               6.03407818                2.97325364               20.96910013                0.00010000               -1.00222691               -0.06276582               -0.14892251                2.15766651                5.87269290               -1.20691239
               7.02667889                2.89751008               20.93788616                0.00010000               -0.61049706               -0.13805565               -0.31697999                1.84035230                5.42966660                0.77075805
               8.02186824                2.82405301               20.90513856                0.00010000               -0.47216647               -0.17826384               -0.49517476                1.39119513                5.14981634                0.92367611
               9.01723556                2.75459524               20.86867659                0.25141900               -0.11702636                0.23571747               -0.70344506                0.50695444                3.20022428                2.36677573
              10.01952772                2.67670400               20.79731683                1.00000000                0.28101337                0.30814455               -0.96712949                0.02273668                0.73387512                0.90507560
              11.02285583                2.59865370               20.71145961                1.00000000                0.33281097                0.39291842               -1.29535235               -0.01701865                0.01143742               -0.56349917
               1.15889625                4.41509744               21.22493690                1.00000000               -0.21209480               -0.27851595                0.87455451               -0.02120804                0.06983678                1.23792813
               2.15677530                4.32055760               21.13187498                0.93413737               -0.17163819               -0.17910417                0.58063612                0.00014683                0.09018523               -0.13743092
               3.15546348                4.22563178               21.03916375                0.16135537               -0.09348668               -0.07963033                0.29655369               -0.00796155                1.13994907               -1.42123562
               4.15490556                4.13011304               20.96709383                0.00010000               -0.69933220                0.10745830               -0.02518173                0.78590775                5.82523889               -2.05193563
               5.14147684                4.05326663               20.96769789                0.00010000               -1.30297804                0.09570851               -0.10667411                1.52093386                9.01028225               -1.33291869
               6.12884600                3.97482583               20.96011337                0.00010000               -1.24631869                0.20894079               -0.17761763                1.39122448                8.31845248               -0.56011496
               7.11655046                3.89794573               20.94761366                0.00010000               -1.16263893                0.15952373               -0.27172922                1.24413688                7.93702774                0.41972790
               8.10559323                3.82458696               20.93301107                0.00010000               -1.05380636                0.13765307               -0.39185434                1.16954707                7.88888594                1.45524375
               9.09547434                3.75654459               20.92009273                0.23267627               -0.41690228                0.15634354               -0.54043884                0.51203653                4.28220747                2.77043050
              10.09725518                3.67954100               20.83370992                0.93186023                0.24212246                0.26127963               -0.86328981                0.01225581                0.32567653                0.86026736
              11.10031679                3.60256704               20.74147209                1.00000000                0.30616067                0.38248110               -1.21026740               -0.01730474                0.03786933               -0.42991838
               1.25268736                5.41246813               21.20001490                1.00000000               -0.17199689               -0.24144666                0.74566083               -0.02463102                0.11731331                1.09245978
               2.25096740                5.31898326               21.10040391                0.75686205               -0.12906756               -0.13392266                0.43305979               -0.00426729                0.21995335               -0.31311656
               3.25010601                5.22509062               21.00279295                0.10724193               -0.18504824               -0.02770814                0.13262066                0.08715068                1.95015252               -1.58730570
               4.24726643                5.13252211               20.93778370                0.00010000               -0.88383526                0.36059886               -0.33317130                0.56729700                7.53966772               -0.57118195
               5.23242931                5.05527049               20.95135900                0.00010000               -1.50214278                0.30542938               -0.22666235                1.19011834               11.01385644               -0.55159213
               6.21722357                4.97743245               20.95697530                0.00010000               -1.53144078                0.34876332               -0.20260380                0.96301597               10.42387027               -0.07621574
               7.20180049                4.90070055               20.95979082                0.00010000               -1.52816289                0.34257679               -0.22566666                0.84261070               10.21556276                0.63022584
               8.18666032                4.82680608               20.96212376                0.00010000               -1.46391170                0.25491823               -0.28228373                0.84637918               10.24724945                1.48837553
               9.17252226                4.75772211               20.96624524                0.24019622               -0.64549656                0.08975856               -0.36361787                0.38382766                5.29640343                2.36472370
              10.17375039                4.68192959               20.86998672                0.82738878                0.19676914                0.21975053               -0.72944539                0.00823190                0.17636350                0.83913227
              11.17645764                4.60630333               20.77153282                1.00000000                0.27072552                0.36124718               -1.11618644               -0.01874366                0.07264138               -0.46080502
               1.34537336                6.41026850               21.17356850                1.00000000               -0.13058920               -0.19686922                0.61052921               -0.02471463                0.06987468                0.95580222
               2.34406746                6.31787915               21.06645461                0.64318267               -0.08528531               -0.08727918                0.28246199               -0.00410859                0.22195715               -0.49444313
               3.34366765                6.22507762               20.96233332                0.08019630               -0.39979188                0.02297837               -0.03392957                0.27412102                3.75088545               -1.92084351
               4.33607163                6.13732501               20.92579937                0.00010000               -1.16493945                0.50364664               -0.56516639                0.58466482                9.77104480                0.15531858
               5.32036886                6.05937522               20.94132005                0.00010000               -1.66976786                0.50420378               -0.31313404                0.94444422               12.33987186               -0.09193730
               6.30267627                5.98180110               20.95769235                0.00010000               -1.81699016                0.53569173               -0.21217527                0.72100114               12.30036821                0.21250193
               7.28402906                5.90479726               20.97377057                0.00010000               -1.85885121                0.48502908               -0.17368885                0.51685450               12.27489648                0.74921543
               8.26549924                5.82968533               20.99074455                0.00010000               -1.80008417                0.31600217               -0.17223795                0.46338532               12.37822541                1.42744371
               9.24802737                5.75833976               21.00973544                0.25720940               -0.83303195                0.03648348               -0.19624681                0.18174345                6.30832749                2.16363681
              10.24883861                5.68393601               20.90588293                0.76504831                0.15835353                0.18088105               -0.60163173                0.00477427                0.10913885                0.78206496
              11.25119444                5.60979198               20.80070970                1.00000000                0.23558389                0.33457497               -1.01584822               -0.01618857                0.04988217               -0.52920677
               1.43697178                7.40853074               21.14585391                1.00000000               -0.08956785               -0.15133955                0.47480278               -0.02366735                0.03039813                0.86711426
               2.43607611                7.31723768               21.03130642                0.58362475               -0.04146093               -0.04158465                0.13485763               -0.00244602                0.15722822               -0.57126607
               3.43614257                7.22555018               20.91924927                0.06658163               -0.57069868                0.07030024               -0.20032514                0.46057473                5.47705574               -2.10939039
               4.42466213                7.14259504               20.91110068                0.00010000               -1.46502288                0.55050314               -0.55908424                0.82798273               12.23184782               -0.20870193
               5.40684211                7.06535457               20.93399654                0.00010000               -1.92202907                0.69768962               -0.33957070                0.86769567               13.87318879                0.04039845
               6.38622155                6.98814629               20.96016190                0.00010000               -2.12943783                0.75274090               -0.20077513                0.53764027               14.05782326                0.31587516
               7.36425335                6.91040113               20.98823195                0.00010000               -2.19180150                0.66028087               -0.11702342                0.19501813               14.20543327                0.74261155
               8.34238552                6.83312612               21.01864788                0.00010000               -2.11734503                0.39256443               -0.06640753                0.01003361               14.41476460                1.32148864
               9.32190645                6.75845178               21.05193821                0.27995691               -0.99959340               -0.01183539               -0.04055954               -0.07582733                7.30607657                2.04094370
              10.32239365                6.68554721               20.94091822                0.73500871                0.12577316                0.14020018               -0.47669335               -0.00056375                0.06359562                0.70480564
              11.32442191                6.61299483               20.82915949                1.00000000                0.20282615                0.30483497               -0.91759747               -0.01428261                0.03433101               -0.59116115
               1.52748614                8.40724171               21.11756573                1.00000000               -0.04870339               -0.10793344                0.34074451               -0.02276882                0.01199474                0.83820571
               2.52699910                8.31704745               20.99577804                0.57283696                0.00178224                0.00343953               -0.01015521               -0.00074190                0.06425958               -0.59338247
               3.52752178                8.22648363               20.87499194                0.05613014               -0.70861045                0.11606374               -0.36307230                0.64584136                6.98210916               -2.06801303
               4.51282689                8.14833508               20.89156449                0.00010000               -1.76751271                0.65515875               -0.50938908                1.07114779               14.72908766               -0.37336088
               5.49217153                8.07332901               20.92623131                0.00010000               -2.22221899                0.91928789               -0.32240235                0.82390015               15.64194184                0.01312244
               6.46838251                7.99685592               20.96259159                0.00010000               -2.46109687                0.97297637               -0.17674600                0.38096134               15.79309526                0.27900306
               7.44294959                7.91800288               21.00183520                0.00010000               -2.53666248                0.90221284               -0.06147253               -0.09391508               16.06155248                0.60481487
               8.41764926                7.83753662               21.04504603                0.00800503               -2.44299284                0.54958993                0.03081262               -0.53060997               16.43286968                1.08910933
               9.39408973                7.75810306               21.09297089                0.30759772               -1.16824879               -0.05121363                0.10393464               -0.41107090                8.33428229                1.85084968
              10.39428429                7.68674001               20.97516352                0.73796418                0.09619168                0.10003212               -0.35706825               -0.00965895                0.03446962                0.65070030
              11.39601357                7.61588868               20.85687036                1.00000000                0.17292782                0.27214771               -0.82339197               -0.01242467                0.01915505               -0.65195699
               1.61690492                9.40637207               21.08920234                1.00000000               -0.00855701               -0.06759829                0.20914238               -0.02217084               -0.00619582                0.71364186
               2.61681935                9.31730647               20.96015478                0.59547558                0.04334225                0.04783839               -0.15268741                0.00036173                0.07723528               -0.51495823
               3.61777177                9.22787146               20.83273450                0.02691801               -0.87898242                0.15936329               -0.51397365                0.88695258                8.54887152               -1.44145081
               4.59923971                9.15569822               20.87312518                0.00010000               -2.14862489                0.99582747               -0.46636601                1.00596577               17.10162675               -0.17209178
               5.57479927                9.08374033               20.91785132                0.00010000               -2.50364002                1.09068107               -0.30917411                0.60477660               17.30344041               -0.00099804
               6.54916691                9.00760582               20.96380081                0.00010000               -2.65524617                1.11556429               -0.15745617                0.21988690               17.45568393                0.16024092
               7.52169435                8.92844539               21.01312355                0.00010000               -2.87468808                1.09426212               -0.01665028               -0.21174568               17.82434129                0.34436641
               8.49167314                8.84411792               21.06806685                0.02575482               -2.86063534                0.96955959                0.11453632               -0.80329079               18.43411481                0.63329945
               9.46448164                8.75742751               21.13128215                0.33767080               -1.36291481               -0.06510301                0.23101624               -0.84746446                9.50736464                1.23722828
              10.46441485                8.68754786               21.00898830                0.77310867                0.06972162                0.06606051               -0.24576111               -0.02281521                0.10414390                0.53657379
              11.46587607                8.61843778               20.88389322                0.98083384                0.14612260                0.23786887               -0.73729596               -0.01224922               -0.02535099               -0.58444138
               1.70517393               10.40588975               21.05835367                1.00000000                0.03330239               -0.04823277                0.07772666                0.03834795                0.39054276                0.59273282
               2.70550695               10.31800422               20.92617142                0.83230102                0.08475785                0.06977521               -0.28985637                0.05781708                0.74454626               -0.43215733
               3.70686909               10.22967089               20.80103015                0.51428710               -1.42148068                0.17994329               -0.64541864                1.42210187               10.15624610               -0.91534122
               4.67707734               10.16825163               20.85709058                0.36445107               -2.72548130                1.25534099               -0.48169388                1.05735019               18.94145843               -0.01954719
               5.65235946               10.09514263               20.90917906                0.35590015               -2.45010733                1.14023005               -0.32813574                0.30179757               18.77165365                0.01612535
               6.62807519               10.01916720               20.96318890                0.37437874               -2.50784423                1.15613861               -0.15663813                0.12810333               18.98178489                0.10591801
               7.60220257                9.93988812               21.02084557                0.41781666               -2.77369336                1.14427339                0.00929710               -0.06114697               19.40796264                0.20763246
               8.57260132                9.85692781               21.08490420                0.52091264               -3.42460349                1.28098924                0.17133658               -1.06153815               20.17773086                0.37635469
               9.53371051                9.75680100               21.15984869                0.68538321               -1.98918051               -0.06265145                0.31339763               -1.52044314               10.89056033                0.76531147
              10.53281771                9.68806122               21.04076804                0.91414615                0.01391138                0.05133639               -0.14997930                0.03253990                0.75268144                0.44665017
              11.53398873                9.62064606               20.91274590                0.98692522                0.11710177                0.22082799               -0.65380198                0.06974996                0.31786498               -0.48208784
               0.84138844                0.46570634               22.33561223                1.00000000               -0.35111828               -0.38095159                1.32951119               -0.06676404               -0.78714031                0.82067836
               1.83787725                0.36068636               22.25978935                1.00000000               -0.29317143               -0.30290196                1.06848475               -0.05378533               -1.00228500                0.06074624
               2.83552501                0.25541451               22.17963504                1.00000000               -0.16147270               -0.22496314                0.79360206               -0.04220126               -0.95123238               -0.20993744
               3.83464780                0.15110867               22.10483646                0.62361842                0.30871304               -0.17718499                0.53169587                0.47252178               -0.00833304               -0.63499002
               4.84169927                0.05876254               22.04355675                0.71255643                0.45450132               -0.05702354                0.22977219               -0.07408717                0.46620652                0.16697898
               5.84373783               -0.02491454               21.97846171                0.79642199                0.14489430                0.02775885               -0.05621946               -0.00021117                0.09392277                0.09509019
               6.84459716               -0.10705617               21.90973356                0.77406457                0.07176866                0.10328910               -0.33823587                0.00898317               -0.09880243               -0.06151675
               7.84517320               -0.18963733               21.84071402                0.86901447                0.08659103                0.19297429               -0.63131024                0.02740651               -0.33697063                0.07468823
               8.84632898               -0.27471209               21.76703561                1.00000000                0.19374256                0.28626350               -0.92267211                0.01366727               -0.68653455                0.45621037
               9.84904805               -0.36159715               21.69088243                1.00000000                0.33104624                0.35573815               -1.20800960               -0.04233665               -0.74646687                0.00792075
              10.85294990               -0.44872864               21.61602158                1.00000000                0.39018498                0.43550069               -1.47856619               -0.05897447               -0.68627055               -0.69929545
               0.94574077                1.46189682               22.30588269                1.00000000               -0.32554579               -0.36163091                1.20618476               -0.02688554               -0.10573680                1.11472807
               1.94248532                1.35765734               22.22966509                1.00000000               -0.29244660               -0.28202819                0.94690406               -0.00965492               -0.07490147                0.08669303
               2.93989184                1.25316488               22.15402533                0.82708692               -0.23931574               -0.20302448                0.67711848                0.01971233                0.14886299               -0.58786633
               3.93769900                1.14933682               22.08224679                0.16992085               -0.54609194               -0.16821004                0.39684543                0.66842036                1.64884488               -1.05622440
               4.92897000                1.05819231               22.03652761                0.33475277               -0.55269654                0.07002512                0.16213657               -0.09238237                2.34569063                0.96432163
               5.92664507                0.97536305               21.97834472                0.43280222               -0.09608108                0.09052600               -0.10065089                0.16458095                1.50042031                0.38326415
               6.92704838                0.89397672               21.91564467                0.32363572                0.13150781                0.06257021               -0.36358596                0.20926017                1.39594697               -0.38285501
               7.92927523                0.81229241               21.85544743                0.47001231                0.26985901                0.19024303               -0.61877834                0.23396825                1.38673081                0.59631928
               8.93244556                0.72815055               21.79280970                1.00000000                0.31788678                0.27250292               -0.87556532                0.10332035                0.70831532                0.66296931
               9.93563296                0.64196023               21.71926483                1.00000000                0.35230422                0.34635491               -1.14427873                0.00154596                0.09479644                0.09137193
              10.93949165                0.55562636               21.64442061                1.00000000                0.38586841                0.42360787               -1.41405664               -0.01644076                0.02678164               -0.82941910
               1.04932969                2.45847372               22.28199490                1.00000000               -0.29135867               -0.32905755                1.09548539               -0.02031404                0.03906616                1.41829147
               2.04641610                2.35504580               22.20001484                1.00000000               -0.25449553               -0.24622037                0.82695836                0.00406531                0.17832247                0.06152282
               3.04423978                2.25135402               22.12078618                0.46874449               -0.17136617               -0.17108040                0.57463455                0.04106818                0.79570305               -1.31462728
               4.04298878                2.14774447               22.05116682                0.00010000               -1.52071914               -0.14912382                0.29606445                0.92305703                4.46627043               -1.95452180
               5.01382539                2.06016305               22.04542444                0.00010000               -1.58718739                0.16457422                0.09300453                1.75349143                4.93128525               -1.27563533
               6.01124503                1.97689598               21.98398466                0.00010000               -0.09862005               -0.06706271               -0.13856704                1.47600867                1.77064423               -0.43129118
               7.01185299                1.89419524               21.91514988                0.00010000                0.22168571               -0.15268383               -0.37196126                1.23778276                3.10954166                0.31189706
               8.01567874                1.81416753               21.88065485                0.00010000                0.34372886               -0.10927789               -0.61294486                0.84228813                3.61316380                0.83352120
               9.01872757                1.73073797               21.82280371                0.49044699                0.29622047                0.26546168               -0.81246193                0.17550625                1.65938077                1.31240202
              10.02160315                1.64532994               21.74939559                1.00000000                0.32806221                0.33279635               -1.07511033                0.02475012                0.59723185                0.58012625
              11.02528881                1.55974351               21.67029465                1.00000000                0.36856614                0.40559942               -1.36128212               -0.00949253                0.31150657               -0.83981072
               1.15219034                3.45531567               22.25831158                1.00000000               -0.25040152               -0.30447910                0.98374869               -0.01675540                0.05945573                1.37901414
               2.14968632                3.35273293               22.16934070                1.00000000               -0.20879019               -0.21510225                0.70521228                0.00394583                0.07083011               -0.03811917
               3.14801453                3.24974327               22.08054366                0.27572229               -0.11676034               -0.13207825                0.42886535                0.00699604                1.00979784               -1.57023690
               4.14735111                3.14635434               22.01033574                0.00010000               -0.65631063               -0.09321723                0.16345384                0.95185820                4.61540856               -2.57631131
               5.13488832                3.06148379               21.99361023                0.00010000               -1.26090317                0.05768731                0.01049937                2.52375078                6.82258268               -3.08415181
               6.12213305                2.97402179               21.96759987                0.00010000               -1.01779182               -0.06889818               -0.15207809                2.09433528                6.00910495               -1.18038598
               7.11453248                2.89092305               21.93468838                0.00010000               -0.62773971               -0.14563645               -0.32282985                1.76897379                5.56783443                0.83916818
               8.10957826                2.81010686               21.90015045                0.00010000               -0.48696049               -0.17895168               -0.50315680                1.34169578                5.27473282                1.02184634
               9.10479327                2.73345978               21.86159141                0.25059995               -0.12279188                0.22519886               -0.71371712                0.47617895                3.29092003                2.45765345
              10.10712242                2.64861615               21.78759978                1.00000000                0.28406911                0.30596273               -0.97610664                0.01480163                0.76664222                0.93848171
              11.11047466                2.56373835               21.69847800                1.00000000                0.33522368                0.39889095               -1.30069540               -0.01568483                0.01252462               -0.58788743
               1.25416005                4.45238414               22.23362532                1.00000000               -0.20926343               -0.27712671                0.86366956               -0.02128754                0.07678658                1.25341349
               2.25206742                4.35074375               22.13765271                0.92381803               -0.17008825               -0.17701030                0.57504573               -0.00029116                0.10201932               -0.15000204
               3.25075829                4.24871245               22.04212936                0.16737103               -0.08910002               -0.07727796                0.29641938               -0.01933563                1.13512038               -1.45643941
               4.25028542                4.14588012               21.96681009                0.00010000               -0.70626644                0.08357656               -0.01835729                0.75840818                5.91532619               -2.16447609
               5.23663296                4.06131679               21.96667443                0.00010000               -1.32964694                0.09117009               -0.10187642                1.46754721                9.24290546               -1.37784682
               6.22369248                3.97551802               21.95833680                0.00010000               -1.27427763                0.20427992               -0.17872264                1.33912189                8.55222764               -0.53812661
               7.21114741                3.89128251               21.94486552                0.00010000               -1.18582759                0.15428498               -0.27872425                1.18494613                8.15899011                0.48598277
               8.19997593                3.81058850               21.92903219                0.00010000               -1.07027776                0.13243823               -0.40471071                1.10723512                8.09483746                1.55107404
               9.18974185                3.73524195               21.91457905                0.23025691               -0.41776571                0.14255461               -0.56237258                0.47809826                4.40117233                2.89512475
              10.19162061                3.65144920               21.82497751                0.91229131                0.24944363                0.26247963               -0.88262362                0.00862572                0.34991713                0.90712678
              11.19473072                3.56772133               21.72929542                1.00000000                0.31101104                0.39129260               -1.22415783               -0.01740458                0.05067133               -0.44186054
               1.35504536                5.44977314               22.20741311                1.00000000               -0.16931751               -0.23923305                0.73423352               -0.02485156                0.11938546                1.09932744
               2.35335218                5.34919273               22.10470552                0.74890935               -0.12769543               -0.13145662                0.42730724               -0.00498735                0.22831822               -0.33597668
               3.35249145                5.24819771               22.00412197                0.11258312               -0.17186203               -0.02505914                0.13304763                0.06084828                1.88377020               -1.63916814
               4.34991494                5.14802588               21.93452052                0.00010000               -0.89450377                0.34198903               -0.31164533                0.53798377                7.66791618               -0.72742275
               5.33460137                5.06330719               21.94910896                0.00010000               -1.54825843                0.30856089               -0.22237285                1.14887036               11.39771570               -0.57967104
               6.31894977                4.97810739               21.95494393                0.00010000               -1.57202243                0.35121939               -0.20428121                0.91287451               10.75863035               -0.04652244
               7.30316092                4.89400875               21.95749366                0.00010000               -1.55931253                0.34262589               -0.23462921                0.78195132               10.52468167                0.69758515
               8.28776352                4.81275562               21.95922090                0.00010000               -1.48331925                0.25130600               -0.29935805                0.78031487               10.54230206                1.58582991
               9.27349454                4.73631087               21.96247231                0.23752252               -0.64739870                0.08199386               -0.39153077                0.34921843                5.45593471                2.49078138
              10.27481555                4.65386575               21.86256902                0.80990193                0.20438789                0.22321543               -0.75350494                0.00793726                0.18828900                0.89825827
              11.27758230                4.57156420               21.76026952                1.00000000                0.27667492                0.37267001               -1.13539231               -0.01918619                0.07434805               -0.46376549
               1.45482384                6.44759948               22.17961461                1.00000000               -0.12807406               -0.19400347                0.59879010               -0.02474085                0.06943138                0.95864830
               2.45354310                6.34811462               22.06925330                0.63720724               -0.08408660               -0.08483679                0.27707274               -0.00459140                0.22744838               -0.51701909
               3.45314211                6.24821127               21.96200074                0.08462777               -0.38037442                0.02521447               -0.03304393                0.24138379                3.65328586               -1.97288297
               4.44593561                6.15271991               21.92015861                0.00010000               -1.18066290                0.50349319               -0.55348905                0.53553647                9.95566280                0.13897942
               5.42952885                6.06748801               21.93819504                0.00010000               -1.73435967                0.51598804               -0.30964256                0.90325310               12.85238229               -0.07689520
               6.41124842                5.98254240               21.95555143                0.00010000               -1.86953221                0.54637438               -0.21583094                0.66362105               12.72217676                0.25639630
               7.39213820                5.89813503               21.97198046                0.00010000               -1.89841577                0.49123944               -0.18515936                0.44870059               12.66498049                0.81783533
               8.37328010                5.81561462               21.98892636                0.00010000               -1.82610553                0.31662042               -0.19266771                0.38836424               12.75549513                1.51979577
               9.35561609                5.73688182               22.00762540                0.25477629               -0.83770372                0.03403357               -0.22701727                0.14202752                6.50388855                2.27715033
              10.35652603                5.65591351               21.89973224                0.74927070                0.16669967                0.18549201               -0.62864190                0.00542606                0.11491155                0.83557872
              11.35895009                5.57517473               21.79044052                1.00000000                0.24240607                0.34655959               -1.03733983               -0.01612054                0.05183256               -0.52923983
               1.55352025                7.44589307               22.15054368                1.00000000               -0.08716947               -0.14807872                0.46307789               -0.02360666                0.02990684                0.87010231
               2.55264856                7.34749599               22.03263219                0.57922289               -0.04032073               -0.03953983                0.13001603               -0.00261965                0.15915282               -0.59070551
               3.55271384                7.24870200               21.91725600                0.06990509               -0.56498130                0.07146414               -0.19875139                0.43305264                5.46410467               -2.15832019
               4.54134893                7.15809574               21.90544594                0.00010000               -1.49349513                0.56549300               -0.56208495                0.76506171               12.50337737               -0.08679366
               5.52284394                7.07362696               21.93058339                0.00010000               -1.98868779                0.71655151               -0.33965622                0.81912448               14.40905488                0.10103424
               6.50157518                6.98903488               21.95812114                0.00010000               -2.18906072                0.77115011               -0.20684369                0.47351514               14.54107599                0.37023046
               7.47906272                6.90383354               21.98699438                0.00010000               -2.23955836                0.67365270               -0.13124546                0.11837106               14.66465121                0.80723900
               8.45678401                6.81908803               22.01787172                0.00010000               -2.15132603                0.39897164               -0.09022164               -0.07422297               14.86568642                1.40325176
               9.43603620                6.73699154               22.05136794                0.27783621               -1.00764248               -0.00964179               -0.07506046               -0.12118427                7.53716663                2.14111003
              10.43663116                6.65757559               21.93600725                0.71999250                0.13506173                0.14605507               -0.50629711               -0.00026233                0.06672472                0.75294630
              11.43873744                6.57849540               21.81986479                1.00000000                0.21062756                0.31620303               -0.94116368               -0.01366360                0.03552027               -0.59417546
               1.65114586                8.44463790               22.12091664                1.00000000               -0.04640825               -0.10451331                0.32920921               -0.02266566                0.01155890                0.84301525
               2.65068177                8.34732382               21.99565731                0.56980969                0.00287787                0.00501386               -0.01436096               -0.00071716                0.06289236               -0.60989866
               3.65120341                8.24964055               21.87137663                0.05805733               -0.71849421                0.11595811               -0.36046293                0.62873027                7.07851657               -2.10797536
               4.63631189                8.16402977               21.88643079                0.00010000               -1.81156079                0.67627820               -0.50962015                1.02109552               15.10436147               -0.23446935
               5.61497220                8.08181904               21.92297901                0.00010000               -2.28998754                0.94333658               -0.32514689                0.77963915               16.18187080                0.08641207
               6.59051214                7.99796541               21.96077815                0.00010000               -2.52598603                0.99833586               -0.18541162                0.32098074               16.31663255                0.32890315
               7.56445248                7.91160808               22.00113968                0.00010000               -2.59372514                0.92549730               -0.07832023               -0.16980443               16.58011775                0.65617334
               8.53863763                7.82359405               22.04522436                0.00906369               -2.48738129                0.56406669                0.00346445               -0.62084476               16.95194844                1.15556133
               9.51470485                7.73668899               22.09381875                0.30560168               -1.18103536               -0.04382929                0.06384595               -0.46213632                8.60146595                1.93602423
              10.51501693                7.65883461               21.97142867                0.72217005                0.10661744                0.10807780               -0.39089956               -0.01033318                0.03773607                0.69111970
              11.51683720                7.58149879               21.84850055                1.00000000                0.18202718                0.28289227               -0.85047480               -0.01130172                0.02004384               -0.66135151
               1.74769510                9.44380280               22.09123900                1.00000000               -0.00635350               -0.06414087                0.19781378               -0.02206192               -0.00705457                0.71974097
               2.74763156                9.34759627               21.95861263                0.59293221                0.04437022                0.04899808               -0.15621616                0.00042372                0.07683711               -0.52724217
               3.74858250                9.25102116               21.82761739                0.02687069               -0.90196026                0.15835319               -0.51000379                0.88265272                8.74990528               -1.46512576
               4.72959236                9.17162130               21.86845294                0.00010000               -2.20407120                1.02051916               -0.46430898                0.98035636               17.57560398               -0.07397906
               5.70450108                9.09249369               21.91472952                0.00010000               -2.56933034                1.11725843               -0.31345066                0.57893809               17.85177618                0.04434007
               6.67820575                9.00900160               21.96216940                0.00010000               -2.72315452                1.14592371               -0.16862193                0.18226578               18.01792240                0.18899201
               7.65003799                8.92234348               22.01286377                0.00010000               -2.94597721                1.12757163               -0.03595714               -0.26538179               18.39863518                0.37205938
               8.61928621                8.83036936               22.06907262                0.02790552               -2.92425354                1.00313108                0.08575562               -0.87654691               19.01762039                0.67405900
               9.59155292                8.73611496               22.13336865                0.33555138               -1.38357580               -0.05208978                0.18428010               -0.90325387                9.81242230                1.29199618
              10.59161469                8.65973714               22.00633721                0.75415077                0.08150575                0.07714122               -0.28555776               -0.02444063                0.11216885                0.56505258
              11.59318303                8.58415324               21.87635963                0.98160794                0.15683412                0.24855689               -0.76930750               -0.01100808               -0.02428553               -0.59961259
               1.84311768               10.44335508               22.05907765                1.00000000                0.03542066               -0.04477164                0.06658802                0.03712818                0.39416279                0.59911109
               2.84347189               10.34830378               21.92326057                0.83161088                0.08568770                0.07075152               -0.29288355                0.05665901                0.75438616               -0.44146707
               3.84483143               10.25280762               21.79460250                0.51388886               -1.45126977                0.17864565               -0.64075457                1.43171130               10.42853578               -0.92900981
               4.81444649               10.18444015               21.85227020                0.36488990               -2.78303847                1.28188452               -0.48140490                1.05324281               19.49840460                0.03638275
               5.78917066               10.10416421               21.90586331                0.35610078               -2.50694167                1.16705217               -0.33416408                0.28914517               19.35513079                0.03525919
               6.76430766               10.02088388               21.96155569                0.37419701               -2.56967949                1.18822827               -0.17023101                0.10995587               19.59185446                0.11602641
               7.73777707                9.93415951               22.02083241                0.41719674               -2.84862181                1.18160306               -0.01274436               -0.08745172               20.03383815                0.21720167
               8.70733522                9.84365667               22.08646812                0.52254139               -3.52525406                1.32873094                0.14096244               -1.12071458               20.80954834                0.39443915
               9.66727199                9.73564719               22.16272880                0.68467296               -2.04226950               -0.04677650                0.26044957               -1.59205439               11.23947867                0.79890868
              10.66648983                9.66037743               22.03904367                0.90337106                0.02564249                0.06402898               -0.19612502                0.02865098                0.78691906                0.46800777
              11.66778484                9.58646993               21.90601843                0.98688183                0.12950116                0.23166904               -0.69161509                0.06943087                0.33248006               -0.49880505
               0.91055949                0.50433720               23.34887280                1.00000000               -0.34947827               -0.37903647                1.32260506               -0.06639606               -0.80376433                0.83598216
               1.90706471                0.39205276               23.27044158                1.00000000               -0.29221375               -0.30074625                1.06197512               -0.05302865               -1.02576308                0.06588686
               2.90471522                0.27951593               23.18753760                1.00000000               -0.16169878               -0.22243894                0.78715995               -0.04168566               -0.97568799               -0.20985961
               3.90383073                0.16790573               23.11010541                0.62503064                0.30025218               -0.17486899                0.52332327                0.45573158               -0.04548051               -0.66004067
               4.91072026                0.06787661               23.04583503                0.71437474                0.44656119               -0.05636560                0.22620345               -0.07808582                0.41052887                0.17979671
               5.91276196               -0.02358877               22.97790979                0.79806486                0.14717459                0.02767102               -0.05453518               -0.00280277                0.04730284                0.10158788
               6.91366375               -0.11346901               22.90638407                0.77495983                0.07885924                0.10208853               -0.33240033                0.00809813               -0.14865235               -0.06440703
               7.91433914               -0.20365426               22.83445232                0.86974487                0.09530925                0.19078781               -0.62183487                0.02352551               -0.39086310                0.08077906
               8.91556994               -0.29610008               22.75787548                1.00000000                0.19728320                0.28213490               -0.91026213                0.01027385               -0.73597453                0.46795630
               9.91828481               -0.39022172               22.67888350                1.00000000                0.32879761                0.35197667               -1.19274968               -0.04136239               -0.78484794                0.00730637
              10.92214589               -0.48458576               22.60132918                1.00000000                0.38610833                0.43189677               -1.46107405               -0.05654310               -0.71666317               -0.72743459
               1.02217997                1.50054684               23.31790990                1.00000000               -0.32349124               -0.35996729                1.19931617               -0.02614196               -0.10903397                1.13605202
               2.01894506                1.38904530               23.23909951                1.00000000               -0.29040493               -0.27980800                0.94014894               -0.00893189               -0.08334553                0.09294241
               3.01637187                1.27729154               23.16076107                0.83726001               -0.23686760               -0.20011422                0.67126815                0.01822877                0.13098992               -0.58255848
               4.01420771                1.16615704               23.08619580                0.17798148               -0.53426097               -0.16374421                0.39506211                0.64461414                1.64641053               -1.07040955
               5.00568665                1.06731295               23.03810312                0.34287890               -0.54004833                0.06819041                0.15492985               -0.10164942                2.35835845                0.97630138
               6.00340674                0.97668794               22.97731871                0.44187927               -0.09545882                0.08944731               -0.10379991                0.15054178                1.50244814                0.39286485
               7.00377748                0.88755187               22.91201020                0.33303904                0.12415942                0.06850416               -0.36316056                0.19826806                1.40206615               -0.37687429
               8.00588993                0.79825362               22.84927542                0.47701309                0.25894639                0.18869484               -0.61581252                0.21470939                1.39716192                0.59899985
               9.00895641                0.70672127               22.78408354                1.00000000                0.31120461                0.26983266               -0.87005802                0.09538045                0.71303870                0.68277616
              10.01211402                0.61329805               22.70786296                1.00000000                0.34940448                0.34337036               -1.13667907                0.00198732                0.09338681                0.09389688
              11.01594449                0.51973321               22.63033321                1.00000000                0.38304737                0.42204126               -1.40417670               -0.01434886                0.02533412               -0.86279239
               1.13303973                2.49713786               23.29291040                1.00000000               -0.28983600               -0.32792653                1.08795094               -0.01898769                0.03966480                1.44524207
               2.13014137                2.38645660               23.20825804                1.00000000               -0.25358419               -0.24400997                0.82127862                0.00570302                0.18558097                0.06741584
               3.12796805                2.27551364               23.12648720                0.47960454               -0.17198851               -0.16781174                0.56629672                0.04119880                0.79675751               -1.32390351
               4.12670160                2.16463085               23.05404245                0.00010000               -1.49058351               -0.14767960                0.28418842                0.89718951                4.49736288               -1.97354426
               5.09815638                2.06924042               23.04629290                0.00010000               -1.55838626                0.15551729                0.08293532                1.68968084                5.00323859               -1.27348614
               6.09553387                1.97820018               22.98255822                0.00010000               -0.10464709               -0.06970781               -0.14546167                1.42180181                1.82959377               -0.40506360
               7.09606343                1.88790107               22.91141154                0.00010000                0.19650280               -0.14870383               -0.37600810                1.18134897                3.16355782                0.35518242
               8.09946393                1.80011964               22.87450682                0.00010000                0.31848417               -0.10705041               -0.61620434                0.79827267                3.68839100                0.88560121
               9.10243312                1.70929657               22.81466759                0.49528652                0.29243410                0.26258528               -0.81482676                0.15871407                1.72428710                1.35794209
              10.10531261                1.61664569               22.73864528                1.00000000                0.32777333                0.32968306               -1.07508295                0.02092198                0.61922118                0.60024765
              11.10898858                1.52385507               22.65669703                1.00000000                0.36759716                0.40809873               -1.35842717               -0.00879298                0.32203795               -0.87508113
               1.24316273                3.49398831               23.26810382                1.00000000               -0.24793957               -0.30368373                0.97511405               -0.01544721                0.06313331                1.40135182
               2.24068333                3.38416510               23.17636445                1.00000000               -0.20705640               -0.21319279                0.69947043                0.00586320                0.07581578               -0.03793233
               3.23902160                3.27393530               23.08482863                0.28454303               -0.11293053               -0.12944784                0.42720429                0.00394078                1.02079822               -1.59377013
               4.23842472                3.16320345               23.01196870                0.00010000               -0.65553279               -0.09960546                0.15958740                0.92267091                4.68694704               -2.62884565
               5.22591095                3.07042330               22.99366634                0.00010000               -1.26212984                0.04852728                0.00361638                2.43710962                6.95086877               -3.09806040
               6.21318213                2.97529378               22.96605857                0.00010000               -1.02129747               -0.07404657               -0.15728591                2.01600439                6.14174376               -1.14514864
               7.20548500                2.88457779               22.93142957                0.00010000               -0.63611241               -0.15204810               -0.32936043                1.68951349                5.69920334                0.91167291
               8.20045988                2.79611261               22.89507543                0.00010000               -0.49401792               -0.17908162               -0.51218127                1.28538476                5.39358423                1.12209213
               9.19560464                2.71197298               22.85440225                0.24945364               -0.12429546                0.21348068               -0.72393911                0.44492178                3.37792587                2.54617481
              10.19797397                2.61989171               22.77779469                1.00000000                0.28726184                0.30343019               -0.98452576                0.00733750                0.79820405                0.97008018
              11.20134987                2.52789518               22.68544570                1.00000000                0.33759057                0.40416192               -1.30535497               -0.01436125                0.01344718               -0.61188211
               1.35237720                4.49106418               23.24221029                1.00000000               -0.20655639               -0.27614623                0.85373479               -0.02076729                0.08409178                1.26682316
               2.35031164                4.38219275               23.14337589                0.91418507               -0.16843462               -0.17509810                0.56944615                0.00010355                0.11430850               -0.16277882
               3.34900851                4.27292469               23.04509214                0.17314544               -0.08223081               -0.07497118                0.29543880               -0.03045937                1.13844654               -1.49046184
               4.34866702                4.16263874               22.96672669                0.00010000               -0.71001359                0.07108397               -0.00432184                0.72496609                6.00986885               -2.29042402
               5.33480824                4.07021096               22.96566037                0.00010000               -1.34837770                0.08665824               -0.09977513                1.40648824                9.45863325               -1.40804065
               6.32169947                3.97671924               22.95653892                0.00010000               -1.28866799                0.19967927               -0.18194834                1.27392477                8.77523897               -0.50997920
               7.30903488                3.88486011               22.94203917                0.00010000               -1.19615112                0.14797590               -0.28728263                1.11754622                8.36966330                0.55589695
               8.29777645                3.79653800               22.92491685                0.00010000               -1.07412108                0.12579443               -0.41892629                1.03869563                8.28876256                1.64838140
               9.28755246                3.71356619               22.90884528                0.22758442               -0.41196452                0.12592064               -0.58416518                0.44322399                4.51277657                3.01766862
              10.28953715                3.62271429               22.81605745                0.89262477                0.25709747                0.26241624               -0.90077576                0.00585500                0.37388472                0.95414164
              11.29269441                3.53193830               22.71698893                1.00000000                0.31572507                0.39938650               -1.23635789               -0.01791257                0.06449958               -0.45203839
               1.46049026                5.48846538               23.21469957                1.00000000               -0.16653567               -0.23766416                0.72329241               -0.02485411                0.12131065                1.10484718
               2.45882490                5.38066314               23.10895006                0.74096533               -0.12619191               -0.12903248                0.42144611               -0.00554183                0.23677930               -0.35883761
               3.45796642                5.27243588               23.00545390                0.11733689               -0.15935664               -0.02193785                0.13289476                0.03907697                1.82940520               -1.68986738
               4.45563777                5.16462513               22.93155079                0.00010000               -0.90031060                0.32702207               -0.28366330                0.50220712                7.79674457               -0.88518846
               5.43996021                5.07215646               22.94691155                0.00010000               -1.58131447                0.30759565               -0.21528401                1.09388407               11.76002605               -0.60036726
               6.42401148                4.97928737               22.95288967                0.00010000               -1.59715233                0.35162838               -0.20688458                0.85078825               11.07934463               -0.01267243
               7.40801716                4.88753731               22.95509824                0.00010000               -1.57418838                0.33965688               -0.24526713                0.71299955               10.81978645                0.76772408
               8.39252771                4.79862850               22.95613660                0.00010000               -1.48621642                0.24462102               -0.31828663                0.70709170               10.82232284                1.68486886
               9.37829283                4.71449139               22.95841462                0.23463321               -0.64043795                0.07104771               -0.42031441                0.31291717                5.60713253                2.61822469
              10.37971895                4.62514003               22.85491662                0.79233135                0.21253803                0.22475281               -0.77637611                0.00880446                0.19972619                0.96055431
              11.38254359                4.53588291               22.74882498                1.00000000                0.28246410                0.38368082               -1.15252585               -0.01970540                0.07579462               -0.46244355
               1.56748461                6.48631090               23.18554431                1.00000000               -0.12543063               -0.19173108                0.58720706               -0.02474778                0.06878472                0.96068721
               2.56623030                6.37961210               23.07199607                0.63112926               -0.08282779               -0.08217921                0.27129775               -0.00515141                0.23272035               -0.53922594
               3.56582805                6.27248593               22.96167244                0.08844149               -0.36198625                0.02860037               -0.03296626                0.21057881                3.56291889               -2.02398580
               4.55899058                6.16917918               22.91472958                0.00010000               -1.19021864                0.49809267               -0.52600228                0.48207354               10.13467897                0.11599824
               5.54202368                6.07636288               22.93512720                0.00010000               -1.78280973                0.52174110               -0.30143919                0.84802105               13.34535340               -0.05789509
               6.52333438                5.98375181               22.95337573                0.00010000               -1.90349714                0.55184045               -0.21901725                0.59554835               13.12789539                0.30318005
               7.50395374                5.89165324               22.97006738                0.00010000               -1.91850903                0.49246893               -0.19818869                0.37286280               13.03926722                0.88853126
               8.48496420                5.80143042               22.98689120                0.00010000               -1.83272364                0.31323304               -0.21540727                0.30659409               13.11657823                1.61373346
               9.46729927                5.71498714               23.00519509                0.25217461               -0.83212425                0.02946265               -0.25978423                0.10001691                6.69052093                2.39264605
              10.46832172                5.62720935               22.89331010                0.73336047                0.17576337                0.18848376               -0.65555648                0.00685625                0.11983553                0.89272406
              11.47081453                5.53961192               22.77996290                1.00000000                0.24928147                0.35841857               -1.05735388               -0.01605967                0.05361922               -0.52404885
               1.67339291                7.48463076               23.15511546                1.00000000               -0.08460661               -0.14521023                0.45120084               -0.02355302                0.02932790                0.87261713
               2.67254684                7.37901955               23.03390674                0.57475263               -0.03909991               -0.03715272                0.12460690               -0.00281100                0.16078289               -0.60956954
               3.67261091                7.27300789               22.91527424                0.07262445               -0.55722753                0.07383973               -0.19805542                0.40290048                5.45034180               -2.20585151
               4.66140229                7.17458698               22.89985899                0.00010000               -1.51314553                0.57297510               -0.54552247                0.69522822               12.76500607                0.03289729
               5.64234800                7.08259129               22.92720342                0.00010000               -2.03851068                0.72741221               -0.33297923                0.75875465               14.92956455                0.16307859
               6.62063208                6.99032418               22.95602503                0.00010000               -2.22760976                0.78169554               -0.21179244                0.40077571               15.00712590                0.42630471
               7.59779580                6.89738669               22.98560704                0.00010000               -2.26531908                0.68018567               -0.14689357                0.03604922               15.10661878                0.87351945
               8.57532570                6.80489316               23.01684345                0.00010000               -2.16407772                0.40082564               -0.11662412               -0.16305440               15.29901751                1.48619760
               9.55451425                6.71508064               23.05043700                0.27564224               -1.00471993               -0.00821549               -0.11229144               -0.16839916                7.75874110                2.24152917
              10.55523130                6.62890971               22.93079228                0.70480236                0.14514996                0.15115504               -0.53700469                0.00030639                0.06909161                0.80368577
              11.55741725                6.54305128               22.81033622                1.00000000                0.21859510                0.32774440               -0.96402318               -0.01303474                0.03655689               -0.59304754
               1.77823597                8.48340669               23.12414992                1.00000000               -0.04390081               -0.10124394                0.31722814               -0.02258129                0.01108853                0.84748579
               2.77779696                8.37886904               22.99549082                0.56679022                0.00413333                0.00694070               -0.01930768               -0.00065535                0.06124745               -0.62577524
               3.77831863                8.27396272               22.86778269                0.05947990               -0.72426070                0.11675958               -0.35880401                0.60441455                7.17372863               -2.14619487
               4.76331174                8.18063868               22.88137209                0.00010000               -1.84285252                0.68961205               -0.49369007                0.95928846               15.46780534               -0.09259730
               5.74146158                8.09091112               22.91972838                0.00010000               -2.33786249                0.95757700               -0.32192200                0.72586887               16.70426712                0.15994444
               6.71655449                7.99938572               22.95888336                0.00010000               -2.56779201                1.01419732               -0.19298712                0.25524299               16.82259195                0.37953133
               7.69010574                7.90525696               23.00026879                0.00010000               -2.62726640                0.94035779               -0.09641983               -0.24853794               17.08024113                0.70889826
               8.66400917                7.80944694               23.04511532                0.01030302               -2.50955033                0.57310868               -0.02645375               -0.71195725               17.45100264                1.22418076
               9.63991474                7.71482283               23.09424781                0.30363978               -1.18259815               -0.03616281                0.02045880               -0.51316181                8.85781530                2.01964165
              10.64035720                7.63023245               22.96734553                0.70619339                0.11779735                0.11621016               -0.42647232               -0.01100392                0.04057760                0.73217797
              11.64227068                7.54616681               22.83986086                1.00000000                0.19134794                0.29381864               -0.87720753               -0.01015019                0.02088462               -0.66828821
               1.88201659                9.48260588               23.09315861                1.00000000               -0.00388825               -0.06060111                0.18575576               -0.02198279               -0.00789116                0.72551885
               2.88197770                9.37915837               22.95703045                0.59054599                0.04564854                0.05049724               -0.16068230                0.00050349                0.07630675               -0.53894789
               3.88292956                9.27534308               22.82253442                0.02652600               -0.91690207                0.15788849               -0.50707472                0.86661982                8.94813771               -1.48720129
               4.86363966                9.18837923               22.86383901                0.00010000               -2.24056102                1.03530385               -0.45421496                0.94363085               18.03717604                0.02347665
               5.83811834                9.10174283               22.91158231                0.00010000               -2.61242816                1.13345502               -0.31413348                0.54719539               18.38239202                0.08957677
               6.81139110                9.01060812               22.96042837                0.00010000               -2.76772539                1.16647183               -0.17931798                0.14198558               18.56248610                0.21792037
               7.78276383                8.91619385               23.01240441                0.00010000               -2.99352115                1.15189608               -0.05637483               -0.31958153               18.95483201                0.40061941
               8.75152068                8.81635533               23.06978196                0.03041811               -2.96491630                1.02893298                0.05572316               -0.94748622               19.57784652                0.71775897
               9.72346550                8.71435739               23.13496775                0.33363815               -1.39267179               -0.03819812                0.13366472               -0.95558143               10.10312326                1.34474031
              10.72366724                8.63123391               23.00327715                0.73512534                0.09400076                0.08880016               -0.32749890               -0.02602312                0.11987464                0.59292210
              11.72534552                8.54892766               22.86850707                0.98220061                0.16782774                0.25927807               -0.80111036               -0.00971807               -0.02295009               -0.61359511
               1.98469134               10.48219467               23.05968543                1.00000000                0.03784904               -0.04112102                0.05452872                0.03590681                0.39763236                0.60516131
               2.98506983               10.37987899               22.92031375                0.83103443                0.08694150                0.07206192               -0.29703998                0.05550377                0.76385042               -0.45027938
               3.98643017               10.27712049               22.78821506                0.51339398               -1.46426089                0.17774150               -0.63726201                1.42335002               10.69496831               -0.94139032
               4.95578461               10.20134476               22.84746248                0.36530329               -2.81267893                1.29655352               -0.47906623                1.03748141               20.04185777                0.08998834
               5.93017659               10.11358022               22.90249578                0.35629988               -2.54207138                1.18373946               -0.33838256                0.27434538               19.92185613                0.05417089
               6.90494319               10.02271516               22.95978428                0.37401002               -2.61048445                1.21070351               -0.18421628                0.09094151               20.18383314                0.12612592
               7.87796690                9.92829488               23.02059069                0.41655293               -2.90236407                1.21010327               -0.03620530               -0.11417074               20.64196168                0.22722102
               8.84689590                9.83002560               23.08772344                0.52441496               -3.60211867                1.36702644                0.11029484               -1.17427779               21.41554597                0.41496498
               9.80592453                9.71405887               23.16505768                0.68411795               -2.08147178               -0.02985156                0.20316631               -1.65495473               11.57035600                0.83063778
              10.80526647                9.63200845               23.03684554                0.89259603                0.03821481                0.07745399               -0.24478000                0.02459781                0.82017488                0.48852629
              11.80668883                9.55135237               22.89891360                0.98681306                0.14223574                0.24247132               -0.72935075                0.06872284                0.34711324               -0.51478200
               0.98217558                0.54435178               24.36206433                1.00000000               -0.34783932               -0.37715192                1.31577888               -0.06582410               -0.81988554                0.85088902
               1.97869719                0.42468825               24.28102885                1.00000000               -0.29140775               -0.29885144                1.05581050               -0.05206548               -1.04916872                0.07073665
               2.97634742                0.30477038               24.19537824                1.00000000               -0.16282133               -0.22062705                0.78187156               -0.04126598               -1.00158592               -0.21010882
               3.97544076                0.18572708               24.11530292                0.62599479                0.28790212               -0.17354869                0.51807719                0.43703702               -0.08302289               -0.68295227
               4.98210547                0.07782231               24.04808082                0.71532906                0.43470450               -0.05618451                0.22383791               -0.08050481                0.36056207                0.19077352
               5.98413485               -0.02170062               23.97737100                0.79872274                0.14880575                0.02725254               -0.05322830               -0.00573343                0.00522004                0.10811765
               6.98508158               -0.11959656               23.90308555                0.77524759                0.08648398                0.10083295               -0.32795756                0.00677333               -0.19543705               -0.06684142
               7.98586453               -0.21766796               23.82827732                0.86996552                0.10483588                0.18858660               -0.61411783                0.01943411               -0.44255676                0.08665546
               8.98717830               -0.31776908               23.74883037                1.00000000                0.20164317                0.27830359               -0.89982649                0.00695046               -0.78362085                0.47985215
               9.98989739               -0.41940995               23.66702743                1.00000000                0.32734929                0.34863343               -1.17956196               -0.04045305               -0.82178353                0.00690315
              10.99372528               -0.52128540               23.58680010                1.00000000                0.38278926                0.42880659               -1.44597216               -0.05429079               -0.74592220               -0.75431103
               1.10118087                1.54058026               24.32986902                1.00000000               -0.32136411               -0.35835711                1.19247579               -0.02544685               -0.11221794                1.15671405
               2.09796723                1.42169973               24.24846807                1.00000000               -0.28827608               -0.27795398                0.93388323               -0.00812097               -0.09095144                0.09921841
               3.09541535                1.30256411               24.16745069                0.84596754               -0.23410329               -0.19809972                0.66676114                0.01674748                0.11601715               -0.57887842
               4.09328516                1.18399159               24.09014804                0.18518831               -0.52005427               -0.16131992                0.39430644                0.61929633                1.64438761               -1.08862800
               5.08501426                1.07726047               24.03962620                0.34983032               -0.52491059                0.06538928                0.15042681               -0.10753791                2.36881758                0.98635000
               6.08278695                0.97857191               23.97626873                0.44963233               -0.09406387                0.08777292               -0.10586126                0.13673576                1.50631527                0.40310290
               7.08313299                0.88141177               23.90838146                0.34161216                0.11790870                0.07380411               -0.36260712                0.18699830                1.40951261               -0.37040885
               8.08514513                0.78421790               23.84313118                0.48328897                0.24929046                0.18737570               -0.61336906                0.19640902                1.40818299                0.60185155
               9.08811880                0.68501396               23.77540854                1.00000000                0.30529480                0.26735884               -0.86540537                0.08775196                0.71798483                0.70224649
              10.09125102                0.58407639               23.69653125                1.00000000                0.34695172                0.34065571               -1.13025731                0.00247265                0.09208487                0.09674205
              11.09505783                0.48300267               23.61633707                1.00000000                0.38068079                0.42073994               -1.39575772               -0.01233270                0.02408868               -0.89452253
               1.21942770                2.53718464               24.30375391                1.00000000               -0.28767826               -0.32687262                1.08061445               -0.01800409                0.04094700                1.47066733
               2.21655092                2.41912917               24.21644041                1.00000000               -0.25185907               -0.24216504                0.81520963                0.00671709                0.19251861                0.07343686
               3.21439052                2.30080839               24.13211212                0.49085821               -0.17102929               -0.16505914                0.55971438                0.03912035                0.79647971               -1.33151088
               4.21313033                2.18250068               24.05685059                0.00010000               -1.45080646               -0.14491982                0.27834762                0.86444446                4.52537332               -1.99343714
               5.18537439                2.07913010               24.04708315                0.00010000               -1.52060325                0.14473278                0.07552264                1.61778643                5.07716625               -1.26630851
               6.18271827                1.98005484               23.98107543                0.00010000               -0.10994183               -0.07168907               -0.15058234                1.35835862                1.89022417               -0.37586568
               7.18317555                1.88187952               23.90762971                0.00010000                0.17361254               -0.14414438               -0.37984496                1.11957097                3.21857866                0.39968946
               8.18619052                1.78607955               23.86833077                0.00010000                0.29496516               -0.10396178               -0.61912031                0.75153569                3.76239271                0.93789456
               9.18907485                1.68757810               23.80650718                0.49937746                0.28838104                0.25958144               -0.81730453                0.14186726                1.78780807                1.40257214
              10.19195814                1.58740317               23.72789393                1.00000000                0.32756101                0.32645991               -1.07521937                0.01716607                0.64093649                0.62028641
              11.19562608                1.48712940               23.64312610                1.00000000                0.36679378                0.41030716               -1.35580667               -0.00818965                0.33243945               -0.90861347
               1.33693173                3.53404281               24.27781387                1.00000000               -0.24539083               -0.30298952                0.96684793               -0.01448819                0.06748321                1.42137104
               2.33447782                3.41685643               24.18333011                1.00000000               -0.20527422               -0.21132977                0.69359887                0.00704737                0.08217843               -0.03779801
               3.33282625                3.29926293               24.08908775                0.29391118               -0.11127395               -0.12652196                0.42448700                0.00113345                1.02932311               -1.61360107
               4.33225234                3.18109319               24.01352749                0.00010000               -0.65052092               -0.10055615                0.15379634                0.88382146                4.75140297               -2.66639630
               5.31981583                3.08015512               23.99368256                0.00010000               -1.25238199                0.03903395               -0.00023552                2.33319684                7.07912634               -3.10539482
               6.30720470                2.97713813               23.96445416                0.00010000               -1.01580665               -0.07837555               -0.16314582                1.92369717                6.27104070               -1.10402576
               7.29949970                2.87852888               23.92810118                0.00010000               -0.63637223               -0.15738699               -0.33666210                1.59938638                5.82577617                0.98677369
               8.29447726                2.78213867               23.88990683                0.00010000               -0.49335846               -0.17923002               -0.52164451                1.22156318                5.50742051                1.22254091
               9.28963253                2.69020559               23.84711262                0.24791234               -0.12171076                0.20024235               -0.73361522                0.41244229                3.46184657                2.63171254
              10.29204304                2.59060559               23.76790926                1.00000000                0.29045249                0.30034681               -0.99200338               -0.00001294                0.82870896                1.00021312
              11.29544158                2.49120881               23.67237090                1.00000000                0.33985316                0.40859462               -1.30903991               -0.01309349                0.01410373               -0.63455776
               1.45351069                4.53112485               24.25070001                1.00000000               -0.20389449               -0.27533707                0.84425450               -0.02028438                0.09180790                1.27788231
               2.45147174                4.41490257               24.14904163                0.90501483               -0.16671317               -0.17303156                0.56354695                0.00043568                0.12724770               -0.17570478
               3.45017643                4.29827795               24.04803814                0.17879447               -0.07785890               -0.07214332                0.29343993               -0.03802248                1.14520885               -1.52249485
               4.44991457                4.18048955               23.96672365                0.00010000               -0.70915179                0.06130065                0.00245223                0.68863352                6.09904073               -2.39510078
               5.43599339                4.07991078               23.96467893                0.00010000               -1.35480564                0.08389451               -0.09719670                1.33224812                9.66499717               -1.43190770
               6.42281845                3.97848733               23.95469783                0.00010000               -1.29153263                0.19395025               -0.18631338                1.19831367                8.98771047               -0.47571861
               7.41016274                3.87873178               23.93911987                0.00010000               -1.19366913                0.14030694               -0.29713471                1.04088251                8.57039423                0.62848585
               8.39894507                3.78249495               23.92065366                0.00010000               -1.06529772                0.11699933               -0.43405121                0.96337502                8.47163629                1.74604584
               9.38885678                3.69158295               23.90289575                0.22461762               -0.39952072                0.10599825               -0.60533199                0.40698982                4.61795957                3.13685956
              10.39095466                3.59341010               23.80696200                0.87287400                0.26504882                0.26093019               -0.91751589                0.00375074                0.39778316                1.00119603
              11.39415776                3.49530129               23.70456826                1.00000000                0.32031032                0.40662771               -1.24686880               -0.01888650                0.07922565               -0.45989738
               1.56897060                5.52853607               24.22187896                1.00000000               -0.16371592               -0.23637619                0.71264294               -0.02476073                0.12317256                1.10854331
               2.56733344                5.41339580               24.11313444                0.73316719               -0.12458902               -0.12645772                0.41519310               -0.00591887                0.24551643               -0.38162069
               3.56647882                5.29782006               24.00677986                0.12156470               -0.14706248               -0.01833675                0.13174370                0.02069724                1.78653224               -1.73852480
               4.56439219                5.18231921               23.92884725                0.00010000               -0.90079004                0.31210612               -0.25747967                0.46364035                7.92407525               -1.02898225
               5.54846301                5.08183301               23.94480327                0.00010000               -1.60211057                0.30637289               -0.20613772                1.02471537               12.10235487               -0.61573997
               6.53234998                4.98101713               23.95080624                0.00010000               -1.60766450                0.34916590               -0.20985948                0.77748465               11.38433539                0.02567148
               7.51630972                4.88133502               23.95258832                0.00010000               -1.57281916                0.33325352               -0.25733731                0.63534337               11.10066311                0.84013944
               8.50089359                4.78447866               23.95285516                0.00010000               -1.47262768                0.23437425               -0.33858493                0.62647103               11.08746959                1.78449339
               9.48685717                4.69232555               23.95406602                0.23146941               -0.62469389                0.05647091               -0.44947630                0.27481816                5.75072640                2.74540559
              10.48839971                4.59582419               23.84704149                0.77466339                0.22121508                0.22411134               -0.79790178                0.01080421                0.21124501                1.02518384
              11.49128147                4.49934136               23.73721901                1.00000000                0.28817581                0.39406120               -1.16757630               -0.02032746                0.07698283               -0.45691128
               1.68329601                6.52639733               24.19135875                1.00000000               -0.12266359               -0.18981363                0.57567021               -0.02470728                0.06801563                0.96156336
               2.68206937                6.41237342               24.07467925                0.62495769               -0.08145212               -0.07929778                0.26510961               -0.00570542                0.23791670               -0.56101263
               3.68166697                6.29791121               23.96134141                0.09159915               -0.34474745                0.03273290               -0.03362582                0.18239356                3.48676183               -2.07346878
               4.67517442                6.18673168               23.90963856                0.00010000               -1.19385977                0.48959864               -0.48862007                0.42273548               10.31268837                0.09514799
               5.65778977                6.08603823               23.93216626                0.00010000               -1.81541406                0.52271707               -0.28884919                0.77725709               13.81366756               -0.03525560
               6.63886614                5.98547065               23.95117109                0.00010000               -1.91908443                0.55181084               -0.22169387                0.51613573               13.51478334                0.35290737
               7.61940808                5.88539685               23.96801669                0.00010000               -1.91910931                0.48837488               -0.21257409                0.28893687               13.39633614                0.96101018
               8.60048396                5.78718244               23.98461822                0.00010000               -1.82002351                0.30546033               -0.24001443                0.21781592               13.46072796                1.70847091
               9.58300761                5.69271236               24.00242972                0.24935002               -0.81645134                0.02219309               -0.29372130                0.05574594                6.86823467                2.50876009
              10.58415493                5.59789233               23.88662111                0.71729230                0.18546258                0.18948395               -0.68178980                0.00921054                0.12431183                0.95213148
              11.58671686                5.50318252               23.76929344                1.00000000                0.25619344                0.36975605               -1.07555374               -0.01602070                0.05525401               -0.51413056
               1.79652426                7.52473980               24.15956770                1.00000000               -0.08188242               -0.14264286                0.43913799               -0.02350454                0.02865900                0.87441124
               2.79570544                7.41180985               24.03512432                0.57016959               -0.03779179               -0.03444081                0.11863104               -0.00302467                0.16215930               -0.62787866
               3.79576843                7.29847472               23.91329489                0.07467278               -0.54927814                0.07726323               -0.19814537                0.37155419                5.44627443               -2.25173639
               4.78471988                7.19211118               23.89453549                0.00010000               -1.52496216                0.57330611               -0.51083747                0.61802574               13.02203653                0.15136972
               5.76526918                7.09228735               23.92392380                0.00010000               -2.07029003                0.73004012               -0.32017008                0.68493369               15.42675491                0.22643081
               6.74331408                6.99205335               23.95388530                0.00010000               -2.24462553                0.78410204               -0.21570603                0.31862874               15.45241704                0.48398204
               7.72037667                6.89110251               23.98405651                0.00010000               -2.26898401                0.67959146               -0.16381347               -0.05241160               15.52928729                0.94139372
               8.69793440                6.79058786               24.01553923                0.00010000               -2.15572386                0.39783609               -0.14518956               -0.25691901               15.71326597                1.56997794
               9.67726220                6.69276941               24.04912211                0.27330581               -0.99103105               -0.00806478               -0.15149603               -0.21753318                7.97001090                2.34114667
              10.67811377                6.59961387               23.92526716                0.68940356                0.15592469                0.15504842               -0.56805255                0.00137824                0.07069632                0.85591252
              11.68038069                6.50673648               23.80058432                1.00000000                0.22669158                0.33898339               -0.98568252               -0.01237014                0.03743692               -0.58813199
               1.90868582                8.52354447               24.12726120                1.00000000               -0.04118632               -0.09810670                0.30481021               -0.02252000                0.01059219                0.85139476
               2.90827395                8.41168460               23.99527116                0.56371111                0.00554495                0.00922681               -0.02499076               -0.00057682                0.05937964               -0.64104403
               3.90879672                8.29945648               23.86420055                0.06028783               -0.72758247                0.11850193               -0.35801548                0.57407375                7.27685277               -2.18243031
               4.89372231                8.19819780               23.87655699                0.00010000               -1.86252214                0.69446338               -0.46133984                0.88753345               15.82381449                0.04670429
               5.87154627                8.10063904               23.91654057                0.00010000               -2.36493743                0.96152306               -0.31303318                0.66226296               17.20217732                0.23239404
               6.84642356                8.00115269               23.95691841                0.00010000               -2.58604682                1.02028667               -0.19959670                0.18344720               17.30770505                0.43073879
               7.81982534                7.89898868               23.99921128                0.00010000               -2.63724401                0.94657329               -0.11553478               -0.33045824               17.55975299                0.76327381
               8.79367868                7.79513916               24.04469528                0.01170577               -2.50971980                0.57642761               -0.05846593               -0.80461086               17.92787016                1.29573980
               9.76963094                7.69255107               24.09422792                0.30168021               -1.17316263               -0.02847624               -0.02563023               -0.56439315                9.10178431                2.10083611
              10.77021542                7.60099330               23.96289923                0.69002573                0.12966445                0.12408525               -0.46331612               -0.01148943                0.04270338                0.77323830
              11.77222423                7.50996218               23.83095640                1.00000000                0.20088067                0.30460562               -0.90336646               -0.00893657                0.02162774               -0.67281488
               2.01979359                9.52277766               24.09495412                1.00000000               -0.00117025               -0.05698987                0.17300810               -0.02193432               -0.00870713                0.73081535
               3.01978189                9.41199438               23.95539898                0.58813225                0.04715554                0.05234998               -0.16607465                0.00062046                0.07573901               -0.55012583
               4.02073671                9.30084476               23.81747590                0.02575053               -0.92469523                0.15810246               -0.50507328                0.83957095                9.14853763               -1.50754252
               5.00128799                9.20600045               23.85936864                0.00010000               -2.25885764                1.03975830               -0.43583767                0.89768382               18.48913006                0.11353528
               5.97555955                9.11151782               23.90844685                0.00010000               -2.63273045                1.13908238               -0.31143357                0.50991758               18.89181456                0.13337958
               6.94863338                9.01245908               23.95858304                0.00010000               -2.78892564                1.17709480               -0.18959565                0.09910126               19.08719646                0.24694638
               7.91978104                8.91003398               24.01173627                0.00010000               -3.01767952                1.16713481               -0.07751022               -0.37454332               19.49171300                0.43042499
               8.88827979                8.80211641               24.07018709                0.03331014               -2.98304231                1.04669211                0.02555753               -1.01668112               20.11186399                0.76588163
               9.86012019                8.69219989               24.13604194                0.33194632               -1.39034581               -0.02354855                0.07951046               -1.00473835               10.37655314                1.39468151
              10.86047287                8.60209557               23.99978723                0.71603657                0.10719990                0.10089356               -0.37145313               -0.02746552                0.12690868                0.61979900
              11.86226419                8.51282860               23.86033742                0.98258978                0.17913201                0.26995183               -0.83280044               -0.00835996               -0.02137379               -0.62624580
               2.12981369               10.52240467               24.06016822                1.00000000                0.04055753               -0.03729916                0.04161310                0.03470281                0.40085312                0.61077757
               3.13021927               10.41273160               23.91731977                0.83047853                0.08841901                0.07372197               -0.30232444                0.05443033                0.77300820               -0.45864517
               4.13158207               10.30261853               23.78185725                0.51273764               -1.46081703                0.17737685               -0.63492885                1.39760478               10.95741653               -0.95244242
               5.10100293               10.21899297               23.84268888                0.36569392               -2.81480411                1.29925188               -0.47485114                1.01160169               20.57347168                0.13590599
               6.07528599               10.12342068               23.89909566                0.35649084               -2.55567545                1.19028691               -0.34092436                0.25772470               20.47089193                0.07220783
               7.04988942               10.02469459               23.95787136                0.37382040               -2.63044246                1.22355032               -0.19861134                0.07113837               20.75628827                0.13635235
               8.02267714                9.92233137               24.02010830                0.41588875               -2.93551358                1.22973941               -0.06062801               -0.14146921               21.23224284                0.23814411
               8.99117915                9.81607300               24.08867402                0.52653996               -3.65600624                1.39565872                0.08094592               -1.22262808               21.99271307                0.43946511
               9.94955702                9.69208010               24.16679212                0.68374032               -2.10708698               -0.01197915                0.14170459               -1.70940940               11.87920012                0.85976837
              10.94903741                9.60301117               24.03414807                0.88184866                0.05169853                0.09155964               -0.29601430                0.02050953                0.85202482                0.50787406
              11.95059099                9.51536122               23.89143141                0.98671385                0.15535800                0.25326227               -0.76727054                0.06768434                0.36174313               -0.52978423
               1.05623273                0.58574560               25.37518837                1.00000000               -0.34653084               -0.37540696                1.30930071               -0.06517687               -0.83561297                0.86528689
               2.05276742                0.45858906               25.29155779                1.00000000               -0.29116520               -0.29709520                1.05041274               -0.05114377               -1.07211162                0.07537172
               3.05040943                0.33116885               25.20317503                1.00000000               -0.16498648               -0.21887593                0.77810632               -0.04134691               -1.02717513               -0.21038118
               4.04946769                0.20455647               25.12046695                0.62669718                0.27269967               -0.17196481                0.51550200                0.41684881               -0.11976971               -0.70415396
               5.05586342                0.08860132               25.05031179                0.71564863                0.41969666               -0.05636922                0.22316395               -0.08102693                0.31324377                0.20070672
               6.05786163               -0.01922186               24.97684522                0.79853594                0.14926365                0.02674357               -0.05171291               -0.00833275               -0.03413155                0.11446525
               7.05884869               -0.12539766               24.89982492                0.77496246                0.09407825                0.09971924               -0.32465334                0.00530911               -0.23981278               -0.06889240
               8.05974319               -0.23162886               24.82216996                0.86962938                0.11493588                0.18660595               -0.60837396                0.01524724               -0.49196866                0.09219290
               9.06114741               -0.33965937               24.73987895                1.00000000                0.20681085                0.27487576               -0.89165305                0.00373948               -0.82909211                0.49192252
              10.06387941               -0.44909130               24.65529226                1.00000000                0.32673509                0.34576876               -1.16870872               -0.03955089               -0.85692725                0.00675388
              11.06768211               -0.55874593               24.57240974                1.00000000                0.38027050                0.42626846               -1.43341306               -0.05221209               -0.77382056               -0.77965008
               1.18273751                1.58199153               25.34175941                1.00000000               -0.31931473               -0.35696228                1.18568896               -0.02469579               -0.11536756                1.17655056
               2.17954436                1.45561810               25.25777717                1.00000000               -0.28626270               -0.27628793                0.92819015               -0.00726612               -0.09830778                0.10536576
               3.17701225                1.32898009               25.17409629                0.85418016               -0.23122065               -0.19612405                0.66244105                0.01483762                0.10197588               -0.57543765
               4.17491995                1.20283682               25.09408193                0.19188171               -0.50349693               -0.15869062                0.39187356                0.59139389                1.64140868               -1.10685552
               5.16694231                1.08803763               25.04111165                0.35586341               -0.50710798                0.06282882                0.14692500               -0.10898998                2.37823877                0.99493802
               6.16477779                0.98104557               24.97520148                0.45626182               -0.09185163                0.08596466               -0.10744822                0.12460371                1.51153987                0.41333261
               7.16510528                0.87559953               24.90475806                0.34948574                0.11243649                0.07864016               -0.36225855                0.17613020                1.41799116               -0.36373887
               8.16702652                0.77023720               24.83700804                0.48888285                0.24053723                0.18653647               -0.61177334                0.17904945                1.41972425                0.60430115
               9.16991603                0.66308939               24.76677543                1.00000000                0.30003321                0.26516468               -0.86178485                0.08039477                0.72324631                0.72122772
              10.17302718                0.55436639               24.68525782                1.00000000                0.34492992                0.33823509               -1.12507286                0.00301871                0.09099606                0.10006721
              11.17681462                0.44551675               24.60241806                1.00000000                0.37874438                0.41974511               -1.38873624               -0.01041795                0.02314671               -0.92411754
               1.30848567                2.57860636               25.31452269                1.00000000               -0.28521300               -0.32609511                1.07303257               -0.01718611                0.04236619                1.49479835
               2.30563354                2.45306330               25.22456223                1.00000000               -0.24991019               -0.24050893                0.80928153                0.00743388                0.19889927                0.07962959
               3.30348747                2.32724637               25.13768149                0.50260576               -0.16977523               -0.16214163                0.55470530                0.03588950                0.79476439               -1.33739184
               4.30223803                2.20138265               25.05960940                0.00010000               -1.40063010               -0.14171756                0.27336818                0.82747758                4.54972116               -2.01210916
               5.27547486                2.08985790               25.04780336                0.00010000               -1.47231210                0.13409985                0.06873395                1.53696344                5.14995245               -1.25694385
               6.27279179                1.98249743               24.97954658                0.00010000               -0.11475979               -0.07273544               -0.15486671                1.28618908                1.95153654               -0.34525692
               7.27317967                1.87617514               24.90381464                0.00010000                0.15212644               -0.13882093               -0.38280584                1.05235033                3.27314264                0.44412087
               8.27583432                1.77210187               24.86212442                0.00010000                0.27232258               -0.09983341               -0.62271405                0.70195534                3.83444747                0.98911940
               9.27862612                1.66564393               24.79832150                0.50263904                0.28390487                0.25646331               -0.81994695                0.12473214                1.85013707                1.44599999
              10.28151242                1.55767340               24.71714089                1.00000000                0.32734530                0.32307538               -1.07537607                0.01338686                0.66252803                0.64062525
              11.28517303                1.44964897               24.62958090                1.00000000                0.36606063                0.41225578               -1.35320314               -0.00774078                0.34279976               -0.93961584
               1.43347990                3.57546963               25.28744078                1.00000000               -0.24268779               -0.30248092                0.95836412               -0.01394737                0.07214959                1.43973102
               2.43105302                3.45080793               25.19023643                1.00000000               -0.20346067               -0.20944874                0.68765221                0.00762776                0.08924487               -0.03739553
               3.42941069                3.32573726               25.09331837                0.30326179               -0.10975252               -0.12318493                0.42179997               -0.00311297                1.03663047               -1.63063418
               4.42885797                3.20000247               25.01504463                0.00010000               -0.64219413               -0.09828446                0.15121276                0.83756892                4.81542546               -2.69873140
               5.41656680                3.09071962               24.99366163                0.00010000               -1.23368265                0.02970974               -0.00360606                2.21237682                7.20424463               -3.10561518
               6.40418432                2.97959087               24.96279566                0.00010000               -1.00094790               -0.08223214               -0.16849324                1.81622182                6.39615902               -1.05966375
               7.39654785                2.87282312               24.92469632                0.00010000               -0.62937394               -0.16162304               -0.34447097                1.49784671                5.94734931                1.06249284
               8.39159684                2.76824054               24.88464254                0.00010000               -0.48543543               -0.17956435               -0.53135874                1.14972568                5.61711444                1.32175551
               9.38683914                2.66821866               24.83972994                0.24593322               -0.11534834                0.18530280               -0.74250229                0.37822764                3.54339375                2.71379277
              10.38928987                2.56082790               24.75795462                1.00000000                0.29347680                0.29662858               -0.99815284               -0.00744512                0.85832253                1.02914399
              11.39270867                2.45376187               24.65926491                1.00000000                0.34188001                0.41216393               -1.31138399               -0.01193427                0.01438908               -0.65526239
               1.55753013                4.57255674               25.25909538                1.00000000               -0.20116646               -0.27460596                0.83467490               -0.02009926                0.09980577                1.28711198
               2.55551846                4.44887432               25.15464683                0.89608238               -0.16497321               -0.17074129                0.55738550                0.00036169                0.14071481               -0.18864508
               3.55423066                4.32478267               25.05096094                0.18410097               -0.07557083               -0.06875738                0.29107738               -0.04418962                1.15458971               -1.55282878
               4.55400705                4.19941696               24.96677573                0.00010000               -0.70483323                0.05640530                0.00747072                0.64536538                6.18887509               -2.48613827
               5.54013400                4.09045209               24.96371643                0.00010000               -1.34971551                0.08173565               -0.09544989                1.24586675                9.86228438               -1.44654128
               6.52701274                3.98085279               24.95281265                0.00010000               -1.28235342                0.18683369               -0.19101355                1.11097093                9.19018669               -0.43736401
               7.51448693                3.87294268               24.93609648                0.00010000               -1.17897227                0.13100839               -0.30790696                0.95457245                8.76124771                0.70254901
               8.50343329                3.76851059               24.91623583                0.00010000               -1.04418115                0.10566375               -0.44973928                0.88049297                8.64449397                1.84274423
               9.49360331                3.66934998               24.89673864                0.22130687               -0.38064940                0.08234348               -0.62553873                0.36886403                4.71766694                3.25149192
              10.49582030                3.56360598               24.79770713                0.85308605                0.27315433                0.25783492               -0.93230859                0.00216293                0.42185157                1.04792177
              11.49906640                3.45789225               24.69205155                1.00000000                0.32460913                0.41288170               -1.25524856               -0.02039479                0.09465198               -0.46515810
               1.68044274                5.56997751               25.22895243                1.00000000               -0.16084214               -0.23516550                0.70195873               -0.02475137                0.12491411                1.11058171
               2.67883432                5.44739310               25.11725392                0.72540949               -0.12292452               -0.12361822                0.40848172               -0.00639431                0.25449446               -0.40425881
               3.67798425                5.32436211               25.00808877                0.12525335               -0.13692307               -0.01405727                0.12964198                0.00553937                1.75550061               -1.78537702
               4.67609586                5.20113057               24.92640120                0.00010000               -0.89679693                0.29884700               -0.23225598                0.42023399                8.05084703               -1.15418031
               5.66004831                5.09235434               24.94278879                0.00010000               -1.60913584                0.30425724               -0.19686003                0.94137372               12.42474768               -0.62305446
               6.64391314                4.98332754               24.94869248                0.00010000               -1.60334083                0.34390570               -0.21316906                0.69279151               11.67310542                0.06783791
               7.62798150                4.87544328               24.94995149                0.00010000               -1.55568722                0.32312847               -0.27054061                0.54863365               11.36693913                0.91401355
               8.61279940                4.77035381               24.94936490                0.00010000               -1.44302346                0.22025929               -0.35991020                0.53773413               11.33804069                1.88356591
               9.59912103                4.66986553               24.94942510                0.22797531               -0.60042670                0.03781352               -0.47864768                0.23442710                5.88743467                2.87070285
              10.60079087                4.56598460               24.83895858                0.75692173                0.23036000                0.22101682               -0.81765258                0.01389513                0.22338060                1.09116276
              11.60372823                4.46201950               24.72547345                1.00000000                0.29373632                0.40358703               -1.18013061               -0.02108162                0.07785308               -0.44736413
               1.80220392                6.56785343               25.19705771                1.00000000               -0.11979452               -0.18804869                0.56403114               -0.02464250                0.06717106                0.96119952
               2.80100598                6.44640196               25.07729826                0.61873591               -0.07999712               -0.07615135                0.25845585               -0.00616961                0.24314777               -0.58229781
               3.80060398                6.32450153               24.96099992                0.09407669               -0.32932375                0.03759553               -0.03508644                0.15664636                3.42904683               -2.12102813
               4.79441950                6.20539390               24.90495718                0.00010000               -1.19197360                0.47826893               -0.44503533                0.35769784               10.49190638                0.08425237
               5.77676451                6.09653723               24.92935022                0.00010000               -1.83199402                0.51956268               -0.27331921                0.69109864               14.25413743               -0.00753093
               6.75777962                5.98773090               24.94894185                0.00010000               -1.91655867                0.54644779               -0.22420159                0.42512926               13.88069561                0.40532387
               7.73843333                5.87940525               24.96581590                0.00010000               -1.90069455                0.47883428               -0.22816930                0.19654905               13.73512828                1.03474560
               8.71976573                5.77291577               24.98209091                0.00010000               -1.78861347                0.29309210               -0.26610025                0.12135097               13.78759152                1.80316452
               9.70266106                5.67010625               24.99932067                0.24623342               -0.79107501                0.01199214               -0.32842753                0.00880272                7.03727263                2.62413913
              10.70394423                5.56802631               24.87967430                0.70107169                0.19569414                0.18826223               -0.70691537                0.01249394                0.12868975                1.01247119
              11.70657495                5.46596399               24.75845182                1.00000000                0.26307171                0.38030908               -1.09158444               -0.01606086                0.05669009               -0.50009731
               1.92285283                7.56621654               25.16389822                1.00000000               -0.07899995               -0.14026294                0.42683041               -0.02344776                0.02793541                0.87533880
               2.92206283                7.44587007               25.03627936                0.56540215               -0.03637981               -0.03142263                0.11209605               -0.00316449                0.16343471               -0.64563049
               3.92212523                7.32511402               24.91131133                0.07598867               -0.54243616                0.08157919               -0.19891421                0.33958769                5.46088471               -2.29572551
               4.91121411                7.21069595               24.88964224                0.00010000               -1.52959731                0.56728543               -0.46162197                0.53300404               13.27923034                0.27165142
               5.89153329                7.10274559               24.92080002                0.00010000               -2.08331986                0.72493621               -0.30270793                0.59698724               15.89380855                0.29091008
               6.86954771                6.99425650               24.95171091                0.00010000               -2.24028394                0.77859243               -0.21906179                0.22663187               15.87408242                0.54295962
               7.84672761                6.88501997               24.98233077                0.00010000               -2.25111464                0.67187090               -0.18192212               -0.14751229               15.93112989                1.01073697
               8.82452542                6.77621565               25.01393966                0.00010000               -2.12705334                0.38990540               -0.17550312               -0.35651996               16.10746844                1.65425319
               9.80418654                6.67010537               25.04740708                0.27077640               -0.96712053               -0.00932665               -0.19198982               -0.26901998                8.17052366                2.43889221
              10.80518301                6.56974984               24.91943123                0.67379262                0.16725555                0.15754137               -0.59897299                0.00294375                0.07157699                0.90838486
              11.80753165                6.46962569               24.79062257                1.00000000                0.23486465                0.34967104               -1.00591410               -0.01171869                0.03811692               -0.58003919
               2.04242789                8.56504817               25.13024612                1.00000000               -0.03826924               -0.09506851                0.29194706               -0.02247180                0.01008352                0.85458116
               3.04204520                8.44577351               24.99499101                0.56044857                0.00709806                0.01185822               -0.03139383               -0.00035942                0.05742703               -0.65576265
               4.04256986                8.32613311               24.86062238                0.06037336               -0.72985937                0.12107511               -0.35793318                0.53857590                7.39656667               -2.21661784
               5.02744801                8.21673961               24.87214529                0.00010000               -1.87130735                0.69110468               -0.41481092                0.80700290               16.17689704                0.17857187
               6.00514371                8.11103596               24.91346771                0.00010000               -2.37050666                0.95548679               -0.29988811                0.58850404               17.66928579                0.30237342
               6.98003788                8.00330275               24.95489142                0.00010000               -2.58098884                1.01688035               -0.20574223                0.10523015               17.76944728                0.48224184
               7.95352393                7.89284267               24.99795810                0.00010000               -2.62439756                0.94426796               -0.13548819               -0.41612187               18.01709321                0.81965203
               8.92754993                7.78071388               25.04394600                0.01324511               -2.48887275                0.57392882               -0.09201542               -0.89980391               18.38084094                1.37141678
               9.90374648                7.66991972               25.09373520                0.29969133               -1.15335697               -0.02092775               -0.07377778               -0.61634302                9.33208193                2.17863030
              10.90448279                7.57117714               24.95807921                0.67366164                0.14212040                0.13156025               -0.50106460               -0.01176924                0.04388336                0.81339805
              11.90658888                7.47295741               24.82179353                1.00000000                0.21060940                0.31510247               -0.92894043               -0.00767269                0.02221349               -0.67528444
               2.16095272                9.56431517               25.09661878                1.00000000                0.00179818               -0.05330799                0.15959612               -0.02192227               -0.00949591                0.73550496
               3.16097070                9.44610724               24.95370896                0.58559955                0.04889629                0.05454951               -0.17239403                0.00080603                0.07528804               -0.56085790
               4.16193065                9.32753552               24.81243295                0.02443957               -0.92596926                0.15879131               -0.50384161                0.80251735                9.35583276               -1.52614427
               5.14245132                9.22451804               24.85512225                0.00010000               -2.25952076                1.03413990               -0.41073473                0.84437139               18.93441407                0.18933629
               6.11674023                9.12185533               24.90535364                0.00010000               -2.63028573                1.13453953               -0.30645904                0.46721486               19.37704016                0.17446170
               7.08984560                9.01459410               24.95663646                0.00010000               -2.78730933                1.17814076               -0.19987477                0.05342150               19.59060578                0.27596480
               8.06099404                8.90390533               25.01085420                0.00010000               -3.01966559                1.17355170               -0.09899365               -0.43073515               20.00898060                0.46194608
               9.02945229                8.78769423               25.07029311                0.03657297               -2.97988104                1.05635780               -0.00333936               -1.08510487               20.61696374                0.82056933
              10.00139642                8.66968682               25.13655796                0.33049151               -1.37711790               -0.00829244                0.02231990               -1.05125898               10.62952212                1.44088448
              11.00190993                8.57238105               24.99584808                0.69692428                0.12106166                0.11335549               -0.41726534               -0.02870965                0.13293557                0.64507422
              12.00381766                8.47592773               24.85185106                0.98273304                0.19077241                0.28056505               -0.86461502               -0.00692484               -0.01958898               -0.63762294
               2.27840531               10.56398201               25.06051770                1.00000000                0.04356579               -0.03331577                0.02788134                0.03350745                0.40372758                0.61587826
               3.27884096               10.44686450               24.91426726                0.82983002                0.09020442                0.07572588               -0.30876514                0.05337267                0.78185207               -0.46664656
               4.28020939               10.32930894               24.77551649                0.51186270               -1.44126623                0.17734117               -0.63360173                1.35577069               11.21736745               -0.96225938
               5.25001564               10.23742241               24.83796546                0.36606469               -2.78987235                1.29043662               -0.46981436                0.97732305               21.09484470                0.16852685
               6.22441195               10.13372675               24.89567729                0.35668100               -2.54796651                1.18714234               -0.34266547                0.23932956               21.00167820                0.08882784
               7.19905631               10.02686557               24.95581205                0.37362777               -2.63014229                1.22714647               -0.21374542                0.05041857               21.30842550                0.14686351
               8.17180910                9.91631371               25.01937812                0.41520156               -2.94949822                1.24083776               -0.08554233               -0.16972068               21.80572202                0.25051556
               9.14006634                9.80184104               25.08934236                0.52892092               -3.68873113                1.41468076                0.05494649               -1.26658613               22.53810069                0.47007636
              10.09803448                9.66975387               25.16789177                0.68354610               -2.11993336                0.00670572                0.07640565               -1.75603364               12.16129383                0.88545064
              11.09766768                9.57344425               25.03092526                0.87113479                0.06612652                0.10632039               -0.34985891                0.01651662                0.88197988                0.52557496
              12.09935701                9.47856871               24.88356819                0.98658272                0.16893321                0.26409781               -0.80579041                0.06638172                0.37631465               -0.54369468
               1.13272448                0.62851544               26.38825034                1.00000000               -0.34561903               -0.37384814                1.30343382               -0.06450036               -0.85065824                0.87895315
               2.12926829                0.49375692               26.30203711                1.00000000               -0.29148603               -0.29543128                1.04583964               -0.05017001               -1.09408655                0.07995716
               3.12689476                0.35872024               26.21094037                1.00000000               -0.16798428               -0.21713352                0.77538186               -0.04160871               -1.05163048               -0.21046909
               4.12590861                0.22441405               26.12561296                0.62723530                0.25486544               -0.17020162                0.51412854                0.39476124               -0.15508654               -0.72415740
               5.13199207                0.10023672               26.05254410                0.71555809                0.40152433               -0.05690606                0.22409848               -0.08015215                0.26735154                0.21025938
               6.13393909               -0.01612383               25.97633675                0.79778552                0.14842592                0.02610325               -0.04963290               -0.01064499               -0.07272793                0.12079414
               7.13496059               -0.13084069               25.89659249                0.77429851                0.10160158                0.09879493               -0.32220429                0.00374389               -0.28333561               -0.07065640
               8.13597112               -0.24550027               25.81610984                0.86871293                0.12567818                0.18497386               -0.60462524                0.01096635               -0.53973488                0.09720002
               9.13747415               -0.36172359               25.73099731                1.00000000                0.21284678                0.27195490               -0.88590082                0.00069420               -0.87240043                0.50414594
              10.14022806               -0.47920597               25.64365326                1.00000000                0.32698880                0.34350775               -1.16042452               -0.03854735               -0.89021287                0.00682050
              11.14401393               -0.59689504               25.55813184                1.00000000                0.37858683                0.42441996               -1.42355843               -0.05027154               -0.80037632               -0.80342690
               1.26683800                1.62477696               26.35358280                1.00000000               -0.31738066               -0.35581008                1.17912954               -0.02386277               -0.11852508                1.19539267
               2.26366419                1.49080261               26.26703187                1.00000000               -0.28439434               -0.27472108                0.92295738               -0.00631240               -0.10571364                0.11154618
               3.26115011                1.35654891               26.18069951                0.86242478               -0.22831076               -0.19408842                0.65830105                0.01266476                0.08788089               -0.57137061
               4.25909798                1.22271203               26.09798551                0.19821685               -0.48453133               -0.15591282                0.38856478                0.56065176                1.63760825               -1.12434228
               5.25145949                1.09966766               26.04256470                0.36117479               -0.48633145                0.06022586                0.14413762               -0.10653182                2.38739862                1.00308515
               6.24937135                0.98413721               25.97411976                0.46202267               -0.08866186                0.08396778               -0.10862711                0.11391077                1.51778517                0.42377191
               7.24968625                0.87014726               25.90113629                0.35687158                0.10754449                0.08321769               -0.36234173                0.16561208                1.42704407               -0.35682017
               8.25152224                0.75634947               25.83089571                0.49387546                0.23238495                0.18638571               -0.61134231                0.16250924                1.43162096                0.60549232
               9.25433395                0.64099596               25.75817284                1.00000000                0.29530386                0.26335853               -0.85942745                0.07333002                0.72888801                0.73948799
              10.25742832                0.52422910               25.67402979                1.00000000                0.34331677                0.33624195               -1.12129239                0.00372173                0.09018243                0.10396078
              11.26120028                0.40734916               25.58856235                1.00000000                0.37719675                0.41926385               -1.38318264               -0.00858800                0.02258530               -0.95131076
               1.40019593                2.62139924               26.32521457                1.00000000               -0.28258315               -0.32561152                1.06529585               -0.01640336                0.04368178                1.51773800
               2.39737010                2.48826250               26.23262605                1.00000000               -0.24786475               -0.23893445                0.80356623                0.00800817                0.20480594                0.08609841
               3.39523864                2.35483847               26.14320622                0.51501389               -0.16836075               -0.15890550                0.55053494                0.03169165                0.79131348               -1.34109199
               4.39400288                2.22129579               26.06231795                0.00010000               -1.34011886               -0.13798978                0.26817370                0.78611914                4.57079221               -2.02743301
               5.36843626                2.10144124               26.04845783                0.00010000               -1.41325875                0.12310398                0.06310537                1.44749746                5.22099662               -1.24556934
               6.36573771                1.98555553               25.97797809                0.00010000               -0.11878465               -0.07292131               -0.15818771                1.20521354                2.01330240               -0.31381367
               7.36606057                1.87082367               25.89997360                0.00010000                0.13174504               -0.13251806               -0.38538580                0.97927344                3.32629061                0.48780828
               8.36837261                1.75822745               25.85587649                0.00010000                0.25002772               -0.09435518               -0.62801900                0.64918032                3.90431346                1.03840532
               9.37106112                1.64354358               25.79010824                0.50504447                0.27883457                0.25341703               -0.82300801                0.10728919                1.91189895                1.48793849
              10.37394930                1.52751886               25.70638641                1.00000000                0.32704719                0.31965606               -1.07557696                0.00964332                0.68426078                0.66174011
              11.37760206                1.41149023               25.61606204                1.00000000                0.36527625                0.41418737               -1.35060812               -0.00743758                0.35327645               -0.96734222
               1.53278341                3.61826473               26.29698115                1.00000000               -0.23982889               -0.30219029                0.94956421               -0.01368223                0.07686449                1.45688526
               2.53038512                3.48602392               26.19708316                1.00000000               -0.20163787               -0.20751589                0.68167853                0.00782267                0.09672038               -0.03663979
               3.52875066                3.35337080               26.09752374                0.31237498               -0.10837664               -0.11937513                0.41944128               -0.00854999                1.04377966               -1.64529087
               4.52821759                3.21995224               26.01655174                0.00010000               -0.63004798               -0.09427851                0.15098741                0.78463173                4.87667463               -2.72399912
               5.51614970                3.10212974               25.99361043                0.00010000               -1.20621992                0.02057755               -0.00632273                2.07462208                7.32537035               -3.10039754
               6.50409319                2.98267878               25.96108429                0.00010000               -0.97749483               -0.08561529               -0.17370756                1.69357955                6.51607557               -1.01344979
               7.49659980                2.86749690               25.92121176                0.00010000               -0.61536326               -0.16480369               -0.35279396                1.38437677                6.06361655                1.13729312
               8.49178593                2.75446237               25.87927965                0.00010000               -0.47057435               -0.17999875               -0.54162048                1.06937896                5.72331157                1.41910451
               9.48718831                2.64606430               25.83226258                0.24349634               -0.10556978                0.16870246               -0.75059715                0.34187770                3.62356012                2.79201570
              10.48967453                2.53062222               25.74794620                1.00000000                0.29602408                0.29228576               -1.00244418               -0.01509643                0.88742856                1.05730161
              11.49310879                2.41563290               25.64614322                1.00000000                0.34342620                0.41496750               -1.31191844               -0.01093736                0.01423092               -0.67324215
               1.66440391                4.61535544               26.26739351                1.00000000               -0.19834198               -0.27396775                0.82479728               -0.02020106                0.10792509                1.29507073
               2.66242049                4.48411218               26.16018934                0.88718391               -0.16322929               -0.16823617                0.55103834               -0.00013052                0.15452091               -0.20151673
               3.66113932                4.35245097               26.05385969                0.18891433               -0.07419580               -0.06486296                0.28867933               -0.05055368                1.16604821               -1.58188428
               4.66093657                4.21941022               25.96687306                0.00010000               -0.69685830                0.05509555                0.01188637                0.59466702                6.27907036               -2.56412306
               5.64720216                4.10185279               25.96276993                0.00010000               -1.33472149                0.08041967               -0.09400549                1.14749955               10.05192664               -1.45341732
               6.63424214                3.98384322               25.95087756                0.00010000               -1.26188211                0.17829550               -0.19630068                1.01154969                9.38240278               -0.39569485
               7.62196451                3.86752759               25.93296173                0.00010000               -1.15246771                0.11994807               -0.31950916                0.85802676                8.94225928                0.77695534
               8.61119279                3.75462747               25.91165887                0.00010000               -1.01128486                0.09162643               -0.46594733                0.78924554                8.80826131                1.93742095
               9.60173882                3.64691763               25.89038497                0.21762231               -0.35570077                0.05466395               -0.64448942                0.32804890                4.81318658                3.36048228
              10.60407877                3.53336458               25.78831583                0.83330328                0.28115714                0.25290276               -0.94426484                0.00081931                0.44652555                1.09381959
              11.60736196                3.41978958               25.67946329                1.00000000                0.32831871                0.41804536               -1.26063223               -0.02249953                0.11054099               -0.46758554
               1.79486590                5.61278538               26.23591813                1.00000000               -0.15789179               -0.23399586                0.69106135               -0.02489681                0.12640788                1.11137317
               2.79328698                5.48265920               26.12130407                0.71766945               -0.12121758               -0.12050815                0.40138353               -0.00711053                0.26353119               -0.42668656
               3.79244155                5.35207354               26.00937270                0.12834522               -0.12889346               -0.00914399                0.12687345               -0.00776976                1.73617066               -1.83076835
               4.79070911                5.22105415               25.92420213                0.00010000               -0.88874306                0.28827338               -0.20852406                0.36951404                8.17959100               -1.25841088
               5.77466668                5.10373814               25.94086607                0.00010000               -1.60298620                0.30117983               -0.18788215                0.84381187               12.72847031               -0.62123923
               6.75864939                4.98624469               25.94654286                0.00010000               -1.58452987                0.33577393               -0.21715251                0.59649774               11.94540900                0.11362220
               7.74297609                4.86989586               25.94717750                0.00010000               -1.52342933                0.30924437               -0.28481644                0.45236425               11.61845743                0.98852421
               8.72818080                4.75629490               25.94565696                0.00010000               -1.39819525                0.20217495               -0.38209187                0.43999762               11.57436606                1.98110295
               9.71501218                4.64715758               25.94449307                0.22410485               -0.56809152                0.01477638               -0.50768411                0.19081199                6.01812929                2.99278857
              10.71681897                4.53568028               25.83068844                0.73910531                0.23983079                0.21522662               -0.83504777                0.01775108                0.23675345                1.15723358
              11.71980880                4.42399381               25.71361639                1.00000000                0.29898288                0.41209346               -1.18951565               -0.02196417                0.07834808               -0.43426773
               1.92415833                6.61067552               26.20263937                1.00000000               -0.11682130               -0.18636093                0.55218535               -0.02460962                0.06626439                0.95975345
               2.92299012                6.48170202               26.07984837                0.61240248               -0.07846755               -0.07273550                0.25135992               -0.00666921                0.24840637               -0.60302927
               3.92258898                6.35226809               25.96063968                0.09586611               -0.31639316                0.04321087               -0.03732621                0.13276830                3.39298428               -2.16680115
               4.91666225                6.22517569               25.90073786                0.00010000               -1.18505642                0.46509754               -0.39715561                0.28574938               10.67432152                0.08961912
               5.89888785                6.10787639               25.92669987                0.00010000               -1.83239411                0.51249626               -0.25643384                0.58965064               14.66470106                0.02676380
               6.88001437                5.99055870               25.94668706                0.00010000               -1.89631285                0.53591419               -0.22707653                0.32258393               14.22438439                0.46033773
               7.86096159                5.87371248               25.96345330                0.00010000               -1.86416747                0.46395968               -0.24497350                0.09533497               14.05505742                1.10923400
               8.84273102                5.75867097               25.97929621                0.00010000               -1.73959603                0.27614705               -0.29338940                0.01636656               14.09701454                1.89714659
               9.82616967                5.64721316               25.99586117                0.24274978               -0.75667280               -0.00124289               -0.36367998               -0.04164688                7.19802860                2.73807936
              10.82759757                5.53766911               25.87248280                0.68465218                0.20629716                0.18481894               -0.73064938                0.01645742                0.13343324                1.07243870
              11.83029562                5.42803145               25.74746176                1.00000000                0.26980497                0.39000921               -1.10530464               -0.01618870                0.05789212               -0.48284009
               2.05232070                7.60905816               26.16810430                1.00000000               -0.07596783               -0.13799901                0.41422599               -0.02339756                0.02718686                0.87537142
               3.05156102                7.48120449               26.03736625                0.56048083               -0.03487285               -0.02811368                0.10501817               -0.00321388                0.16471674               -0.66284260
               4.05162324                7.35293776               25.90931661                0.07654358               -0.53726118                0.08672052               -0.20040966                0.30681973                5.50095942               -2.33781621
               5.04081580                7.23035610               25.88530305                0.00010000               -1.52732805                0.55567667               -0.40215399                0.44014821               13.54015962                0.39630533
               6.02107668                7.11398806               25.91786965                0.00010000               -2.07754134                0.71282467               -0.28259988                0.49524443               16.32575665                0.35641247
               6.99926497                6.99696297               25.94950406                0.00010000               -2.21530826                0.76566374               -0.22259768                0.12473690               16.27023236                0.60296417
               7.97677052                6.87917506               25.98041807                0.00010000               -2.21287609                0.65729025               -0.20124660               -0.24970522               16.31127598                1.08152017
               8.95500745                6.76181784               26.01202917                0.00010000               -2.07947079                0.37715379               -0.20719653               -0.46274805               16.48119882                1.73892807
               9.93518110                6.64713272               26.04528231                0.26799414               -0.93388125               -0.01201842               -0.23319263               -0.32357403                8.36015181                2.53419461
              10.93632983                6.53937666               25.91328770                0.65793666                0.17896207                0.15876453               -0.62952109                0.00492325                0.07179440                0.96005261
              11.93876034                6.43179399               25.78046604                1.00000000                0.24305178                0.35982768               -1.02485685               -0.01105453                0.03857334               -0.56958370
               2.17939772                8.60791554               26.13310014                1.00000000               -0.03514770               -0.09209853                0.27861373               -0.02244893                0.00959172                0.85694827
               3.17904624                8.48113975               25.99464328                0.55688687                0.00880223                0.01482401               -0.03849451               -0.00002931                0.05558662               -0.67001960
               4.17957376                8.35400250               25.85704189                0.05966213               -0.73156659                0.12450049               -0.35845456                0.49831497                7.53970762               -2.24873579
               5.16441491                8.23628922               25.86826077                0.00010000               -1.86939508                0.68054558               -0.35892668                0.71850825               16.53108822                0.29870213
               6.14218586                8.12213288               25.91054281                0.00010000               -2.35463978                0.94047018               -0.28472961                0.50461106               18.10094906                0.36851643
               7.11732212                8.00587198               25.95280357                0.00010000               -2.55366183                1.00473882               -0.21223610                0.02026814               18.20640378                0.53375824
               8.09111263                7.88685829               25.99650152                0.00010000               -2.59018606                0.93389097               -0.15620858               -0.50622247               18.45147565                0.87854893
               9.06551839                7.76621405               26.04285497                0.01487727               -2.44866280                0.56567995               -0.12656136               -0.99888228               18.80878049                1.45304565
              10.04213937                7.64697279               26.09275237                0.29762821               -1.12418165               -0.01358581               -0.12322340               -0.66975425                9.54771582                2.25216408
              11.04303476                7.54084440               25.95287794                0.65709716                0.15502418                0.13871759               -0.53945593               -0.01180620                0.04393084                0.85182085
              12.04523985                7.43522801               25.81237759                1.00000000                0.22050928                0.32537416               -0.95419224               -0.00633360                0.02260898               -0.67621322
               2.30542331                9.60721619               26.09814604                1.00000000                0.00501680               -0.04955718                0.14552545               -0.02195244               -0.01024760                0.73952599
               3.30547347                9.48150097               25.95195110                0.58261922                0.05083817                0.05711597               -0.17964862                0.00114272                0.07524355               -0.57129238
               4.30644007                9.35542776               25.80739907                0.02246580               -0.92089455                0.16018888               -0.50323221                0.75617515                9.57348453               -1.54308048
               5.28705558                9.24396701               25.85115395                0.00010000               -2.24269601                1.01939351               -0.38256877                0.78469005               19.37540066                0.24477034
               6.26158615                9.13279747               25.90231767                0.00010000               -2.60553255                1.12085239               -0.30114933                0.41889194               19.83626380                0.21172241
               7.23494493                9.01705775               25.95458555                0.00010000               -2.76410749                1.17043475               -0.21091330                0.00451961               20.07225854                0.30488822
               8.20630400                8.89785288               26.00975640                0.00010000               -3.00148164                1.17177758               -0.12058228               -0.48888364               20.50748936                0.49578223
               9.17491530                8.77313144               26.07012030                0.04018767               -2.95741696                1.05809881               -0.02946569               -1.15413748               21.09084791                0.88481684
              10.14715566                8.64686101               26.13648834                0.32925422               -1.35384054                0.00743511               -0.03724763               -1.09598981               10.85865545                1.48247894
              11.14783849                8.54215101               25.99144192                0.67779296                0.13554026                0.12619623               -0.46480681               -0.02968539                0.13765682                0.66812968
              12.14986647                8.43830148               25.84304512                0.98260677                0.20279771                0.29125259               -0.89703740               -0.00537563               -0.01760457               -0.64786683
               2.43038911               10.60692440               26.06072585                1.00000000                0.04684100               -0.02917922                0.01336118                0.03234741                0.40619118                0.62044186
               3.43085752               10.48228207               25.91114447                0.82893077                0.09210585                0.07810985               -0.31643024                0.05249868                0.79072116               -0.47444125
               4.43223123               10.35720628               25.76918522                0.51068491               -1.40592546                0.17785144               -0.63323099                1.29886688               11.47574997               -0.97090077
               5.40273901               10.25667709               25.83329259                0.36641527               -2.73791331                1.27100827               -0.46583470                0.93552524               21.60676207                0.18307132
               6.37747296               10.14454993               25.89224235                0.35686744               -2.51909567                1.17524648               -0.34523194                0.21886005               21.51421176                0.10362314
               7.35235710               10.02928067               25.95359645                0.37343251               -2.61058462                1.22229216               -0.23027323                0.02841181               21.84026510                0.15784924
               8.32526127                9.91029384               26.01839746                0.41449285               -2.94647923                1.24409619               -0.11062489               -0.19950570               22.36479209                0.26497486
               9.29342751                9.78737602               26.08977295                0.53154797               -3.70306345                1.42445868                0.03442829               -1.30739591               23.04894130                0.50966021
              10.25120000                9.64712149               26.16832024                0.68354705               -2.12134645                0.02604869                0.00772980               -1.79595094               12.41137020                0.90688779
              11.25100058                9.54336833               26.02715089                0.86049200                0.08157040                0.12173172               -0.40641194                0.01278757                0.90963719                0.54114437
              12.25283141                9.44105306               25.87531560                0.98640137                0.18308237                0.27515803               -0.84562670                0.06496709                0.39086648               -0.55640833
               1.21164603                0.67265975               27.40125705                1.00000000               -0.34503676               -0.37245919                1.29820017               -0.06382710               -0.86474262                0.89167495
               2.20819567                0.53019866               27.31247459                1.00000000               -0.29225370               -0.29385755                1.04198160               -0.04915797               -1.11471830                0.08459216
               3.20580096                0.38744118               27.21868267                1.00000000               -0.17167203               -0.21543580                0.77349126               -0.04199376               -1.07454399               -0.21034412
               4.20476223                0.24532823               27.13074952                0.62759001                0.23428538               -0.16832506                0.51365677                0.37067551               -0.18839969               -0.74363358
               5.21048667                0.11276530               27.05479376                0.71519493                0.37982273               -0.05797007                0.22687263               -0.07807586                0.22271161                0.21998531
               6.21235868               -0.01237201               26.97585256                0.79684605                0.14611080                0.02516753               -0.04678872               -0.01286279               -0.11200578                0.12745850
               7.21340888               -0.13589839               26.89338083                0.77352270                0.10924953                0.09804143               -0.32040667                0.00190454               -0.32751171               -0.07226497
               8.21454367               -0.25925659               26.81007745                0.86722301                0.13735522                0.18369916               -0.60257900                0.00641626               -0.58675727                0.10137306
               9.21615599               -0.38392750               26.72216093                1.00000000                0.21984757                0.26957264               -0.88235946               -0.00219753               -0.91393782                0.51637531
              10.21894062               -0.50970796               26.63208377                1.00000000                0.32807195                0.34204172               -1.15463120               -0.03732971               -0.92194789                0.00684337
              11.22271743               -0.63567549               26.54393857                1.00000000                0.37768048                0.42358287               -1.41634901               -0.04837376               -0.82598695               -0.82611790
               1.35346885                1.66893516               27.36534200                1.00000000               -0.31554775               -0.35484938                1.17282959               -0.02299155               -0.12168222                1.21309200
               2.35031337                1.52726009               27.27623632                1.00000000               -0.28263061               -0.27323405                0.91807417               -0.00530025               -0.11327283                0.11788637
               3.34781624                1.38528682               27.18726231                0.87107123               -0.22532271               -0.19204417                0.65432661                0.01028798                0.07327858               -0.56620334
               4.34580692                1.24364498               27.10185322                0.20414682               -0.46301042               -0.15302386                0.38475062                0.52694148                1.63351312               -1.14093432
               5.33855603                1.11218560               27.04399441                0.36585956               -0.46225088                0.05677370                0.14264887               -0.10086641                2.39714601                1.01199603
               6.33656190                0.98787967               26.97302894                0.46724007               -0.08429067                0.08143194               -0.10895844                0.10399039                1.52476941                0.43517168
               7.33687022                0.86508202               26.89751122                0.36407822                0.10302437                0.08771197               -0.36291740                0.15494720                1.43619405               -0.34969960
               8.33862239                0.74258041               26.82478120                0.49839218                0.22447419                0.18713093               -0.61228686                0.14642401                1.44367353                0.60419530
               9.34135970                0.61876822               26.74958688                1.00000000                0.29094650                0.26202312               -0.85854116                0.06651204                0.73488196                0.75662214
              10.34444132                0.49371246               26.66283197                1.00000000                0.34207603                0.33498785               -1.11923237                0.00476637                0.08962320                0.10824354
              11.34820122                0.36856034               26.57475440                1.00000000                0.37599024                0.41983748               -1.37948158               -0.00671892                0.02244292               -0.97640462
               1.49453635                2.66556276               27.33582860                1.00000000               -0.27983453               -0.32533857                1.05748674               -0.01566197                0.04477395                1.53951770
               2.49173800                2.52473398               27.24063356                1.00000000               -0.24572594               -0.23741262                0.79795076                0.00844959                0.21028221                0.09298687
               3.48962183                2.38360030               27.14869219                0.52825030               -0.16678631               -0.15544222                0.54678542                0.02676129                0.78571927               -1.34209041
               4.48840227                2.24226776               27.06497287                0.00010000               -1.26935855               -0.13388042                0.26260159                0.73991689                4.58916769               -2.03758084
               5.46423466                2.11390078               27.04906546                0.00010000               -1.34301015                0.11069838                0.06053550                1.34872535                5.29114670               -1.23199355
               6.46154207                1.98925663               26.97638282                0.00010000               -0.12137846               -0.07286306               -0.15984104                1.11488370                2.07543934               -0.28152065
               7.46180709                1.86585584               26.89610693                0.00010000                0.11219393               -0.12505866               -0.38840414                0.89920012                3.37735563                0.53017057
               8.46378595                1.74448603               26.84956404                0.00010000                0.22735460               -0.08700845               -0.63618304                0.59234870                3.97206015                1.08506124
               9.46635418                1.62131296               26.78186134                0.50657200                0.27289425                0.25070088               -0.82704234                0.08949266                1.97415785                1.52808454
              10.46924383                1.49699180               26.69562935                1.00000000                0.32665551                0.31660263               -1.07635411                0.00623928                0.70656711                0.68430586
              11.47288729                1.37272126               26.60256873                1.00000000                0.36434543                0.41677201               -1.34862724               -0.00715181                0.36422998               -0.99099117
               1.63481317                3.66242839               27.30643206                1.00000000               -0.23683399               -0.30207982                0.94057525               -0.01362369                0.08144424                1.47312646
               2.63244483                3.52251184               27.20387000                1.00000000               -0.19977405               -0.20554563                0.67562835                0.00771469                0.10445052               -0.03537384
               3.63081769                3.38217798               27.10170720                0.32116612               -0.10700292               -0.11521345                0.41729017               -0.01491931                1.05122214               -1.65761011
               4.63030478                3.24096737               27.01806438                0.00010000               -0.61380145               -0.08918192                0.15181288                0.72487657                4.93518007               -2.74179965
               5.61854166                3.11439957               26.99353518                0.00010000               -1.17001337                0.01136631               -0.00857284                1.91942066                7.44133972               -3.09050630
               6.60690451                2.98642240               26.95932150                0.00010000               -0.94584245               -0.08881517               -0.17889825                1.55541006                6.63018863               -0.96652000
               7.59962481                2.86258085               26.91764044                0.00010000               -0.59461288               -0.16699009               -0.36196398                1.25807744                6.17413909                1.21029118
               8.59501225                2.74084024               26.87381013                0.00010000               -0.44905118               -0.18021668               -0.55311405                0.97953592                5.82660906                1.51480479
               9.59064379                2.62378224               26.82471800                0.24060906               -0.09272229                0.15080924               -0.75874675                0.30300907                3.70381513                2.86605991
              10.59315780                2.50004451               26.73790574                1.00000000                0.29777360                0.28741659               -1.00418034               -0.02288992                0.91701396                1.08570298
              11.59659926                2.37689578               26.63302654                1.00000000                0.34414584                0.41730540               -1.30991465               -0.01012310                0.01357464               -0.68711110
               1.77409698                4.65952117               27.27559133                1.00000000               -0.19542705               -0.27346396                0.81474460               -0.02051755                0.11604022                1.30219709
               2.77214271                4.52062307               27.16566760                0.87826527               -0.16145363               -0.16557494                0.54453470               -0.00098003                0.16850482               -0.21418735
               3.77086790                4.38129603               27.05673452                0.19312220               -0.07322469               -0.06056144                0.28611929               -0.05735183                1.17931810               -1.60988424
               4.77067821                4.24048412               26.96701346                0.00010000               -0.68499327                0.05650941                0.01551923                0.53608055                6.36829367               -2.62905953
               5.75716804                4.11412810               26.96183632                0.00010000               -1.31046082                0.08000199               -0.09302597                1.03657689               10.23336428               -1.45273414
               6.74446900                3.98748033               26.94888664                0.00010000               -1.23086181                0.16840406               -0.20227790                0.89966627                9.56401549               -0.35144229
               7.73255080                3.86251604               26.92970629                0.00010000               -1.11468601                0.10706743               -0.33218562                0.75065523                9.11325997                0.85112307
               8.72217528                3.74088170               26.90691688                0.00010000               -0.96703569                0.07491475               -0.48316062                0.68860044                8.96390890                2.02959417
               9.71321009                3.62432914               26.88384885                0.21356967               -0.32513886                0.02314316               -0.66228530                0.28333842                4.90671659                3.46288943
              10.71567250                3.50274013               26.77882184                0.81357679                0.28861017                0.24588910               -0.95173822               -0.00084870                0.47276803                1.13823464
              11.71898229                3.38106737               26.66683891                1.00000000                0.33097932                0.42199532               -1.26123437               -0.02527483                0.12634405               -0.46706577
               1.91219902                5.65695911               27.24277366                1.00000000               -0.15486427               -0.23294224                0.68001652               -0.02516494                0.12755117                1.11129397
               2.91065037                5.51920034               27.12528159                0.70992814               -0.11947034               -0.11719348                0.39401235               -0.00806361                0.27244130               -0.44881481
               3.90980961                5.38096675               27.01062624                0.13076705               -0.12280323               -0.00372144                0.12360740               -0.01982511                1.72774334               -1.87486177
               4.90819431                5.24209756               26.92223072                0.00010000               -0.87663088                0.28006261               -0.18720556                0.31001968                8.31057722               -1.33838126
               5.89227699                5.11599961               26.93903115                0.00010000               -1.58422078                0.29704178               -0.17937511                0.73171073               13.01440542               -0.60971801
               6.87650989                4.98979049               26.94434943                0.00010000               -1.55202239                0.32480654               -0.22207306                0.48837357               12.20103146                0.16275353
               7.86123654                4.86472220               26.94425516                0.00010000               -1.47693670                0.29166627               -0.30033819                0.34612868               11.85517827                1.06322600
               8.84697116                4.74233853               26.94172307                0.00010000               -1.33922069                0.18023961               -0.40520603                0.33228924               11.79686643                2.07664591
               9.83445213                4.62424510               26.93927141                0.21982959               -0.52842763               -0.01252736               -0.53660890                0.14243577                6.14382281                3.11066317
              10.83640261                4.50496229               26.82225763                0.72121924                0.24935803                0.20678518               -0.84956039                0.02151958                0.25201616                1.22164404
              11.83943929                4.38533568               26.70168314                1.00000000                0.30366844                0.41950873               -1.19542519               -0.02303106                0.07842951               -0.41884270
               2.04911122                6.65486232               27.20810142                1.00000000               -0.11374262               -0.18479565                0.54015182               -0.02462873                0.06529529                0.95740796
               3.04797379                6.51827920               27.08232546                0.60604144               -0.07685219               -0.06910152                0.24389752               -0.00731184                0.25361734               -0.62314696
               4.04757418                6.38122160               26.96025340                0.09694765               -0.30640258                0.04943734               -0.04022018                0.11020890                3.38060532               -2.21069454
               5.04184574                6.24608537               26.89701407                0.00010000               -1.17324242                0.45007898               -0.34692956                0.20586467               10.86209361                0.11629600
               6.02410933                6.12006894               26.92422154                0.00010000               -1.81659308                0.50156477               -0.23925555                0.47307524               15.04414662                0.06846792
               7.00551388                5.99397646               26.94440032                0.00010000               -1.85920002                0.52043914               -0.23086641                0.20872352               14.54525611                0.51779825
               7.98692533                5.86834937               26.96091643                0.00010000               -1.81078643                0.44399787               -0.26313175               -0.01492461               14.35597750                1.18422834
               8.96929815                5.74448649               26.97622312                0.00010000               -1.67451419                0.25484593               -0.32174324               -0.09783906               14.38922253                1.99025840
               9.95343504                5.62407860               26.99204707                0.23885279               -0.71429223               -0.01735194               -0.39914620               -0.09658691                7.35115294                2.85055443
              10.95501231                5.50687583               26.86506131                0.66805410                0.21699210                0.17967351               -0.75298625                0.02057516                0.13903042                1.13103827
              11.95777489                5.38945754               26.73634573                1.00000000                0.27625779                0.39912443               -1.11725263               -0.01647212                0.05876861               -0.46346935
               2.18487269                7.65326320               27.17218274                1.00000000               -0.07278236               -0.13584626                0.40129904               -0.02337758                0.02643102                0.87452183
               3.18414486                7.51781831               27.03837972                0.55537767               -0.03325328               -0.02454707                0.09744938               -0.00331533                0.16601197               -0.67953125
               4.18420762                7.38195549               26.90730314                0.07633137               -0.53403003                0.09271676               -0.20259135                0.27265867                5.57106482               -2.37797341
               5.17346426                7.25109914               26.88159916                0.00010000               -1.51801054                0.53886924               -0.33692359                0.33992625               13.80763092                0.52604429
               6.15384741                7.12603091               26.91514802                0.00010000               -2.05301635                0.69446640               -0.26191556                0.38053469               16.71936960                0.42259885
               7.13240393                7.00019927               26.94725895                0.00010000               -2.17096965                0.74599865               -0.22712037                0.01323046               16.63998189                0.66371607
               8.11042802                6.87360215               26.97830584                0.00010000               -2.15593914                0.63629746               -0.22195141               -0.35935538               16.66951989                1.15393822
               9.08928515                6.74743545               27.00979573                0.00010000               -2.01484819                0.35985864               -0.23997529               -0.57637754               16.83466699                1.82433078
              10.07013105                6.62389806               27.04274323                0.26488010               -0.89249934               -0.01608098               -0.27459355               -0.38184514                8.53916928                2.62725738
              11.07143517                6.50855576               26.90684081                0.64183524                0.19076900                0.15917496               -0.65948012                0.00719898                0.07145009                1.01042601
              12.07394643                6.39331817               26.77012543                1.00000000                0.25112675                0.36982631               -1.04296544               -0.01041608                0.03876378               -0.55731804
               2.31953345                8.65214540               27.13581840                1.00000000               -0.03182583               -0.08916096                0.26476467               -0.02246565                0.00913361                0.85845600
               3.31921519                8.51778826               26.99422112                0.55295811                0.01065342                0.01809476               -0.04625767                0.00041084                0.05402795               -0.68392977
               4.31974652                8.38307593               26.85345328                0.05811542               -0.73231661                0.12875429               -0.35968736                0.45321795                7.71002757               -2.27895208
               5.30456886                8.25686275               26.86496676                0.00010000               -1.85633106                0.66412460               -0.30066457                0.62294012               16.88927714                0.40254124
               6.28261990                8.13395827               26.90777312                0.00010000               -2.31808069                0.91796619               -0.27021046                0.41100875               18.49503537                0.42947299
               7.25820724                8.00889643               26.95064670                0.00010000               -2.50589288                0.98498565               -0.22003794               -0.07174235               18.61829638                0.58502744
               8.23250204                7.88107532               26.99483393                0.00010000               -2.53662761                0.91614416               -0.17782065               -0.60158520               18.86289560                0.94069005
               9.20747469                7.75168366               27.04141477                0.01653689               -2.39121035                0.55185697               -0.16170972               -1.10330917               19.21135121                1.54319937
              10.18467783                7.62375698               27.09127073                0.29543768               -1.08692559               -0.00647690               -0.17305444               -0.72537394                9.74818147                2.32114305
              11.18573618                7.51005933               26.94729009                0.64032633                0.16819566                0.14574602               -0.57825087               -0.01158952                0.04265215                0.88804168
              12.18804174                7.39685407               26.80270969                1.00000000                0.23055644                0.33571097               -0.97966589               -0.00488986                0.02278810               -0.67591437
               2.45313765                9.65147998               27.09952929                1.00000000                0.00848947               -0.04570881                0.13076088               -0.02205526               -0.01096014                0.74290420
               3.45322254                9.51818020               26.95011599                0.57895203                0.05299182                0.06003341               -0.18782780                0.00157158                0.07591432               -0.58166070
               4.45419749                9.38453058               26.80236831                0.01972894               -0.90909069                0.16213407               -0.50323583                0.70155933                9.80260941               -1.55889028
               5.43504073                9.26438163               26.84747088                0.00010000               -2.20817883                0.99718993               -0.35692848                0.71922699               19.81353785                0.27540202
               6.41003391                9.14439023               26.89933065                0.00010000               -2.55943465                1.09957869               -0.29791070                0.36448870               20.26941780                0.24424047
               7.38385204                9.01989898               26.95241819                0.00010000               -2.72124161                1.15521546               -0.22372240               -0.04829651               20.53267955                0.33365278
               8.35560908                8.89192504               27.00844256                0.00010000               -2.96573633                1.16278878               -0.14235731               -0.54999905               20.98925304                0.53265421
               9.32453731                8.75847259               27.06970380                0.04410721               -2.91805845                1.05226391               -0.05161027               -1.22544056               21.53189729                0.96253040
              10.29724791                8.62376853               27.13581301                0.32822560               -1.32155133                0.02354291               -0.09833053               -1.13979002               11.06059511                1.51879660
              11.29810628                8.51147068               26.98655195                0.65868825                0.15056287                0.13949340               -0.51397359               -0.03036292                0.14079948                0.68847951
              12.30025917                8.40003239               26.83391031                0.98221668                0.21528812                0.30227615               -0.93081652               -0.00367025               -0.01546249               -0.65711379
               2.58569189               10.65123122               27.06078492                1.00000000                0.05041254               -0.02487554               -0.00195460                0.03119500                0.40818791                0.62456322
               3.58619602               10.51898893               26.90793866                0.82743460                0.09421899                0.08087259               -0.32536900                0.05171708                0.79984710               -0.48232587
               4.58757627               10.38631861               26.76285187                0.50912110               -1.35511347                0.17880341               -0.63403863                1.22875991               11.73249782               -0.97897451
               5.55909375               10.27680655               26.82864876                0.36674497               -2.65919755                1.24249191               -0.46534057                0.88686317               22.10920436                0.17683117
               6.53439232               10.15594984               26.88877266                0.35705435               -2.46936208                1.15596116               -0.35070675                0.19555057               22.00886375                0.11631634
               7.50970651               10.03200074               26.95120659                0.37323534               -2.57319368                1.21017573               -0.24914858                0.00450961               22.35255092                0.16948815
               8.48292845                9.90433109               27.01716563                0.41376612               -2.92920582                1.24060571               -0.13596739               -0.23165265               22.91310717                0.28222918
               9.45112239                9.77272894               27.09003093                0.53440231               -3.70222544                1.42563527                0.02098348               -1.34665494               23.52291737                0.56183019
              10.40888394                9.62422783               27.16804637                0.68373019               -2.11286674                0.04593081               -0.06374039               -1.83038406               12.62377508                0.92338583
              11.40886506                9.51284920               27.02279702                0.84993981                0.09804909                0.13785172               -0.46585117                0.00946498                0.93462312                0.55413413
              12.41084492                9.40289959               26.86665566                0.98617757                0.19798650                0.28671979               -0.88781508                0.06361459                0.40541399               -0.56787973
               1.29299456                0.71817904               28.41421434                1.00000000               -0.34462561               -0.37117876                1.29340890               -0.06325805               -0.87766741                0.90333285
               2.28954830                0.56792530               28.32287674                1.00000000               -0.29328079               -0.29239299                1.03864541               -0.04823618               -1.13365643                0.08934065
               3.28712894                0.41735407               28.22641019                1.00000000               -0.17593911               -0.21387485                0.77247573               -0.04258239               -1.09535683               -0.20998597
               4.28602952                0.26733398               28.13588610                0.62761083                0.21071579               -0.16639827                0.51461150                0.34471604               -0.21874589               -0.76288197
               5.29134326                0.12623514               28.05708155                0.71467926                0.35411929               -0.05992598                0.23170163               -0.07472599                0.17943695                0.23058122
               6.29311191               -0.00792740               27.97540097                0.79622216                0.14211021                0.02377839               -0.04330584               -0.01529382               -0.15301594                0.13479664
               7.29418546               -0.14054676               27.89018435                0.77304088                0.11719856                0.09739385               -0.31885197               -0.00040351               -0.37318260               -0.07396352
               8.29545588               -0.27288029               27.80405826                0.86518615                0.15018063                0.18270834               -0.60135859                0.00135648               -0.63370576                0.10434489
               9.29718908               -0.40624797               27.71335012                1.00000000                0.22777943                0.26759735               -0.88017094               -0.00508681               -0.95428306                0.52840811
              10.30001147               -0.54056550               27.62056063                1.00000000                0.32977618                0.34138915               -1.15055664               -0.03587635               -0.95270936                0.00627594
              11.30378460               -0.67504908               27.52980486                1.00000000                0.37731334                0.42399735               -1.41108328               -0.04639096               -0.85125408               -0.84876182
               1.44261572                1.71446725               28.37703939                1.00000000               -0.31372966               -0.35397498                1.16676677               -0.02224120               -0.12488408                1.22960564
               2.43947842                1.56500137               28.28539336                1.00000000               -0.28084698               -0.27183699                0.91336249               -0.00440346               -0.12111896                0.12447184
               3.43699878                1.41521533               28.19378604                0.88037979               -0.22211381               -0.19011458                0.65041798                0.00766922                0.05787715               -0.55964135
               4.43503615                1.26566999               28.10568052                0.20935018               -0.43860455               -0.15004791                0.38054872                0.49019979                1.63014756               -1.15655205
               5.42822669                1.12563588               28.04541768                0.36998350               -0.43431128                0.05127279                0.14369742               -0.09268152                2.40890119                1.02377281
               6.42634992                0.99231038               27.97194059                0.47244575               -0.07844090                0.07799771               -0.10788768                0.09422086                1.53224405                0.44825170
               7.42665787                0.86042718               27.89387794                0.37154549                0.09850637                0.09223089               -0.36379794                0.14387076                1.44469592               -0.34295048
               8.42832005                0.72894679               27.81864997                0.50255295                0.21614708                0.18900143               -0.61462014                0.13021727                1.45554344                0.59898149
               9.43098081                0.59642800               27.74100202                1.00000000                0.28666025                0.26110643               -0.85920181                0.05957412                0.74096579                0.77214052
              10.43405325                0.46284839               27.65164515                1.00000000                0.34117281                0.33483536               -1.11912735                0.00623403                0.08901245                0.11223749
              11.43780427                0.32919090               27.56097272                1.00000000                0.37510149                0.42236765               -1.37810170               -0.00458449                0.02257157               -1.00063902
               1.59148150                2.71109954               28.34636430                1.00000000               -0.27693434               -0.32513583                1.04982124               -0.01506338                0.04543579                1.56027235
               2.58871216                2.56248856               28.24858506                1.00000000               -0.24339000               -0.23594830                0.79215789                0.00864090                0.21515087                0.10045860
               3.58661370                2.41355178               28.15414193                0.54253400               -0.16495998               -0.15195340                0.54305614                0.02132002                0.77770023               -1.33999937
               4.58541296                2.26433302               28.06756999                0.00010000               -1.18822302               -0.12971670                0.25690226                0.68829402                4.60721860               -2.04182112
               5.56284924                2.12726060               28.04966854                0.00010000               -1.26039638                0.09564379                0.06322626                1.23961044                5.36262421               -1.21584096
               6.56020503                1.99363255               27.97478127                0.00010000               -0.12113886               -0.07329071               -0.16031127                1.01395168                2.13769294               -0.24839599
               7.56042647                1.86129786               27.89220552                0.00010000                0.09271845               -0.11619083               -0.39241576                0.81016378                3.42564188                0.57037312
               8.56205940                1.73089974               27.84315283                0.00010000                0.20262474               -0.07705887               -0.64795865                0.52984010                4.03786968                1.12857168
               9.56447896                1.59897415               27.77356739                0.50719005                0.26569241                0.24849955               -0.83282900                0.07098288                2.03819261                1.56597987
              10.56737325                1.46613121               27.68485932                1.00000000                0.32644717                0.31477031               -1.07925514                0.00385717                0.72979772                0.70894705
              11.57100790                1.33339828               27.58908949                1.00000000                0.36346542                0.42148037               -1.34942822               -0.00657198                0.37631810               -1.01008753
               1.73953642                3.70796453               28.31579265                1.00000000               -0.23374179               -0.30208778                0.93176940               -0.01367980                0.08568695                1.48875508
               2.73719900                3.56028240               28.21059572                1.00000000               -0.19778472               -0.20358541                0.66942252                0.00734776                0.11223866               -0.03335887
               3.73558072                3.41217626               28.10586955                0.32958588               -0.10528928               -0.11087713                0.41479372               -0.02203098                1.05905403               -1.66748048
               4.73509321                3.26307566               28.01958800                0.00010000               -0.59306777               -0.08351636                0.15208609                0.65800935                4.99089976               -2.75184289
               5.72371937                3.12754876               27.99343898                0.00010000               -1.12507562                0.00207705               -0.01091866                1.74579627                7.55111782               -3.07675959
               6.71259170                2.99084457               27.95750633                0.00010000               -0.90627037               -0.09230509               -0.18451906                1.40010239                6.73782068               -0.91982985
               7.70559396                2.85810336               27.91397248                0.00010000               -0.56755733               -0.16812578               -0.37220663                1.11670271                6.27839151                1.28108468
               8.70124055                2.72740562               27.86821737                0.00010000               -0.42124786               -0.17966615               -0.56623025                0.87818190                5.92656108                1.60953633
               9.69716900                2.60139799               27.81708764                0.23732002               -0.07671389                0.13239278               -0.76975255                0.26137079                3.78523742                2.93580436
              10.69970628                2.46914380               27.72786260                1.00000000                0.29848469                0.28230877               -1.00373097               -0.03033301                0.94910836                1.11562439
              11.70313870                2.33762050               27.61994493                1.00000000                0.34324200                0.41966944               -1.30396404               -0.00998986                0.01326708               -0.69435853
               1.88657217                4.70505778               28.28368840                1.00000000               -0.19247820               -0.27316826                0.80487842               -0.02086150                0.12404931                1.30877395
               2.88464739                4.55841685               28.17108003                0.86933779               -0.15961737               -0.16286794                0.53792598               -0.00196615                0.18247840               -0.22644234
               3.88337983                4.41133424               28.05958207                0.19664578               -0.07233726               -0.05594149                0.28304301               -0.06437986                1.19373483               -1.63668266
               4.88320065                4.26266269               27.96718345                0.00010000               -0.66917822                0.06051239                0.01642282                0.46952186                6.45418465               -2.67869578
               5.86999626                4.12730214               27.96090941                0.00010000               -1.27740826                0.08048990               -0.09272539                0.91202357               10.40561375               -1.44387478
               6.85765248                3.99178645               27.94683200                0.00010000               -1.18983963                0.15707548               -0.20942873                0.77437515                9.73449068               -0.30500991
               7.84619947                3.85793534               27.92631802                0.00010000               -1.06620357                0.09234429               -0.34621223                0.63160146                9.27397776                0.92472974
               8.83632841                3.72730642               27.90199566                0.00010000               -0.91156376                0.05579798               -0.50206185                0.57739958                9.11181635                2.11950225
               9.82796819                3.60162201               27.87713927                0.20915982               -0.28921674               -0.01126804               -0.68145148                0.23280206                5.00088893                3.55903859
              10.83054407                3.47177738               27.76928106                0.79394736                0.29432517                0.23649430               -0.95087249               -0.00445265                0.50225126                1.17987571
              11.83385470                3.34179167               27.65423860                1.00000000                0.33106225                0.42448144               -1.25397439               -0.02918832                0.14129274               -0.46348259
               2.03240105                5.70250117               28.24951846                1.00000000               -0.15178359               -0.23215970                0.66906751               -0.02541366                0.12833164                1.11050499
               3.03088322                5.55702504               28.12918432                0.70216868               -0.11768852               -0.11379509                0.38650096               -0.00903242                0.28116055               -0.47054492
               4.03004728                5.41105743               28.01184485                0.13250604               -0.11837341                0.00215310                0.11992433               -0.03032450                1.72902252               -1.91756977
               5.02851575                5.26428591               27.92045802                0.00010000               -0.86056020                0.27352398               -0.16791257                0.24182320                8.44292866               -1.38963359
               6.01283608                5.12915856               27.93727857                0.00010000               -1.55348730                0.29133679               -0.17155382                0.60442195               13.28314882               -0.58780162
               6.99744600                4.99398608               27.94210140                0.00010000               -1.50650294                0.31093484               -0.22837936                0.36819051               12.43964510                0.21498635
               7.98270602                4.85995024               27.94117074                0.00010000               -1.41720642                0.27055159               -0.31747543                0.22971890               12.07724366                1.13801052
               8.96910188                4.72852158               27.93755284                0.00010000               -1.26759728                0.15485284               -0.42955588                0.21394059               12.00627942                2.17057299
               9.95735407                4.60117263               27.93376089                0.21511375               -0.48271544               -0.04347879               -0.56543536                0.08692270                6.26613282                3.22493955
              10.95944757                4.47387369               27.81369724                0.70319548                0.25861465                0.19646582               -0.86194363                0.02364696                0.26997658                1.28295001
              11.96252637                4.34611013               27.68970789                1.00000000                0.30788014                0.42640534               -1.20016075               -0.02398268                0.07813300               -0.40268276
               2.17701615                6.70041459               28.21344241                1.00000000               -0.11056693               -0.18347779                0.52802152               -0.02464860                0.06427973                0.95418088
               3.17591048                6.55614095               28.08472632                0.59962645               -0.07518407               -0.06534197                0.23619051               -0.00798194                0.25876714               -0.64261478
               4.17551247                6.41137730               27.95983528                0.09735812               -0.29872514                0.05604850               -0.04346801                0.08850235                3.39296636               -2.25276374
               5.16993598                6.26813317               27.89379927                0.00010000               -1.15639699                0.43191936               -0.29487498                0.11796818               11.05554752                0.16817873
               6.15238453                6.13312888               27.92191476                0.00010000               -1.78556887                0.48649519               -0.22249910                0.34200873               15.39147082                0.11772306
               7.13422460                5.99800515               27.94206973                0.00010000               -1.80630929                0.50024212               -0.23620265                0.08391429               14.84285182                0.57755321
               8.11625835                5.86334637               27.95819067                0.00010000               -1.74198829                0.41930402               -0.28301229               -0.13417759               14.63820191                1.25979432
               9.09938484                5.73040347               27.97286135                0.00010000               -1.59519037                0.22956124               -0.35120826               -0.22162070               14.66514325                2.08292722
              10.08435454                5.60075243               27.98787824                0.23447261               -0.66526642               -0.03592116               -0.43456658               -0.15657171                7.49802974                2.96261617
              11.08607951                5.47570670               27.85742308                0.65113934                0.22738048                0.17413579               -0.77404569                0.02481986                0.14633116                1.18871252
              12.08890215                5.35031977               27.72511670                1.00000000                0.28226391                0.40867729               -1.12868665               -0.01669298                0.05939419               -0.44200474
               2.32045537                7.69883161               28.17613029                1.00000000               -0.06944991               -0.13382358                0.38803373               -0.02340105                0.02568263                0.87271613
               3.31976087                7.55571820               28.03931523                0.55020664               -0.03151287               -0.02080310                0.08947148               -0.00358922                0.16731850               -0.69567898
               4.31982511                7.41217840               27.90526478                0.07539456               -0.53186631                0.09904942               -0.20527538                0.23611461                5.67324809               -2.41624374
               5.30912354                7.27292429               27.87856458                0.00010000               -1.50104147                0.51675781               -0.26996881                0.23273505               14.08274831                0.65901730
               6.28980428                7.13888846               27.91263134                0.00010000               -2.01083728                0.67054167               -0.24243318                0.25443615               17.07267449                0.48832710
               7.26890679                7.00399092               27.94496165                0.00010000               -2.10900688                0.72040710               -0.23354065               -0.10747523               16.98299036                0.72500051
               8.24762414                6.86833633               27.97597904                0.00010000               -2.08216975                0.60944986               -0.24445768               -0.47669977               17.00627169                1.22843962
               9.22726340                6.73311280               28.00722967                0.00010000               -1.93523638                0.33832470               -0.27377828               -0.69791722               17.16893683                1.91120902
              10.20891941                6.60045421               28.03979044                0.26133915               -0.84433870               -0.02132813               -0.31554865               -0.44416291                8.70864972                2.71913948
              11.21037663                6.47735640               27.90009810                0.62541056                0.20234765                0.15936961               -0.68851334                0.00994072                0.07100370                1.05977948
              12.21296637                6.35428368               27.75960673                1.00000000                0.25897410                0.38025345               -1.06098061               -0.00955860                0.03888781               -0.54306414
               2.46277495                8.69773812               28.13839544                1.00000000               -0.02830381               -0.08619322                0.25031754               -0.02255658                0.00870106                0.85906492
               3.46249191                8.55572489               27.99371813                0.54869059                0.01268602                0.02160048               -0.05461029                0.00060219                0.05268123               -0.69756395
               4.46302867                8.41335829               27.84984814                0.05580613               -0.73056477                0.13364901               -0.36164474                0.40278520                7.90715543               -2.30755800
               5.44788062                8.27846833               27.86224748                0.00010000               -1.83110209                0.64343760               -0.24828141                0.52109384               17.25314856                0.48495032
               6.42640663                8.14653971               27.90513860                0.00010000               -2.26266920                0.88971387               -0.25866319                0.30839367               18.85197598                0.48378067
               7.40262723                8.01241329               27.94840281                0.00010000               -2.44020819                0.95900006               -0.23027428               -0.17122567               19.00559040                0.63579300
               8.37760247                7.87553537               27.99294511                0.00010000               -2.46593110                0.89189676               -0.20085162               -0.70320019               19.25200585                1.00695125
               9.35330861                7.73716997               28.03962078                0.01813816               -2.31873934                0.53265416               -0.19742897               -1.21450534               19.58932050                1.64505733
              10.33122768                7.60032587               28.08929128                0.29304223               -1.04298814                0.00035494               -0.22233610               -0.78379382                9.93381510                2.38599285
              11.33244885                7.47889409               27.94131292                0.62335866                0.18143704                0.15286354               -0.61725585               -0.01102373                0.03993610                0.92193842
              12.33485642                7.35792484               27.79278428                1.00000000                0.24075711                0.34647754               -1.00619937               -0.00321882                0.02272740               -0.67444685
               2.60403070                9.69710775               28.10076126                1.00000000                0.01220392               -0.04168635                0.11519065               -0.02223169               -0.01166471                0.74573800
               3.60415274                9.55615021               27.94819454                0.57415610                0.05533369                0.06326622               -0.19684586                0.00196160                0.07748973               -0.59218796
               4.60513737                9.41485138               27.79733435                0.01632754               -0.88943693                0.16506942               -0.50460783                0.63926195               10.04105857               -1.57447388
               5.58636400                9.28579305               27.84401538                0.00010000               -2.15550902                0.96948075               -0.33996157                0.64765240               20.24860197                0.27925715
               6.56202719                9.15668274               27.89635945                0.00010000               -2.49386881                1.07262711               -0.29902084                0.30318275               20.67819304                0.27130702
               7.53648662                9.02317092               27.95011110                0.00010000               -2.66118667                1.13401798               -0.23958346               -0.10602841               20.97289984                0.36211088
               8.50880346                8.88617426               28.00690926                0.00010000               -2.91519159                1.14784548               -0.16505130               -0.61542167               21.45720948                0.57331128
               9.47818279                8.74376588               28.06908809                0.04827023               -2.86420232                1.03941964               -0.06954162               -1.30082249               21.93963472                1.05828540
              10.45151941                8.60046130               28.13452173                0.32735499               -1.28128048                0.03983135               -0.15985664               -1.18352400               11.23250832                1.54951037
              11.45255718                8.48041367               27.98116245                0.63963841                0.16605417                0.15333897               -0.56464964               -0.03065845                0.14212950                0.70587927
              12.45484049                8.36121323               27.82442879                0.98152020                0.22833138                0.31399628               -0.96690336               -0.00174504               -0.01321065               -0.66529203
               2.74424539               10.69690439               28.06068676                1.00000000                0.05421254               -0.02033584               -0.01820692                0.03005133                0.40967320                0.62845500
               3.74478752               10.55699021               27.90463709                0.82481866                0.09628436                0.08399973               -0.33542719                0.05124245                0.80949440               -0.49068997
               4.74617108               10.41665968               27.75650445                0.50716684               -1.28926049                0.18083006               -0.63713906                1.14675729               11.98688981               -0.98793264
               5.71900231               10.29785794               27.82398578                0.36706520               -2.55393327                1.20648950               -0.47036192                0.83045950               22.60052627                0.15046591
               6.69509241               10.16799225               27.88522822                0.35723181               -2.39935810                1.13095128               -0.36120968                0.16830753               22.48590348                0.12661145
               7.67101514               10.03509365               27.94861348                0.37303532               -2.51966723                1.19227279               -0.27168034               -0.02214637               22.84623730                0.18183375
               8.64469907                9.89849228               28.01567811                0.41301608               -2.90050128                1.23180176               -0.16248280               -0.26720323               23.45512376                0.30297094
               9.61300512                9.75795836               28.09019262                0.53746232               -3.68948280                1.41924755                0.01460043               -1.38625607               23.95856311                0.63071405
              10.57090941                9.60112250               28.16704543                0.68409179               -2.09606817                0.06611937               -0.13733334               -1.86087419               12.79321698                0.93444249
              11.57108376                9.48196087               28.01783387                0.83952671                0.11564965                0.15472003               -0.52837340                0.00677096                0.95669020                0.56425439
              12.57322241                9.36420477               27.85755930                0.98591393                0.21386498                0.29915368               -0.93363693                0.06258052                0.42002480               -0.57789752
               1.37676790                0.76507632               29.42712523                1.00000000               -0.34412056               -0.36990032                1.28868450               -0.06287453               -0.88949238                0.91412606
               2.37332669                0.60695224               29.33324749                1.00000000               -0.29417169               -0.29110360                1.03545940               -0.04756337               -1.15060972                0.09411977
               3.37088446                0.44848976               29.23413219                1.00000000               -0.18053733               -0.21275029                0.77211408               -0.04330861               -1.11320722               -0.20918132
               4.36971594                0.29048175               29.14104175                0.62697886                0.18380350               -0.16516991                0.51758786                0.31697472               -0.24513554               -0.78115515
               5.37456053                0.14070467               29.05942780                0.71450181                0.32398082               -0.06306007                0.23726335               -0.07050911                0.13663597                0.24265648
               6.37619556               -0.00275532               28.97498645                0.79664657                0.13637035                0.02197186               -0.03968593               -0.01838013               -0.19600619                0.14240474
               7.37728794               -0.14476484               28.88700379                0.77330361                0.12541142                0.09666925               -0.31649733               -0.00320740               -0.41983852               -0.07593861
               8.37870379               -0.28635310               28.79805028                0.86269394                0.16400084                0.18185758               -0.59945291               -0.00437484               -0.68074154                0.10587922
               9.38056796               -0.42866313               28.70455751                1.00000000                0.23639544                0.26568922               -0.87786278               -0.00832993               -0.99385466                0.54018254
              10.38343170               -0.57175147               28.60907264                1.00000000                0.33179710                0.34099838               -1.14684887               -0.03424914               -0.98285796                0.00474027
              11.38720390               -0.71498645               28.51571690                1.00000000                0.37722005                0.42493681               -1.40665734               -0.04413689               -0.87654513               -0.87227923
               1.53426323                1.76137732               29.38867734                1.00000000               -0.31188919               -0.35306864                1.16102045               -0.02182909               -0.12819532                1.24517006
               2.53114434                1.60404120               29.29450357                1.00000000               -0.27883058               -0.27057253                0.90877475               -0.00391848               -0.12946679                0.13115372
               3.52868662                1.44636225               29.20027067                0.89131307               -0.21830537               -0.18864763                0.64639161                0.00476469                0.04128473               -0.55140630
               4.52677823                1.28883005               29.10946420                0.21317328               -0.41063207               -0.14789520                0.37751867                0.45079580                1.62884508               -1.16968735
               5.52047398                1.14007407               29.04686835                0.37422367               -0.40158566                0.04289930                0.14904029               -0.08251684                2.42466044                1.04034098
               6.51874652                0.99746440               28.97087118                0.47855678               -0.07096107                0.07391479               -0.10522698                0.08455830                1.53871681                0.46153500
               7.51905476                0.85620185               28.89023526                0.37974365                0.09313333                0.09668085               -0.36422599                0.13307527                1.45080148               -0.33732787
               8.52060919                0.71546547               28.81248879                0.50646126                0.20645417                0.19215835               -0.61803647                0.11347933                1.46650295                0.58882449
               9.52318384                0.57399376               28.73240284                1.00000000                0.28208399                0.26050297               -0.86127944                0.05183089                0.74684801                0.78593651
              10.52625087                0.43165852               28.64044942                1.00000000                0.34068354                0.33523775               -1.12077664                0.00775738                0.08791227                0.11513796
              11.52999751                0.28926292               28.54719237                1.00000000                0.37466460                0.42668739               -1.37884769               -0.00208912                0.02272305               -1.02566328
               1.69100354                2.75801495               29.35682503                1.00000000               -0.27401552               -0.32489647                1.04300088               -0.01453880                0.04542111                1.58025854
               2.68826339                2.60154079               29.25647671                1.00000000               -0.24063174               -0.23457585                0.78618061                0.00851137                0.21883014                0.10855083
               3.68619091                2.44471680               29.15955331                0.55810291               -0.16216733               -0.14870137                0.53766092                0.01514673                0.76660020               -1.33433290
               4.68502004                2.28752385               29.07011092                0.00010000               -1.09575270               -0.12565012                0.25075915                0.63104830                4.62714363               -2.03787296
               5.66427585                2.14156266               29.05032999                0.00010000               -1.16305434                0.07747154                0.07011670                1.11854211                5.43940221               -1.19683059
               6.66175895                1.99872298               28.97317660                0.00010000               -0.11637408               -0.07446598               -0.16266310                0.89935074                2.19730848               -0.21598575
               7.66194837                1.85716877               28.88825861                0.00010000                0.07112565               -0.10559050               -0.39599060                0.70969645                3.46789341                0.60753754
               8.66318147                1.71749006               28.83660486                0.00010000                0.17315809               -0.06386727               -0.66281351                0.45986365                4.10051801                1.16898457
               9.66541153                1.57654693               28.76520476                0.50692248                0.25681106                0.24663467               -0.84129327                0.04913483                2.10472459                1.60083867
              10.66831769                1.43495329               28.67404425                1.00000000                0.32708891                0.31383715               -1.08580008                0.00160975                0.75310266                0.73629265
              11.67195331                1.29354730               28.57558017                1.00000000                0.36356238                0.42982901               -1.35573388               -0.00547708                0.38890121               -1.02366938
               1.84692077                3.75487939               29.32506745                1.00000000               -0.23080601               -0.30220547                0.92373691               -0.01341195                0.08949670                1.50386553
               2.84461271                3.59934969               29.21725845                1.00000000               -0.19571386               -0.20175814                0.66327413                0.00720274                0.11982644               -0.03032919
               3.84300649                3.44338823               29.11000307                0.33724638               -0.10296854               -0.10648664                0.41105878               -0.02921787                1.06649301               -1.67433063
               4.84255334                3.28631705               29.02110610                0.00010000               -0.56803999               -0.07418328                0.14864583                0.58249036                5.03809267               -2.74645353
               5.83164569                3.14162351               28.99331681                0.00010000               -1.07129597               -0.00758238               -0.01463850                1.55069676                7.65233759               -3.06199971
               6.82112742                2.99597508               28.95563112                0.00010000               -0.85820486               -0.09689594               -0.19143848                1.22288929                6.83865405               -0.87395946
               7.81448160                2.85409004               28.91019631                0.00010000               -0.53495580               -0.16781995               -0.38392791                0.95656871                6.37605932                1.34905561
               8.81042831                2.71418813               28.86248552                0.00010000               -0.38891412               -0.17768928               -0.58043054                0.76226505                6.02137348                1.70382384
               9.80670332                2.57892645               28.80932295                0.23370971               -0.05728084                0.11448717               -0.78510680                0.21390321                3.86671111                3.00118513
              10.80928269                2.43793526               28.71783112                0.99463932                0.29983160                0.27748586               -1.00879901               -0.03832267                0.98636196                1.15103521
              11.81269995                2.29785950               28.60694726                1.00000000                0.34172583                0.42437262               -1.29934021               -0.01058810                0.01963958               -0.69092681
               2.00179470                4.75197084               29.29168890                1.00000000               -0.18961006               -0.27320932                0.79558940               -0.02086311                0.13205932                1.31466676
               2.99989860                4.59750563               29.17642612                0.86040290               -0.15777598               -0.16032674                0.53141056               -0.00246418                0.19645449               -0.23816157
               3.99863918                4.44258707               29.06239538                0.19926648               -0.07320179               -0.05130398                0.27946854               -0.06777877                1.20775998               -1.66196836
               4.99843457                4.28604018               28.96734191                0.00010000               -0.65037116                0.06860102                0.01634926                0.39448819                6.53468093               -2.70636817
               5.98563176                4.14141101               28.95998181                0.00010000               -1.23421813                0.08073612               -0.09388963                0.76978844               10.56974771               -1.42769853
               6.97375020                3.99678506               28.94469806                0.00010000               -1.13825324                0.14387028               -0.21871619                0.63422834                9.89380635               -0.25702132
               7.96286670                3.85381237               28.92278205                0.00010000               -1.00799258                0.07598588               -0.36220587                0.49997997                9.42473851                0.99746040
               8.95359035                3.71393628               28.89687565                0.00010000               -0.84621149                0.03480901               -0.52238772                0.45512956                9.25123061                2.20721174
               9.94594247                3.57883667               28.87021982                0.20442029               -0.24860827               -0.04607691               -0.70550542                0.17469002                5.09831127                3.65313953
              10.94861819                3.44050300               28.75980439                0.77439811                0.29753011                0.22720086               -0.94374094               -0.01147356                0.53874006                1.21821032
              11.95189307                3.30203475               28.64175942                1.00000000                0.32748807                0.42722142               -1.24585475               -0.03279046                0.15806896               -0.45667913
               2.15543393                5.74941520               29.25615501                1.00000000               -0.14867365               -0.23183602                0.65839539               -0.02549016                0.12888510                1.10874620
               3.15394720                5.59614315               29.13301161                0.69457284               -0.11587851               -0.11048166                0.37902670               -0.00976950                0.28986771               -0.49187692
               4.15311636                5.44236215               29.01302473                0.13349331               -0.11640171                0.00796618                0.11611591               -0.03663527                1.73988227               -1.95859650
               5.15161916                5.28768907               28.91887247                0.00010000               -0.84098857                0.26511013               -0.14714377                0.16593634                8.57724056               -1.40874854
               6.13629659                5.14323823               28.93560007                0.00010000               -1.51042672                0.28298120               -0.16482794                0.45999669               13.53515967               -0.55595748
               7.12141063                4.99885248               28.93978185                0.00010000               -1.44833078                0.29411042               -0.23688911                0.23581697               12.66120249                0.27022623
               8.10732998                4.85560976               28.93790565                0.00010000               -1.34520130                0.24622899               -0.33690237                0.10314384               12.28533020                1.21291258
               9.09450660                4.71488431               28.93313195                0.00010000               -1.18497922                0.12659654               -0.45578745                0.08591222               12.20410971                2.26380048
              10.08363039                4.57800491               28.92796271                0.20994494               -0.43257320               -0.07676524               -0.59418155                0.02432044                6.38788428                3.33831883
              11.08585514                4.44247928               28.80501876                0.68485363                0.26751271                0.18731092               -0.87495801                0.02406495                0.29265631                1.34101079
              12.08898064                4.30640393               28.67767992                1.00000000                0.31255078                0.43419253               -1.20772737               -0.02341217                0.07712203               -0.38620608
               2.30782900                6.74733412               29.21866185                1.00000000               -0.10727304               -0.18253537                0.51581899               -0.02468687                0.06332452                0.94979473
               3.30675627                6.59529599               29.08704927                0.59327520               -0.07342203               -0.06151172                0.22834094               -0.00890914                0.26403538               -0.66139312
               4.30636056                6.44274639               28.95938404                0.09708082               -0.29395280                0.06278075               -0.04674026                0.06766351                3.43144009               -2.29269628
               5.30087721                6.29134239               28.89111657                0.00010000               -1.13461379                0.40710993               -0.24004478                0.02288776               11.25482466                0.24488615
               6.28366828                6.14707064               28.91977156                0.00010000               -1.73910988                0.46676919               -0.20697471                0.19660558               15.70471966                0.17393673
               7.26609501                6.00266727               28.93967627                0.00010000               -1.73852666                0.47568571               -0.24402459               -0.05141371               15.11682108                0.63958893
               8.24889775                5.85873695               28.95525619                0.00010000               -1.65907877                0.39033736               -0.30541928               -0.26217973               14.90257010                1.33634174
               9.23291344                5.71646821               28.96919895                0.00010000               -1.50319210                0.20079452               -0.38229459               -0.35448507               14.92674284                2.17592594
              10.21883391                5.57730137               28.98335574                0.22953756               -0.61064827               -0.05685479               -0.47012474               -0.22068804                7.64111529                3.07549985
              11.22070047                5.44424922               28.84958040                0.63378765                0.23708076                0.16911180               -0.79271715                0.03005228                0.15665497                1.24697458
              12.22357552                5.31071860               28.71377200                1.00000000                0.28750483                0.41926937               -1.14001966               -0.01674868                0.06051916               -0.41627024
               2.45901644                7.74576449               29.17994342                1.00000000               -0.06597064               -0.13191966                0.37436165               -0.02350341                0.02495371                0.86975438
               3.45835674                7.59491292               29.04016915                0.54503547               -0.02966019               -0.01691612                0.08117373               -0.00434450                0.16863624               -0.71119356
               4.45842324                7.44361776               28.90319763                0.07384846               -0.53020316                0.10544044               -0.20808983                0.19590339                5.80766265               -2.45222678
               5.44775267                7.29583127               28.87619978                0.00010000               -1.47597080                0.48842849               -0.20401025                0.12100041               14.36393281                0.78906684
               6.42890382                7.15257361               28.91029936                0.00010000               -1.95183187                0.64175627               -0.22609797                0.11853671               17.38401295                0.55232794
               7.40871604                7.00836620               28.94258814                0.00010000               -2.03091936                0.68977886               -0.24307741               -0.23697895               17.29913871                0.78672019
               8.38828544                6.86341650               28.97341668                0.00010000               -1.99317735                0.57735868               -0.26968449               -0.60197825               17.32255971                1.30570691
               9.36885249                6.71890020               29.00432016                0.00010000               -1.84249093                0.31290865               -0.30908012               -0.82735972               17.48635559                2.00061117
              10.35143562                6.57686782               29.03643226                0.25727537               -0.79067710               -0.02779103               -0.35555164               -0.51052995                8.87093469                2.81143110
              11.35303895                6.44586151               28.89307054                0.60860967                0.21356482                0.15922604               -0.71650071                0.01314629                0.07120208                1.10847194
              12.35570691                6.31478931               28.74890582                1.00000000                0.26679670                0.39122341               -1.07999728               -0.00831716                0.03888321               -0.52616779
               2.60906208                8.74469572               29.14082475                1.00000000               -0.02459718               -0.08305399                0.23515803               -0.02273826                0.00827857                0.85865872
               3.60881611                8.59495767               28.99312891                0.54427981                0.01490948                0.02522825               -0.06345214                0.00009932                0.05143198               -0.71080717
               4.60936027                8.44485520               28.84622039                0.05297831               -0.72373705                0.13835170               -0.36399646                0.34639330                8.12607994               -2.33445131
               5.59434137                8.30111096               28.86000113                0.00010000               -1.79280919                0.61986036               -0.20822327                0.41427773               17.61983979                0.54049059
               6.57350409                8.15990576               28.90259986                0.00010000               -2.19144134                0.85765697               -0.25224475                0.19750571               19.17426988                0.53012393
               7.55051254                8.01646284               28.94604121                0.00010000               -2.35899522                0.92821637               -0.24443025               -0.27887197               19.36883482                0.68587506
               8.52632418                7.87028413               28.99081689                0.00010000               -2.37988067                0.86208781               -0.22654730               -0.81228129               19.62009918                1.07824076
               9.50291493                7.72272638               29.03746619                0.01955605               -2.23310949                0.50831304               -0.23441329               -1.33367700               19.94497654                1.76194234
              10.48166199                7.57674554               29.08682401                0.29031576               -0.99365129                0.00683822               -0.27030976               -0.84522702               10.10622700                2.44790613
              11.48304190                7.44743374               28.93494497                0.60618024                0.19457895                0.16029019               -0.65652275               -0.00998062                0.03581973                0.95372770
              12.48555357                7.31854307               28.78258570                1.00000000                0.25116698                0.35811064               -1.03503086               -0.00129957                0.02239349               -0.67149465
               2.75803778                9.74410341               29.10183310                1.00000000                0.01614603               -0.03732033                0.09863106               -0.02246253               -0.01245396                0.74800516
               3.75819924                9.59541748               28.94617907                0.56884432                0.05800180                0.06661816               -0.20648814                0.00167437                0.07914439               -0.60279196
               4.75919782                9.44638480               28.79227615                0.01331829               -0.86057882                0.16822830               -0.50845601                0.57080508               10.28328727               -1.59072628
               5.74098767                9.30822848               28.84067165                0.00010000               -2.08478846                0.93820564               -0.33562514                0.56905450               20.67767711                0.25829951
               6.71750205                9.16972675               28.89335024                0.00010000               -2.41137184                1.04193889               -0.30646847                0.23403245               21.06498179                0.29204438
               7.69276023                9.02693053               28.94762652                0.00010000               -2.58628904                1.10849025               -0.26021811               -0.16998359               21.39385253                0.39006036
               8.66577627                8.88065826               29.00514153                0.00010000               -2.85213495                1.12843390               -0.19047379               -0.68682325               21.91484923                0.61840140
               9.63571753                8.72906646               29.06831296                0.05257264               -2.79762766                1.02038969               -0.08494240               -1.38211367               22.31556322                1.17659545
              10.60982372                8.57700458               29.13261588                0.32657400               -1.23378613                0.05618693               -0.22070632               -1.22770554               11.37303497                1.57496780
              11.61104181                8.44906732               28.97525896                0.62066809                0.18192766                0.16788542               -0.61675568               -0.03049858                0.14149972                0.72049287
              12.61346227                8.32195153               28.81457224                1.00000000                0.24204604                0.32687773               -1.00647937                0.00047025               -0.01088645               -0.67204721
               2.90598470               10.74394932               29.06042078                1.00000000                0.05835223               -0.01540965               -0.03574552                0.02876279                0.41052511                0.63215244
               3.90656822               10.59629003               28.90123011                0.82170095                0.09903416                0.08725516               -0.34605970                0.05041988                0.81833304               -0.49955163
               4.90796538               10.44821977               28.75010908                0.50510318               -1.20938567                0.18349738               -0.64318230                1.05600760               12.23665779               -0.99948315
               5.88238050               10.31987507               28.81924152                0.36736152               -2.42413443                1.16465909               -0.48156531                0.76552223               23.07798839                0.10897931
               6.85948269               10.18074454               28.88154846                0.35740689               -2.30995712                1.10177899               -0.37871019                0.13594284               22.94451455                0.13382090
               7.83618136               10.03863265               28.94577298                0.37282733               -2.45154519                1.17021215               -0.29974070               -0.05247365               23.32194102                0.19475941
               8.81045179                9.89285281               29.01391597                0.41224316               -2.86275144                1.21945459               -0.19239403               -0.30737192               23.99536123                0.32775854
               9.77892633                9.74313418               29.09032294                0.54067023               -3.66723794                1.40677174                0.01223722               -1.42829604               24.35624229                0.72030024
              10.73710703                9.57786928               29.16529970                0.68459429               -2.07206725                0.08646998               -0.21221327               -1.88880520               12.91622344                0.93988233
              11.73748499                9.45079145               29.01222955                0.82926192                0.13437640                0.17241359               -0.59412263                0.00488491                0.97581556                0.57146877
              12.73979456                9.32508062               28.84798292                0.98560174                0.23095670                0.31290965               -0.98452737                0.06214576                0.43477133               -0.58617156
               1.46296018                0.81335734               30.43998803                1.00000000               -0.34310315               -0.36864869                1.28363230               -0.06226316               -0.90119084                0.92518805
               2.45952915                0.64729554               30.34358593                1.00000000               -0.29448210               -0.29003187                1.03203802               -0.04653328               -1.16644275                0.09876559
               3.45707054                0.48089347               30.24185247                1.00000000               -0.18489745               -0.21273951                0.77103980               -0.04214705               -1.12825514               -0.20934618
               4.45583120                0.31486598               30.14623786                0.62607574                0.15303717               -0.16589046                0.51814070                0.28410071               -0.26974059               -0.79948303
               5.46013128                0.15620715               30.06182682                0.71572129                0.28922920               -0.06666447                0.24029863               -0.06757563                0.09206342                0.25551397
               6.46161579                0.00315122               29.97460725                0.79860183                0.12967875                0.01997116               -0.03609049               -0.02262483               -0.23862073                0.14891253
               7.46272486               -0.14852847               29.88385441                0.77470791                0.13357705                0.09542721               -0.31175474               -0.00640368               -0.46520696               -0.07767351
               8.46428733               -0.29963972               29.79206921                0.86004118                0.17823836                0.18084278               -0.59508116               -0.01080554               -0.72740465                0.10616084
               9.46628963               -0.45113498               29.69579286                1.00000000                0.24537966                0.26344674               -0.87368795               -0.01247469               -1.03267740                0.55185165
              10.46919492               -0.60322426               29.59762366                1.00000000                0.33377745                0.34037977               -1.14206000               -0.03282546               -1.01249066                0.00258856
              11.47296518               -0.75544560               29.50167171                1.00000000                0.37702549                0.42599627               -1.40206097               -0.04136855               -0.90206384               -0.89599129
               1.62839935                1.80967085               30.40025980                1.00000000               -0.31035993               -0.35213704                1.15543468               -0.02124472               -0.13156189                1.26102237
               2.62529575                1.64439522               30.30356885                1.00000000               -0.27677515               -0.26954242                0.90475324               -0.00367231               -0.13804295                0.13722200
               3.62286385                1.47876608               30.20671387                0.90289868               -0.21401916               -0.18803727                0.64317426                0.00264092                0.02440070               -0.54283884
               4.62101537                1.31320708               30.11323089                0.21638788               -0.37754686               -0.14661648                0.38148430                0.40611907                1.62909437               -1.17771257
               5.61531291                1.15554051               30.04839849                0.38042025               -0.36290088                0.03341915                0.15790389               -0.07079136                2.44158966                1.05622360
               6.61375735                1.00335093               29.96983605                0.48618771               -0.06283088                0.07008399               -0.10177765                0.07460413                1.53975159                0.46987891
               7.61405629                0.85242580               29.88659342                0.38879142                0.08625879                0.10080145               -0.36290293                0.12244918                1.45165624               -0.33177377
               8.61548253                0.70216870               29.80628924                0.51009451                0.19504257                0.19612130               -0.62196502                0.09549861                1.47553897                0.57407250
               9.61795714                0.55149948               29.72377643                1.00000000                0.27697230                0.26029022               -0.86454280                0.04276391                0.75300349                0.79836446
              10.62102197                0.40017954               29.62922961                1.00000000                0.34078441                0.33498086               -1.12406065                0.00899265                0.08680885                0.11734888
              11.62477283                0.24881436               29.53339576                1.00000000                0.37508597                0.43078005               -1.38208145                0.00092800                0.02317778               -1.05167206
               1.79308655                2.80631460               30.36722432                1.00000000               -0.27260719               -0.32464396                1.03708425               -0.01374124                0.04498077                1.59989943
               2.79036048                2.64190469               30.26430867                1.00000000               -0.23875256               -0.23344045                0.78181784                0.00911395                0.22103476                0.11645792
               3.78831150                2.47713273               30.16489515                0.57230702               -0.15906642               -0.14592531                0.52760616                0.01140236                0.75104727               -1.32532380
               4.78717915                2.31193365               30.07258517                0.00010000               -0.98699470               -0.11457426                0.24153556                0.56343863                4.64199993               -2.01909375
               5.76857161                2.15687554               30.05107087                0.00010000               -1.04782867                0.05582153                0.07237213                0.97737137                5.51506699               -1.18417088
               6.76622258                2.00455290               29.97152801                0.00010000               -0.11077692               -0.07535085               -0.16935855                0.76699709                2.24613919               -0.18986265
               7.76635607                1.85348756               29.88428570                0.00010000                0.04505180               -0.09323823               -0.39646740                0.59671281                3.49679957                0.64126249
               8.76712362                1.70428270               29.82989656                0.00010000                0.13889982               -0.04786956               -0.67912366                0.38210612                4.15601807                1.20759612
               9.76913407                1.55407082               29.75674153                0.50580405                0.24681390                0.24535732               -0.85348202                0.01965699                2.17353090                1.63364581
              10.77205989                1.40347536               29.66314332                1.00000000                0.32900131                0.31124121               -1.09624534               -0.00567917                0.77513799                0.76517514
              11.77571409                1.25317000               29.56197482                1.00000000                0.36541985                0.44041756               -1.36675056               -0.00421670                0.39896411               -1.03037408
               1.95694434                3.80317797               30.33426739                1.00000000               -0.22844393               -0.30255193                0.91668914               -0.01253792                0.09364552                1.51778968
               2.95465990                3.63972641               30.22386121                1.00000000               -0.19407048               -0.20021150                0.65762804                0.00895562                0.12755465               -0.02675179
               3.95306293                3.47584757               30.11409072                0.34283096               -0.10592855               -0.10297562                0.40697551               -0.02515449                1.07205599               -1.67782650
               4.95254133                3.31091559               30.02256092                0.00010000               -0.54109185               -0.05823470                0.14767126                0.49690243                5.07952088               -2.72681825
               5.94224110                3.15665694               29.99314621                0.00010000               -1.00280290               -0.02053171               -0.02202563                1.31958884                7.74914342               -3.05262120
               6.93248527                3.00184391               29.95367756                0.00010000               -0.79901751               -0.10287989               -0.20091705                1.02049444                6.93265365               -0.82976961
               7.92626075                2.85056103               29.90629392                0.00010000               -0.49719445               -0.16561742               -0.39824609                0.77639936                6.46717019                1.41192281
               8.92254139                2.70121131               29.85660876                0.00010000               -0.35515607               -0.17392379               -0.59639599                0.63186149                6.11103210                1.79838496
               9.91915762                2.55640663               29.80138551                0.22989297               -0.03660885                0.09871114               -0.80081753                0.15323330                3.94746525                3.06315166
              10.92180921                2.40640437               29.70768662                0.97156257                0.30707967                0.27392971               -1.03390281               -0.05322662                1.02976128                1.20431702
              11.92529922                2.25762272               29.59395812                1.00000000                0.34900096                0.43777060               -1.31746634               -0.00856926                0.03750296               -0.67609617
               2.11973892                4.80026356               30.29960019                1.00000000               -0.18689221               -0.27374153                0.78679531               -0.02024953                0.14056642                1.31911914
               3.11787000                4.63790046               30.18170824                0.85168657               -0.15598439               -0.15810290                0.52519509               -0.00197007                0.21112282               -0.24985580
               4.11661923                4.47507322               30.06517144                0.20082112               -0.07810815               -0.04753635                0.27586059               -0.06051823                1.22348453               -1.68576610
               5.11630783                4.31076896               29.96751043                0.00010000               -0.62920820                0.07103419                0.02233043                0.31677871                6.61645276               -2.72069609
               6.10403507                4.15646490               29.95903162                0.00010000               -1.17897298                0.07963614               -0.09774899                0.60575687               10.72730880               -1.40649230
               7.09272837                4.00249530               29.94245768                0.00010000               -1.07592047                0.12842409               -0.23122860                0.47947523               10.04290167               -0.20788064
               8.08251666                3.85017521               29.91907390                0.00010000               -0.94065618                0.05866625               -0.38148413                0.35553513                9.56716637                1.06924221
               9.07391525                3.70080423               29.89154791                0.00010000               -0.77554899                0.01314827               -0.54514668                0.32277327                9.38261195                2.29223360
              10.06700568                3.55604504               29.86302916                0.19936344               -0.20679871               -0.08017696               -0.72906346                0.11085289                5.20408754                3.74541832
              11.06977928                3.40895396               29.75040624                0.75461854                0.30501659                0.22567620               -0.95638162               -0.01726813                0.58994724                1.26804221
              12.07310601                3.26192541               29.62932151                1.00000000                0.33267334                0.43753592               -1.26613661               -0.03049141                0.17544143               -0.44698399
               2.28126555                5.79770314               30.26268637                1.00000000               -0.14547028               -0.23207455                0.64781004               -0.02543477                0.12951947                1.10537649
               3.27981085                5.63656435               30.13676485                0.68713268               -0.11407405               -0.10724607                0.37170121               -0.01036466                0.29899318               -0.51303869
               4.27898407                5.47489684               30.01416717                0.13375004               -0.11628145                0.01386288                0.11269687               -0.03866686                1.76278348               -1.99808462
               5.27748522                5.31233628               29.91751514                0.00010000               -0.81770876                0.24673096               -0.12218275                0.08449679                8.71671167               -1.40590356
               6.26262989                5.15824966               29.93398201                0.00010000               -1.45603725                0.27217115               -0.15978332                0.29801388               13.76841967               -0.51497421
               7.24836447                5.00441239               29.93736361                0.00010000               -1.37836861                0.27476644               -0.24873716                0.09163613               12.86570956                0.32892411
               8.23506252                4.85173436               29.93443269                0.00010000               -1.26187295                0.21934833               -0.36006825               -0.03338553               12.48055462                1.28848039
               9.22312701                4.70147428               29.92843709                0.00010000               -1.09187853                0.09647749               -0.48504150               -0.05131867               12.39363762                2.35608512
              10.21322495                4.55480309               29.92187726                0.20423356               -0.37717703               -0.11260815               -0.62583170               -0.03833316                6.51222193                3.45280331
              11.21558347                4.41091789               29.79619808                0.66567362                0.27607605                0.18202271               -0.88631861                0.02937063                0.32287409                1.39606732
              12.21874647                4.26637343               29.66555334                1.00000000                0.31629983                0.44215284               -1.21492273               -0.02327958                0.07840128               -0.36543493
               2.44150780                6.79562207               30.22375879                1.00000000               -0.10387992               -0.18196723                0.50338143               -0.02478187                0.06247450                0.94383974
               3.44046900                6.63575554               30.08929314                0.58698806               -0.07169156               -0.05748332                0.22037554               -0.01015344                0.26955971               -0.67947053
               4.44007397                6.47535047               29.95890048                0.09612228               -0.29120256                0.07003321               -0.04990854                0.04558514                3.49765587               -2.33010091
               5.43464495                6.31570358               29.88899837                0.00010000               -1.10773711                0.37423962               -0.18348611               -0.08134463               11.45901337                0.34068314
               6.41791923                6.16190833               29.91777527                0.00010000               -1.67842759                0.44285305               -0.19406846                0.03766655               15.98066200                0.23539401
               7.40107640                6.00799063               29.93718924                0.00010000               -1.65660823                0.44739916               -0.25576006               -0.19691918               15.36669037                0.70424145
               8.38478706                5.85456217               29.95208228                0.00010000               -1.56281269                0.35776973               -0.33185816               -0.39880317               15.15036670                1.41463607
               9.36982014                5.70273378               29.96521545                0.00010000               -1.39958313                0.16917556               -0.41662621               -0.49606853               15.17693616                2.27035636
              10.35679540                5.55379288               29.97847575                0.22392355               -0.55119001               -0.07942694               -0.50687083               -0.28882921                7.78563101                3.18981367
              11.35879634                5.41259441               29.84156874                0.61568802                0.24669651                0.16216880               -0.80900435                0.03596097                0.17308398                1.30621752
              12.36172933                5.27076847               29.70231631                1.00000000                0.29329857                0.42865945               -1.15228094               -0.01624416                0.06197203               -0.38493213
               2.60050297                7.79406380               30.18361752                1.00000000               -0.06235960               -0.13002289                0.36015627               -0.02369125                0.02425690                0.86540929
               3.59987938                7.63541469               30.04093871                0.53978647               -0.02776197               -0.01283588                0.07259512               -0.00551898                0.17007317               -0.72591714
               4.59994773                7.47629751               29.90110298                0.07170245               -0.52894517                0.11201358               -0.21078317                0.15052320                5.97319547               -2.48524120
               5.58930047                7.31982107               29.87448437                0.00010000               -1.44257782                0.45513467               -0.14204495                0.00311067               14.64985300                0.90757596
               6.57109618                7.16710672               29.90810938                0.00010000               -1.87641157                0.60914910               -0.21506143               -0.02639869               17.65218526                0.61296766
               7.55177224                7.01336038               29.94010010                0.00010000               -1.93764325                0.65508893               -0.25745871               -0.37532382               17.58874501                0.84902239
               8.53234331                6.85888975               29.97058535                0.00010000               -1.88986517                0.54065815               -0.29929844               -0.73550888               17.61994977                1.38667172
               9.51397494                6.70485779               30.00104806                0.00010000               -1.73777897                0.28411196               -0.34725492               -0.96471595               17.79066801                2.09390939
              10.49758773                6.55321455               30.03267941                0.25254465               -0.73239178               -0.03462548               -0.39535185               -0.58092415                9.02986017                2.90652488
              11.49932710                6.41416127               29.88576808                0.59134006                0.22428674                0.15929098               -0.74444930                0.01696412                0.07317030                1.15564188
              12.50207347                6.27494662               29.73800679                1.00000000                0.27463647                0.40300271               -1.10214881               -0.00678902                0.03873954               -0.50719986
               2.75833220                8.79302161               30.14309860                1.00000000               -0.02072855               -0.07959902                0.21920689               -0.02294396                0.00785045                0.85704119
               3.75812491                8.63549882               29.99244909                0.53969220                0.01729267                0.02892409               -0.07272228               -0.00088377                0.05021391               -0.72335999
               4.75867805                8.47759074               29.84256821                0.04988916               -0.71134818                0.14253251               -0.36683805                0.28351303                8.35942051               -2.35967010
               5.74389795                8.32480627               29.85808302                0.00010000               -1.74130523                0.59487865               -0.18380806                0.30217741               17.98490326                0.56455564
               6.72385195                8.17409131               29.90009370                0.00010000               -2.10555285                0.82341477               -0.25318059                0.07809530               19.46541841                0.56797830
               7.70178689                8.02109241               29.94351420                0.00010000               -2.26362364                0.89399920               -0.26448835               -0.39579162               19.70887989                0.73525393
               8.67857947                7.86537534               29.98841416                0.00010000               -2.27929319                0.82767289               -0.25713586               -0.93028515               19.96907487                1.15535067
               9.65620103                7.70841601               30.03493251                0.02064676               -2.13530174                0.47916291               -0.27445777               -1.46150997               20.28248201                1.89659872
              10.63587344                7.55310037               30.08388508                0.28712764               -0.93987360                0.01352089               -0.31667012               -0.90946996               10.26865893                2.50914245
              11.63740356                7.41578023               29.92818246                0.58876386                0.20746990                0.16888430               -0.69667793               -0.00840685                0.03059369                0.98426307
              12.64002284                7.27882853               29.77208366                0.99553325                0.26192810                0.37142211               -1.06804319                0.00096579                0.02186289               -0.66628536
               2.91508967                9.79247182               30.10273388                1.00000000                0.02028971               -0.03247698                0.08095733               -0.02261338               -0.01340669                0.74934817
               3.91529257                9.63599317               29.94406478                0.56419758                0.06104357                0.06991341               -0.21649255                0.00086516                0.07931063               -0.61284325
               4.91631054                9.47914816               29.78716523                0.01142675               -0.82245557                0.17067057               -0.51463666                0.49701231               10.52175416               -1.60675688
               5.89884346                9.33171864               29.83730288                0.00010000               -1.99692972                0.90457473               -0.34432102                0.48258037               21.09573592                0.21737535
               6.87637195                9.18357502               29.89023008                0.00010000               -2.31355391                1.00904546               -0.32211060                0.15605105               21.43180936                0.30609192
               7.85257238                9.03124036               29.94490674                0.00010000               -2.49789740                1.08017580               -0.28788903               -0.24161211               21.79623857                0.41731896
               8.82641400                8.87544321               30.00309978                0.00010000               -2.77763371                1.10616137               -0.22185529               -0.76612270               22.36562854                0.66832469
               9.79701971                8.71444105               30.06738925                0.05688664               -2.71899415                0.99642011               -0.10237359               -1.47065175               22.66402288                1.32060513
              10.77203412                8.55348497               30.13010760                0.32576896               -1.17944471                0.07260644               -0.27991844               -1.27241318               11.48356100                1.59636421
              11.77343081                8.41753895               29.96882734                0.60179313                0.19810370                0.18344155               -0.67029669               -0.02983062                0.13890971                0.73312890
              12.77599619                8.28237507               29.80429921                0.97871867                0.25653809                0.34157279               -1.05083609                0.00302402               -0.00854631               -0.67645091
               3.07083723               10.79237207               30.05997185                1.00000000                0.06286478               -0.00997460               -0.05486822                0.02725741                0.41072428                0.63513037
               4.07146588               10.63689709               29.89771590                0.81963951                0.10277983                0.09039210               -0.35665492                0.04893479                0.82447387               -0.50799260
               5.07289282               10.48100416               29.74364080                0.50337032               -1.11715896                0.18559967               -0.65025768                0.95826193               12.47673131               -1.01158106
               6.04912270               10.34289777               29.81435447                0.36764854               -2.27207871                1.11791243               -0.49863182                0.69132690               23.53709082                0.05993763
               7.02745125               10.19427222               29.87765401                0.35757381               -2.20181197                1.06971977               -0.40498817                0.09783787               23.38266724                0.13730333
               8.00508646               10.04269592               29.94261867                0.37262137               -2.36974577                1.14555617               -0.33584978               -0.08727487               23.77974892                0.20804488
               8.98005633                9.88749857               30.01183023                0.41145484               -2.81701107                1.20553529               -0.22961973               -0.35334194               24.53728816                0.35688329
               9.94874624                9.72834442               30.09043736                0.54397261               -3.63645324                1.39033703                0.00646375               -1.47465026               24.71946160                0.83319528
              10.90732727                9.55455250               30.16280116                0.68521432               -2.04146934                0.10675297               -0.28728891               -1.91545261               12.99320138                0.94004239
              11.90791685                9.41944906               30.00595142                0.81917894                0.15419112                0.19101086               -0.66298424                0.00397786                0.99221271                0.57612467
              12.91041109                9.28565998               29.83786875                0.98528119                0.24942435                0.32849163               -1.04164067                0.06258207                0.44969073               -0.59210150
               1.55154830                0.86303655               31.45279787                1.00000000               -0.34148966               -0.36750734                1.27837202               -0.06092645               -0.91461526                0.93781639
               2.54813340                0.68896170               31.35388825                1.00000000               -0.29404323               -0.28988023                1.02900816               -0.04322584               -1.18500300                0.10351142
               3.54566743                0.51458003               31.24955298                1.00000000               -0.18933073               -0.21172290                0.76800907               -0.03826758               -1.14895567               -0.21419068
               4.54434678                0.34050602               31.15140457                0.62476770                0.11824866               -0.15775303                0.51279857                0.23745226               -0.29906178               -0.81769592
               5.54803240                0.17267162               31.06423377                0.71823307                0.25243879               -0.07171290                0.24013556               -0.07021395                0.05146276                0.26613038
               6.54939556                0.00976533               30.97426464                0.80127433                0.12447225                0.01758894               -0.03166377               -0.02829317               -0.27499248                0.15334208
               7.55052185               -0.15179635               30.88076870                0.77749064                0.14108395                0.09314237               -0.30331102               -0.01047988               -0.50583910               -0.07764232
               8.55221724               -0.31266996               30.78614866                0.85802344                0.19190546                0.17895308               -0.58643844               -0.01787154               -0.77240221                0.10560577
               9.55435996               -0.47359322               30.68708375                1.00000000                0.25429003                0.26056092               -0.86541698               -0.01772472               -1.07035245                0.56333138
              10.55730304               -0.63491161               30.58623144                1.00000000                0.33532782                0.33974390               -1.13469618               -0.03159141               -1.04159746               -0.00029791
              11.56106651               -0.79635438               30.48767568                1.00000000                0.37634749                0.42807527               -1.39652547               -0.03805167               -0.92790070               -0.92060476
               1.72501388                1.85936148               31.41178603                1.00000000               -0.30844807               -0.35156057                1.14972046               -0.02055068               -0.13441858                1.27830519
               2.72192940                1.68606290               31.31259863                1.00000000               -0.27506450               -0.26920530                0.90114579               -0.00094164               -0.14605367                0.14404230
               3.71951259                1.51246280               31.21313416                0.89592437               -0.21269477               -0.18732743                0.64503505                0.00667589                0.01292138               -0.54420439
               4.71767551                1.33892849               31.11709388                0.22098914               -0.34059923               -0.13470363                0.39572946                0.34146142                1.63452455               -1.20399704
               5.71270061                1.17195449               31.05002643                0.38882877               -0.31644475                0.02299491                0.16193096               -0.06926630                2.45092414                1.05961624
               6.71134661                1.00994122               30.96883563                0.49432233               -0.05329579                0.06594449               -0.09924258                0.06259640                1.53265285                0.46959780
               7.71163469                0.84913508               30.88297720                0.39829434                0.07951744                0.10449370               -0.35954352                0.10861606                1.44653248               -0.32338359
               8.71293696                0.68911957               30.80004949                0.51323317                0.18344220                0.19962120               -0.62522201                0.07530362                1.48193824                0.55636224
               9.71530354                0.52901239               30.71511199                1.00000000                0.27153715                0.26019925               -0.86893619                0.03208397                0.76031279                0.80943108
              10.71836771                0.36848583               30.61796821                1.00000000                0.34126148                0.33556995               -1.12918176                0.00990507                0.08627130                0.11981359
              11.72212877                0.20792637               30.51955074                1.00000000                0.37610627                0.43659205               -1.38902567                0.00420886                0.02366341               -1.07686777
               1.89773445                2.85600534               31.37756671                1.00000000               -0.27211984               -0.32510863                1.03085820               -0.01316644                0.04727782                1.61989356
               2.89501325                2.68357759               31.27211307                1.00000000               -0.23995455               -0.23239090                0.77902500                0.01196020                0.22192252                0.12354973
               3.89293536                2.51083348               31.17010543                0.58124577               -0.16644664               -0.14536985                0.52051936                0.02348307                0.73583362               -1.32182287
               4.89168432                2.33781195               31.07494163                0.00010000               -0.86505032               -0.10365347                0.24203452                0.48554047                4.66990425               -2.02452311
               5.87563435                2.17313152               31.05177743                0.00010000               -0.91087053                0.03279197                0.05636917                0.80417927                5.57573178               -1.19306259
               6.87346691                2.01108422               30.96978943                0.00010000               -0.10592663               -0.07455996               -0.17800899                0.62240875                2.28131441               -0.17464271
               7.87351582                1.85029353               30.88032926                0.00010000                0.01895488               -0.07973891               -0.39641155                0.47486736                3.50998231                0.67098442
               8.87384600                1.69132247               30.82302239                0.00010000                0.10597834               -0.03075488               -0.69548756                0.29688154                4.20082003                1.24604168
               9.87563538                1.53161076               30.74813512                0.50388235                0.23705769                0.24447347               -0.86992407               -0.01257260                2.24423825                1.66926561
              10.87858716                1.37179979               30.65211934                1.00000000                0.33171103                0.31364255               -1.11277429               -0.01478541                0.79844776                0.78841333
              11.88226960                1.21237746               30.54824516                1.00000000                0.36824475                0.45322575               -1.38511430               -0.00332131                0.40928574               -1.03998123
               2.06960605                3.85285931               31.34340123                1.00000000               -0.22655802               -0.30355502                0.90949984               -0.01164885                0.09893152                1.53033637
               3.06734047                3.68141508               31.23041101                1.00000000               -0.19290751               -0.19863662                0.65261087                0.01163248                0.13762304               -0.02516979
               4.06574790                3.50955540               31.11814258                0.34641737               -0.11260989               -0.10190881                0.40413677               -0.00941653                1.08308820               -1.67926080
               5.06508827                3.33685542               31.02405953                0.00010000               -0.51179889               -0.05699557                0.15452445                0.41370324                5.12960745               -2.72661203
               6.05551192                3.17261033               30.99287629                0.00010000               -0.92277458               -0.03430803               -0.03266326                1.05954713                7.84296729               -3.04723083
               7.04663278                3.00845002               30.95161278                0.00010000               -0.73090645               -0.10714165               -0.21520581                0.80145088                7.01968722               -0.78777166
               8.04089380                2.84754030               30.90223139                0.00010000               -0.45377119               -0.16175416               -0.41714902                0.58292152                6.55042814                1.46712267
               9.03755736                2.68850448               30.85055760                0.00010000               -0.31595148               -0.16849212               -0.61712503                0.49014431                6.19896684                1.89381513
              10.03457477                2.53390186               30.79330660                0.22578420               -0.01260294                0.08212629               -0.81578448                0.08923497                4.01916993                3.12742873
              11.03730530                2.37475868               30.69715307                0.94998811                0.31661158                0.27763017               -1.06792810               -0.06866720                1.06590745                1.26119522
              12.04090700                2.21699089               30.58059793                1.00000000                0.36016973                0.45611961               -1.35233124               -0.01169091                0.05501328               -0.66433680
               2.24038993                4.84993424               31.30742480                1.00000000               -0.18401210               -0.27475885                0.77770354               -0.01987305                0.15013819                1.32142285
               3.23854981                4.67960486               31.18693002                0.84355961               -0.15416212               -0.15587983                0.51898308               -0.00165763                0.22708223               -0.26224652
               4.23730668                4.50879530               31.06791259                0.20163680               -0.08231789               -0.04419891                0.27257075               -0.05294922                1.24619682               -1.70924774
               5.23690345                4.33667204               30.96778852                0.00010000               -0.60379954                0.06138217                0.03395325                0.23501678                6.71074121               -2.75527465
               6.22523069                4.17244536               30.95802683                0.00010000               -1.11687449                0.07923801               -0.10371279                0.42869690               10.87344765               -1.37801792
               7.21456596                4.00894139               30.94007349                0.00010000               -1.00554503                0.11246934               -0.24780489                0.31272194               10.18151959               -0.15647077
               8.20511979                3.84705844               30.91515237                0.00010000               -0.86393124                0.04153420               -0.40664688                0.19925165                9.70088835                1.14123349
               9.19728733                3.68795262               30.88597271                0.00010000               -0.69769559               -0.00830056               -0.57340921                0.17861370                9.51329634                2.37548852
              10.19116588                3.53325329               30.85563855                0.19386373               -0.15812750               -0.11437334               -0.75258569                0.04694223                5.31193045                3.82971360
              11.19412478                3.37735239               30.74067676                0.73327335                0.32027451                0.22397266               -0.98625488               -0.02111017                0.63646622                1.34177383
              12.19757137                3.22149985               30.61643669                1.00000000                0.34465879                0.45547703               -1.30024559               -0.03869688                0.18067394               -0.41618802
               2.40986735                5.84736413               31.26911121                1.00000000               -0.14210921               -0.23272391                0.63677764               -0.02567144                0.13042936                1.10005489
               3.40844626                5.67829748               31.14044563                0.67993205               -0.11228044               -0.10360660                0.36437268               -0.01183678                0.30875129               -0.53409563
               4.40762174                5.50867142               31.01527867                0.13325543               -0.11538543                0.02066294                0.10959443               -0.04563295                1.79948158               -2.03574377
               5.40613855                5.33808306               30.91642881                0.00010000               -0.79026152                0.22573925               -0.10062030               -0.00985447                8.85750893               -1.39212348
               6.39181651                5.17419509               30.93240441                0.00010000               -1.39322063                0.26028969               -0.15740906                0.12381523               13.97796599               -0.46488638
               7.37827414                5.01069941               30.93480710                0.00010000               -1.29744605                0.25371093               -0.26540270               -0.06341295               13.05170841                0.39228260
               8.36586759                4.84837098               30.93070429                0.00010000               -1.16696742                0.19092865               -0.38938456               -0.18009353               12.66354432                1.36630147
               9.35493479                4.68833846               30.92343112                0.00010000               -0.98768737                0.06558702               -0.52062807               -0.19926174               12.57639892                2.44842285
              10.34611384                4.53161439               30.91544607                0.19785984               -0.31491282               -0.14789003               -0.66362286               -0.10364837                6.64632774                3.56198643
              11.34863653                4.37923813               30.78729238                0.64478657                0.28621470                0.17255884               -0.89568623                0.03414239                0.36726460                1.46114188
              12.35183814                4.22610043               30.65338147                1.00000000                0.32016046                0.45333309               -1.22278667               -0.02634830                0.08407816               -0.32547795
               2.57800979                6.84527976               31.22872948                1.00000000               -0.10040152               -0.18156287                0.49043055               -0.02511089                0.06167959                0.93626433
               3.57700578                6.67753273               31.09145678                0.58065474               -0.07006748               -0.05294283                0.21225239               -0.01223644                0.27526564               -0.69679518
               4.57660844                6.50920856               30.95838587                0.09450622               -0.29115456                0.07868895               -0.05295859                0.01869171                3.59156540               -2.36496071
               5.57118269                6.34118682               30.88744685                0.00010000               -1.07588940                0.34075394               -0.12839991               -0.19763078               11.66675621                0.45028312
               6.55509066                6.17765116               30.91589019                0.00010000               -1.60304384                0.41597173               -0.18603943               -0.13279671               16.21651167                0.30065755
               7.53912181                6.01401561               30.93456107                0.00010000               -1.56058951                0.41611364               -0.27331399               -0.35166578               15.59171218                0.77222220
               8.52387887                5.85087702               30.94861902                0.00010000               -1.45315586                0.32235371               -0.36474961               -0.54411807               15.38246706                1.49632204
               9.51005869                5.68926436               30.96086643                0.00010000               -1.28428094                0.13614319               -0.45730885               -0.64722642               15.41896927                2.36816135
              10.49819325                5.53029549               30.97321832                0.21749264               -0.48685495               -0.10127031               -0.54861094               -0.36309193                7.93729247                3.30957193
              11.50032159                5.38080357               30.83340031                0.59658007                0.25632842                0.15612458               -0.82723047                0.04047326                0.19871070                1.36296366
              12.50331982                5.23056651               30.69072638                1.00000000                0.29982211                0.43887706               -1.17013815               -0.01539770                0.06283789               -0.35371007
               2.74485920                7.84373287               31.18714654                1.00000000               -0.05864683               -0.12797883                0.34533469               -0.02400877                0.02356459                0.85969224
               3.74427273                7.67723863               31.04162105                0.53423995               -0.02588585               -0.00841657                0.06368594               -0.00713371                0.17163539               -0.73973940
               4.74434149                7.51024520               30.89898197                0.06909009               -0.52646963                0.11954963               -0.21365852                0.09829129                6.16682263               -2.51581380
               5.73374334                7.34489814               30.87335888                0.00010000               -1.40048450                0.41983706               -0.08807837               -0.11997087               14.93741817                1.00692827
               6.71633180                7.18251453               30.90599813                0.00010000               -1.78641905                0.57467330               -0.21142322               -0.17929245               17.87715013                0.66930136
               7.69801496                7.01902168               30.93743897                0.00010000               -1.82976618                0.61728418               -0.27886052               -0.52242991               17.85232083                0.91246658
               8.67973647                6.85481806               30.96743071                0.00010000               -1.77215841                0.49998476               -0.33576056               -0.87759229               17.90024674                1.47262701
               9.66257179                6.69106133               30.99737507                0.00010000               -1.62118344                0.25264051               -0.39088246               -1.10970603               18.08619781                2.19335825
              10.64731280                6.52958898               31.02852522                0.24697792               -0.66984095               -0.03976437               -0.43745478               -0.65543640                9.19025834                3.00908584
              11.64917497                6.38236062               30.87818155                0.57350007                0.23457447                0.16280905               -0.77540719                0.02112962                0.07863695                1.20278269
              12.65200429                6.23487797               30.72686284                0.99392805                0.28293191                0.41792157               -1.13171363               -0.00483442                0.03874563               -0.48539008
               2.91051811                8.84272019               31.14520889                1.00000000               -0.01673364               -0.07578742                0.20251977               -0.02314662                0.00737047                0.85407952
               3.91035078                8.67736440               30.99167447                0.53506424                0.01983202                0.03275909               -0.08246188               -0.00196318                0.04860720               -0.73488225
               4.91091475                8.51159955               30.83888363                0.04684508               -0.69184167                0.14659320               -0.37145799                0.21362428                8.59860081               -2.38411942
               5.89651394                8.34958356               30.85632497                0.00010000               -1.67667412                0.57031923               -0.17659791                0.18196302               18.34381415                0.55555292
               6.87738127                8.18914462               30.89753624                0.00010000               -2.00721294                0.78868749               -0.26330463               -0.05098455               19.72946893                0.59732006
               7.85636968                8.02636129               30.94075145                0.00010000               -2.15469491                0.85753809               -0.29285636               -0.52337814               20.02675441                0.78426317
               8.83428737                7.86087671               30.98567418                0.00010000               -2.16380181                0.78953147               -0.29583326               -1.05871280               20.30127741                1.23881795
               9.81309365                7.69431717               31.03197704                0.02122287               -2.02510741                0.44561926               -0.32048173               -1.59790689               20.60799044                2.05026669
              10.79378522                7.52950020               31.08049061                0.28332237               -0.88192227                0.02134029               -0.36202074               -0.97566922               10.42617751                2.57382969
              11.79545520                7.38405975               30.92101141                0.57106003                0.22016066                0.18001587               -0.73896959               -0.00609142                0.02481568                1.01610765
              12.79818844                7.23892494               30.76122484                0.97994899                0.27332355                0.38797246               -1.10758722                0.00368548                0.02130675               -0.65644121
               3.07510785                9.84221713               31.10345225                1.00000000                0.02462569               -0.02721017                0.06228858               -0.02268294               -0.01451428                0.74927843
               4.07535410                9.67789381               30.94184922                0.56123453                0.06434795                0.07317758               -0.22677050               -0.00010464                0.07677185               -0.62150942
               5.07639481                9.51317707               30.78198342                0.01021229               -0.77582851                0.17187264               -0.52076351                0.41786971               10.74914944               -1.62029767
               6.05983753                9.35630453               30.83378522                0.00010000               -1.89302140                0.86935321               -0.36449661                0.38531897               21.49700906                0.16318162
               7.03853438                9.19828828               30.88690802                0.00010000               -2.20111141                0.97490626               -0.34756530                0.06792423               21.77975491                0.31363901
               8.01581531                9.03617244               30.94186874                0.00010000               -2.39640241                1.05041971               -0.32524141               -0.32245747               22.18046499                0.44387495
               8.99060633                8.87060869               31.00070442                0.00010000               -2.69125692                1.08264314               -0.26378104               -0.85536234               22.81199347                0.72301940
               9.96199017                8.69997371               31.06626549                0.06104141               -2.62747426                0.96923382               -0.13006106               -1.56709579               22.99288321                1.49035420
              10.93805685                8.53001579               31.12701751                0.32481345               -1.11808836                0.08914046               -0.33668567               -1.31704983               11.56968292                1.61562454
              11.93962840                8.38596094               30.96185302                0.58303067                0.21453821                0.20030201               -0.72529140               -0.02859605                0.13453868                0.74547010
              12.94234761                8.24263742               30.79355552                0.96451650                0.27192089                0.35872777               -1.10095932                0.00591071               -0.00628300               -0.67665823
               3.23871109               10.84217598               31.05932342                1.00000000                0.06776553               -0.00411413               -0.07534197                0.02552058                0.41036714                0.63660207
               4.23938874               10.67882795               30.89409702                0.81878965                0.10751699                0.09341417               -0.36727830                0.04651491                0.82697614               -0.51466833
               5.24086143               10.51503701               30.73710393                0.50213543               -1.01398168                0.18599403               -0.65537173                0.85379591               12.70039868               -1.01834454
               6.21910911               10.36697063               30.80926889                0.36791169               -2.09947929                1.06660991               -0.52172932                0.60744447               23.97228902                0.01049378
               7.19887184               10.20864275               30.87344870                0.35773973               -2.07544914                1.03544676               -0.44136450                0.05369906               23.79772926                0.13694836
               8.17760013               10.04736968               30.93905598                0.37240592               -2.27464936                1.11972412               -0.38291894               -0.12717655               24.21905730                0.22148694
               9.15337885                9.88252958               31.00932358                0.41065091               -2.76277480                1.19208886               -0.27962666               -0.40613922               25.08175443                0.39017871
              10.12234463                9.71370185               31.09045221                0.54728291               -3.59609268                1.37281379               -0.01550004               -1.52688209               25.05596347                0.96898227
              11.08145700                9.53128301               31.15955392                0.68587192               -2.00414887                0.12672205               -0.36122687               -1.94178759               13.03078641                0.93571154
              12.08226165                9.38806579               30.99896986                0.80928632                0.17483487                0.21048482               -0.73426580                0.00414977                1.00625706                0.57894361
              13.08495370                9.24609950               30.82715011                0.98129662                0.26920453                0.34620831               -1.10527075                0.06398003                0.46475033               -0.59473671
               1.64248712                0.91413735               32.46555548                1.00000000               -0.34131361               -0.36692340                1.27425258               -0.05936907               -0.92950498                0.95166732
               2.63907398                0.73194501               32.36416609                1.00000000               -0.29560023               -0.28937565                1.02746724               -0.03924563               -1.20846660                0.10701236
               3.63657511                0.54944731               32.25721265                1.00000000               -0.19524009               -0.21177650                0.76664704               -0.03538746               -1.17958593               -0.21594444
               4.63516918                0.36713343               32.15649383                0.62440957                0.08626767               -0.15433579                0.51246377                0.18929688               -0.33356095               -0.82629637
               5.63830047                0.18994443               32.06662953                0.71892040                0.22059124               -0.07552619                0.23919508               -0.07395029                0.01994153                0.27077013
               6.63958101                0.01707607               31.97397398                0.80314564                0.12117939                0.01420234               -0.02540551               -0.03427493               -0.30154606                0.15701369
               7.64072406               -0.15449833               31.87778819                0.78146640                0.14716102                0.08958910               -0.29096607               -0.01536470               -0.53840234               -0.07539539
               8.64252423               -0.32532927               31.78034044                0.85833665                0.20378705                0.17514920               -0.57143865               -0.02509652               -0.81267754                0.10494127
               9.64479980               -0.49592482               31.67848453                1.00000000                0.26234086                0.25615635               -0.84972093               -0.02423497               -1.10586808                0.57323116
              10.64777104               -0.66670375               31.57492973                1.00000000                0.33594404                0.33916609               -1.12248678               -0.03038933               -1.07031782               -0.00426764
              11.65151868               -0.83760781               31.47374120                1.00000000                0.37476336                0.43153456               -1.38835900               -0.03417039               -0.95420351               -0.94688762
               1.82408577                1.91046812               32.42325421                1.00000000               -0.30592240               -0.35200410                1.14418257               -0.01907321               -0.13812374                1.29629476
               2.82102655                1.72905125               32.32159177                1.00000000               -0.27293738               -0.26908497                0.89790738                0.00238244               -0.15189430                0.15155687
               3.81862703                1.54732954               32.21961458                0.88845951               -0.21064821               -0.18797288                0.64850536                0.00816615                0.00968120               -0.55154100
               4.81681359                1.36559007               32.12114548                0.22916536               -0.30186910               -0.13279417                0.40222787                0.27978430                1.63947531               -1.24557757
               5.81258965                1.18918917               32.05163711                0.39532689               -0.26769745                0.01099965                0.15298896               -0.07170008                2.45013587                1.04548632
               6.81145964                1.01721810               31.96785120                0.50130022               -0.04082815                0.06034106               -0.10069551                0.04622099                1.52631239                0.46552671
               7.81177308                0.84639756               31.87940255                0.40757628                0.07634350                0.10756935               -0.35594142                0.09014090                1.43912839               -0.31235632
               8.81298651                0.67642222               31.79378480                0.51574761                0.17358011                0.20123501               -0.62529614                0.05245572                1.48598735                0.53759982
               9.81524468                0.50663674               31.70639770                1.00000000                0.26610689                0.25931717               -0.87372932                0.01938872                0.76870129                0.81879203
              10.81830865                0.33668791               31.60664598                1.00000000                0.34181755                0.33812608               -1.13612467                0.01092787                0.08666415                0.12054282
              11.82208104                0.16670753               31.50561525                1.00000000                0.37723899                0.44655010               -1.40040680                0.00843734                0.02441161               -1.10482792
               2.00493939                2.90709727               32.38784148                1.00000000               -0.26791816               -0.32707547                1.02372593               -0.01251464                0.05097949                1.64011826
               3.00226021                2.72656331               32.27988917                1.00000000               -0.23698895               -0.23225920                0.77449824                0.01175192                0.22441855                0.13129277
               4.00019961                2.54568785               32.17530554                0.58875077               -0.16774868               -0.14371736                0.52558811                0.01816988                0.73240304               -1.32825581
               4.99890524                2.36447755               32.07742586                0.00010000               -0.74805841               -0.10268066                0.25900717                0.40313804                4.70500020               -2.07228017
               5.98523845                2.19016443               32.05219826                0.00010000               -0.78041014                0.01368751                0.02209471                0.63814423                5.61892435               -1.20630999
               6.98329703                2.01828289               31.96796783                0.00010000               -0.09578467               -0.07068400               -0.18995902                0.47764578                2.32173072               -0.16443443
               7.98332275                1.84765306               31.87635747                0.00010000                0.00185633               -0.06585879               -0.40277728                0.34819686                3.51454541                0.69654308
               8.98333416                1.67869543               31.81598680                0.00010000                0.07995625               -0.01424620               -0.70996811                0.20337343                4.23786928                1.28508973
               9.98492188                1.50926152               31.73934305                0.49899609                0.22923240                0.24075150               -0.89260148               -0.04678894                2.31488784                1.71190864
              10.98791881                1.34005877               31.64088784                1.00000000                0.33631507                0.31914743               -1.13756249               -0.02054753                0.82250203                0.81227374
              11.99164818                1.17132319               31.53427253                1.00000000                0.37293693                0.47184571               -1.41569914               -0.00212217                0.42104170               -1.04918732
               2.18490341                3.90392661               32.35245739                1.00000000               -0.22323965               -0.30576145                0.90083723               -0.01246152                0.10492703                1.54251779
               3.18267101                3.72440607               32.23691342                1.00000000               -0.19136130               -0.19711981                0.64760124                0.00961108                0.14913922               -0.02470260
               4.18107618                3.54445519               32.12217346                0.35128294               -0.11356214               -0.09678364                0.40257673               -0.01922773                1.10033184               -1.68300005
               5.18039977                3.36353646               32.02565141                0.00010000               -0.47644988               -0.05916840                0.15731243                0.32554531                5.18750285               -2.75624926
               6.17154719                3.18946292               31.99249294                0.00010000               -0.84379247               -0.03939968               -0.04302613                0.81242791                7.92362599               -3.02601974
               7.16352392                3.01580442               31.94937344                0.00010000               -0.66113491               -0.10556650               -0.23581612                0.57768319                7.09688232               -0.74555923
               8.15832449                2.84508039               31.89795094                0.00010000               -0.40392040               -0.15630382               -0.44250609                0.38226638                6.62464098                1.51757455
               9.15544551                2.67613729               31.84426626                0.00010000               -0.26894642               -0.16274722               -0.64707248                0.33661077                6.28324830                1.98943812
              10.15294556                2.51145177               31.78506982                0.22091309                0.01952569                0.06191607               -0.83107410                0.02759658                4.08329867                3.19253768
              11.15583603                2.34307086               31.68632806                0.92759589                0.32820979                0.27956714               -1.09716331               -0.07578356                1.09713842                1.32254470
              12.15950976                2.17614445               31.56691150                1.00000000                0.36737286                0.47474621               -1.38480766               -0.01506912                0.07324653               -0.63883367
               2.36373125                4.90098204               32.31515426                1.00000000               -0.18073992               -0.27635202                0.76759919               -0.02101930                0.15991832                1.32263805
               3.36192385                4.72262091               32.19208791                0.83582062               -0.15232922               -0.15251920                0.51230735               -0.00412340                0.24338808               -0.27483892
               4.36068466                4.54375218               32.07062286                0.20198785               -0.07577165               -0.03732476                0.26921446               -0.07061965                1.27508398               -1.73191429
               5.36040842                4.36329418               31.96818950                0.00010000               -0.57328072                0.06495095                0.03615350                0.13670725                6.79511017               -2.78979818
               6.34921905                4.18937643               31.95695736                0.00010000               -1.05875917                0.08128294               -0.11111186                0.25705599               10.99914864               -1.34016436
               7.33923323                4.01617156               31.93750158                0.00010000               -0.92919236                0.09830268               -0.26957206                0.13626948               10.30469353               -0.09939764
               8.33063520                3.84452698               31.91094096                0.00010000               -0.77691211                0.02566734               -0.44016600                0.03269113                9.82328776                1.21658086
               9.32369499                3.67544048               31.88007972                0.00010000               -0.60474801               -0.02941384               -0.61288877                0.02202781                9.64095696                2.46063566
              10.31854024                3.51049984               31.84797744                0.18757391               -0.09922644               -0.14943596               -0.78262069               -0.02228430                5.42378304                3.89946215
              11.32171046                3.34565011               31.73068115                0.70727020                0.33296885                0.21731563               -1.00376084               -0.02621935                0.68532256                1.42710424
              12.32519962                3.18081811               31.60331660                1.00000000                0.34891573                0.47148681               -1.31594062               -0.04619455                0.18483448               -0.36424432
               2.54120529                5.89839957               32.27542192                1.00000000               -0.13868729               -0.23350123                0.62497134               -0.02661182                0.13131520                1.09357672
               3.53981841                5.72135568               32.14405231                0.67282738               -0.11073822               -0.09883489                0.35682088               -0.01483983                0.31855204               -0.55441615
               4.53899052                5.54370870               32.01635906                0.13209569               -0.11543769                0.02978901                0.10634256               -0.06448299                1.84365957               -2.07088231
               5.53750966                5.36483548               31.91550274                0.00010000               -0.75897986                0.22424957               -0.08919426               -0.12763929                8.99658243               -1.35463894
               6.52381092                5.19108858               31.93083383                0.00010000               -1.32054491                0.24756614               -0.15949774               -0.05744096               14.16481563               -0.40541167
               7.51109876                5.01777047               31.93205556                0.00010000               -1.20507655                0.23158222               -0.28868141               -0.22731349               13.21603392                0.46142570
               8.49970939                4.84559373               31.92664500                0.00010000               -1.05927765                0.16176030               -0.42791738               -0.33628069               12.83209909                1.44965514
               9.48991321                4.67554902               31.91802453                0.00010000               -0.87095766                0.03562867               -0.56804355               -0.36127185               12.75338888                2.54476887
              10.48229024                4.50846305               31.90860480                0.19061728               -0.24599197               -0.17973353               -0.71351138               -0.18323592                6.79475089                3.66985613
              11.48499337                4.34741717               31.77828435                0.62143071                0.29798123                0.16572005               -0.91086397                0.03315833                0.42449688                1.53580287
              12.48824986                4.18557418               31.64109761                1.00000000                0.32564961                0.46973909               -1.24302819               -0.02758224                0.08955717               -0.27681734
               2.71728679                6.89631202               32.23356740                1.00000000               -0.09688615               -0.18106685                0.47689982               -0.02578252                0.06083460                0.92764965
               3.71631792                6.72064421               32.09353819                0.57420929               -0.06857895               -0.04767351                0.20384313               -0.01529084                0.28097439               -0.71313924
               4.71591521                6.54434796               31.95784130                0.09222209               -0.29210874                0.08873853               -0.05611613               -0.01546016                3.71125668               -2.39703830
               5.71047575                6.36777917               31.88643037                0.00010000               -1.03899822                0.31230168               -0.07660070               -0.32485906               11.87443475                0.57827584
               6.69513524                6.19432775               31.91405448                0.00010000               -1.51469698                0.38790590               -0.18492888               -0.31138976               16.41050019                0.37025906
               7.68018181                6.02080321               31.93172296                0.00010000               -1.45021002                0.38244304               -0.29892336               -0.51391280               15.79095338                0.84467448
               8.66613104                5.84776219               31.94478729                0.00010000               -1.32907879                0.28467033               -0.40718040               -0.69736997               15.59838075                1.58404426
               9.65360023                5.67615305               31.95606928                0.00010000               -1.15618368                0.10326660               -0.50877818               -0.80829167               15.65391756                2.47422111
              10.64300737                5.50690517               31.96750353                0.21012177               -0.41688686               -0.11695365               -0.60181767               -0.44461832                8.10049658                3.44168924
              11.64526250                5.34896452               31.82502413                0.57638036                0.26632911                0.15943232               -0.85547281                0.04382861                0.23698819                1.42352062
              12.64833395                5.19021290               31.67891355                0.99532525                0.30714535                0.45830912               -1.20309439               -0.01336529                0.06405690               -0.31891438
               2.89202524                7.89477823               32.19052421                1.00000000               -0.05485846               -0.12572583                0.33001602               -0.02451888                0.02282153                0.85294932
               3.89147666                7.72040221               32.04221243                0.52854309               -0.02394421               -0.00356012                0.05429714               -0.00951874                0.17309015               -0.75254259
               4.89154636                7.54548347               31.89682981                0.06614803               -0.52219900                0.12794748               -0.21769754                0.03818287                6.38343180               -2.54455824
               5.88103268                7.37108151               31.87272280                0.00010000               -1.34936327                0.38559076               -0.04580307               -0.24954521               15.22259419                1.08158704
               6.86455909                7.19884670               31.90388091                0.00010000               -1.68233035                0.54000290               -0.21705782               -0.33912888               18.05989714                0.72178353
               7.84738607                7.02541933               31.93452289                0.00010000               -1.70734732                0.57723435               -0.30958504               -0.67786610               18.09038201                0.97815434
               8.83041215                6.85128714               31.96387014                0.00010000               -1.63908410                0.45578999               -0.38207554               -1.02782950               18.16478957                1.56534218
               9.81460439                6.67761435               31.99323041                0.00010000               -1.49128675                0.21889342               -0.44364819               -1.26094938               18.37697786                2.30252873
              10.80058641                6.50612398               32.02393031                0.24045693               -0.60210864               -0.04102490               -0.48584882               -0.73266435                9.35713624                3.12748656
              11.80256222                6.35060582               31.87025994                0.55518385                0.24496924                0.17331992               -0.81279584                0.02597663                0.08969807                1.25607493
              12.80548580                6.19474037               31.71537251                0.97600415                0.29235805                0.43970645               -1.17270095               -0.00213628                0.03931403               -0.45548587
               3.06554845                8.89379750               32.14714899                1.00000000               -0.01261344               -0.07176884                0.18534092               -0.02343940                0.00673093                0.84986171
               4.06542231                8.72057301               31.99079985                0.53105054                0.02255573                0.03691091               -0.09278661               -0.00352124                0.04532193               -0.74505433
               5.06599956                8.54690691               31.83513905                0.04406008               -0.66503483                0.15192176               -0.37815379                0.13645726                8.83478529               -2.40549662
               6.05212162                8.37549099               31.85455106                0.00010000               -1.59923567                0.54784218               -0.18678453                0.05236320               18.69130979                0.51435954
               7.03401485                8.20512781               31.89482761                0.00010000               -1.89687855                0.75443233               -0.28418583               -0.19093285               19.97057482                0.61878548
               8.01418405                8.03234789               31.93765708                0.00010000               -2.03177078                0.81969968               -0.33189557               -0.66253083               20.32315705                0.83361151
               8.99337943                7.85687799               31.98249750                0.00010000               -2.03198198                0.74835310               -0.34657879               -1.19859994               20.61913554                1.32885648
               9.97354441                7.68053092               32.02852288                0.02109058               -1.90084112                0.40793027               -0.37618515               -1.74167097               20.92921827                2.22131701
              10.95536261                7.50608467               32.07664467                0.27868854               -0.81893820                0.03050833               -0.40797318               -1.04230877               10.58548725                2.64815486
              11.95716564                7.35243091               31.91340307                0.55319041                0.23297587                0.19420426               -0.78432411               -0.00281463                0.01927579                1.05381954
              12.96002213                7.19900703               31.74993192                0.96451304                0.28564859                0.40881318               -1.15472818                0.00659800                0.02077813               -0.63694109
               3.23800544                9.89334286               32.10397965                1.00000000                0.02913954               -0.02178660                0.04305086               -0.02279626               -0.01565194                0.74771577
               4.23829683                9.72114043               31.93952937                0.55884901                0.06760464                0.07675608               -0.23758565               -0.00091903                0.07247508               -0.62838660
               5.23935753                9.54852190               31.77674996                0.00959450               -0.72188977                0.17446701               -0.52529519                0.33136448               10.96024694               -1.62777868
               6.22385904                9.38203836               31.83001294                0.00010000               -1.77369992                0.83246638               -0.39446300                0.27577652               21.87536541                0.10200959
               7.20388353                9.21393534               31.88327878                0.00010000               -2.07368776                0.94010108               -0.38406893               -0.03105716               22.10931686                0.31537202
               8.18238528                9.04181332               31.93840191                0.00010000               -2.28132044                1.02016421               -0.37481334               -0.41362317               22.54620369                0.47000246
               9.15825712                8.86625420               31.99782416                0.00010000               -2.59104985                1.05929227               -0.32178923               -0.95623048               23.25386969                0.78190553
              10.13056428                8.68577295               32.06478803                0.06479638               -2.52084374                0.94098491               -0.17966389               -1.67146517               23.31440376                1.68039018
              11.10784025                8.50673415               32.12337389                0.32348540               -1.04903549                0.10546149               -0.39068506               -1.36101576               11.64275020                1.63570790
              12.10958357                8.35448990               31.95432151                0.56439514                0.23126443                0.21816675               -0.78143082               -0.02686760                0.12847603                0.75991464
              13.11246553                8.20291663               31.78228002                0.95036532                0.28819612                0.37845260               -1.15671477                0.00884701               -0.00434244               -0.66999865
               3.40949737               10.89336177               32.05846501                1.00000000                0.07275125                0.00189135               -0.09641090                0.02383011                0.40952341                0.63643529
               4.41022489               10.72210813               31.89037033                0.81808747                0.11157765                0.09677019               -0.37874674                0.04452923                0.82745770               -0.51922263
               5.41172893               10.55039625               31.73053337                0.50117763               -0.90005887                0.18743410               -0.65955112                0.73874888               12.90457123               -1.01736010
               6.39222371               10.39214032               31.80391989                0.36814745               -1.90550926                1.01019576               -0.55125581                0.51314669               24.37783641               -0.03445904
               7.37361874               10.22392983               31.86882672                0.35789965               -1.93154911                0.99944900               -0.48844841                0.00406424               24.18734134                0.13338245
               8.35359273               10.05275118               31.93496029                0.37219987               -2.16617731                1.09378555               -0.44374892               -0.17255553               24.63805192                0.23497707
               9.33029519                9.87806383               32.00623769                0.40982518               -2.69787835                1.18096313               -0.34891405               -0.46622059               25.62487341                0.42678510
              10.29963516                9.69935062               32.09012736                0.55048642               -3.54349241                1.35776673               -0.07114207               -1.58640890               25.37955032                1.12228768
              11.25942535                9.50819390               32.15557663                0.68647955               -1.95946758                0.14597580               -0.43262988               -1.96930861               13.04476348                0.92806086
              12.26044581                9.35679425               31.99126610                0.79960447                0.19601350                0.23043451               -0.80656020                0.00533197                1.01845143                0.58111468
              13.26334562                9.20657608               31.81576334                0.97439630                0.28998091                0.36594468               -1.17448705                0.06619095                0.47981193               -0.59287331
               1.73573697                0.96667244               33.47828293                1.00000000               -0.34300773               -0.36710673                1.27282195               -0.05825235               -0.94393754                0.96412795
               2.73230689                0.77625059               33.37443760                1.00000000               -0.29944954               -0.28796380                1.02718490               -0.03833103               -1.23084444                0.11041677
               3.72974797                0.58545729               33.26488592                1.00000000               -0.20241007               -0.21181995                0.76904773               -0.03823713               -1.20524988               -0.21246063
               4.72825869                0.39467679               33.16165384                0.62547816                0.06015547               -0.15918780                0.51974103                0.14910916               -0.36747004               -0.83431282
               5.73095108                0.20807188               33.06901767                0.71764147                0.19736487               -0.07763824                0.23720221               -0.07162930               -0.01256159                0.27423293
               6.73220598                0.02515116               32.97375653                0.80245182                0.12181300                0.01067452               -0.01894808               -0.04010040               -0.31894586                0.16015539
               7.73338734               -0.15653299               32.87494938                0.78515948                0.15306830                0.08516522               -0.27672707               -0.02091896               -0.56018420               -0.07173471
               8.73526735               -0.33745986               32.77471989                0.86264430                0.21329784                0.16850630               -0.54841992               -0.03167745               -0.84199365                0.10492595
               9.73765330               -0.51795495               32.67008934                1.00000000                0.26863289                0.24846610               -0.82427179               -0.03217114               -1.13617284                0.57952148
              10.74064001               -0.69842946               32.56378170                1.00000000                0.33531040                0.33680358               -1.10321837               -0.02992065               -1.09749069               -0.00888907
              11.74435951               -0.87904023               32.45990850                1.00000000                0.37195010                0.43387154               -1.37485171               -0.02918282               -0.97915974               -0.97393177
               1.92557629                1.96300137               33.43466968                1.00000000               -0.30451381               -0.35339546                1.13991855               -0.01695710               -0.14292080                1.31293114
               2.92253115                1.77337095               33.33055678                1.00000000               -0.27118907               -0.26843981                0.89573516                0.00342006               -0.15889461                0.15783503
               3.92015251                1.58333909               33.22610427                0.90365645               -0.20443320               -0.18739071                0.64354399                0.00063556                0.00032247               -0.54599435
               4.91844249                1.39308491               33.12513844                0.23817226               -0.25774497               -0.14081835                0.38621068                0.22946593                1.63016711               -1.25780149
               5.91499761                1.20729550               33.05308621                0.40011654               -0.21675359                0.00388026                0.13380020               -0.06536138                2.45005100                1.02367535
               6.91410741                1.02525790               32.96682172                0.50590367               -0.02569716                0.05610686               -0.10967887                0.02797435                1.53081342                0.46201395
               7.91448366                0.84431867               32.87585838                0.41555050                0.07770733                0.11044951               -0.35601528                0.06838538                1.43658905               -0.30071648
               8.91566156                0.66422520               32.78754357                0.51809638                0.16663619                0.20013309               -0.62034956                0.02807525                1.48852662                0.52005390
               9.91781639                0.48452971               32.69763740                1.00000000                0.26109404                0.25658871               -0.87616142                0.00460927                0.77623008                0.82537934
              10.92088344                0.30493858               32.59524572                1.00000000                0.34310352                0.33963210               -1.14374259                0.01182400                0.08742506                0.11984059
              11.92467846                0.12529848               32.49154261                1.00000000                0.37950166                0.45688497               -1.41430710                0.01406737                0.02531883               -1.13629872
               2.11465866                2.95960453               33.39804123                1.00000000               -0.26210914               -0.33022424                1.01667659               -0.01146147                0.05110376                1.65973076
               3.11203756                2.77088180               33.28760303                1.00000000               -0.23059625               -0.23243287                0.76920322                0.00904946                0.22808370                0.14014596
               4.11004673                2.58170948               33.18061719                0.60325796               -0.15729812               -0.13805080                0.53089727               -0.00786631                0.72903253               -1.32498438
               5.10889160                2.39186042               33.08012177                0.00010000               -0.62879333               -0.10590562                0.26183384                0.32581843                4.68996345               -2.07509564
               6.09747086                2.20814949               33.05221933                0.00010000               -0.65746493                0.00176670               -0.01741699                0.48388388                5.64768898               -1.20199139
               7.09574230                2.02627329               32.96599025                0.00010000               -0.08415564               -0.06264067               -0.21208156                0.32657688                2.37904538               -0.14926055
               8.09578775                1.84567600               32.87227372                0.00010000               -0.00622440               -0.05051824               -0.42092761                0.21398186                3.52063049                0.72073931
               9.09561782                1.66654280               32.80882303                0.00010000                0.06221785               -0.00124411               -0.72003041                0.09713506                4.26511700                1.32122213
              10.09703211                1.48717682               32.73028309                0.48734119                0.22449486                0.22942525               -0.92408364               -0.09085277                2.38168102                1.76905466
              11.10010771                1.30836318               32.62936809                1.00000000                0.34444710                0.32388418               -1.17058318               -0.02782022                0.84751049                0.84072093
              12.10392105                1.13009747               32.51993117                1.00000000                0.38133382                0.49358330               -1.45759807               -0.00024253                0.43303767               -1.05605704
               2.30279252                3.95639688               33.36141798                1.00000000               -0.21853362               -0.30910290                0.89165812               -0.01434135                0.10979752                1.55513719
               3.30060719                3.76872230               33.24336304                1.00000000               -0.18879835               -0.19562979                0.64217137                0.00462993                0.15827616               -0.02108161
               4.29901656                3.58057808               33.12619412                0.35650957               -0.10441690               -0.08690310                0.40214704               -0.05477304                1.11189621               -1.68678244
               5.29851885                3.39096680               33.02720577                0.00010000               -0.43770723               -0.04178380                0.15368972                0.21661496                5.22024437               -2.75352133
               6.29026241                3.20733083               32.99201577                0.00010000               -0.77032076               -0.04241506               -0.05565715                0.57345065                7.98346618               -2.98113329
               7.28311243                3.02400509               32.94689646                0.00010000               -0.58843085               -0.10009892               -0.26237204                0.34556984                7.16004186               -0.69611957
               8.27849379                2.84330830               32.89338127                0.00010000               -0.35044934               -0.14900027               -0.47377126                0.17074418                6.68985595                1.56829978
               9.27610345                2.66420032               32.83761615                0.00010000               -0.21574236               -0.15678648               -0.68744073                0.16310423                6.36348774                2.08948092
              10.27417895                2.48911821               32.77668512                0.21392191                0.06514720                0.02653650               -0.84299075               -0.03880230                4.11607837                3.23927965
              11.27740639                2.31141626               32.67520980                0.89383405                0.35130494                0.27874971               -1.14235861               -0.07818463                1.12177269                1.40478681
              12.28120505                2.13517015               32.55290178                1.00000000                0.37986553                0.49656936               -1.43125991               -0.02080583                0.10324241               -0.58977570
               2.48972101                4.95342247               33.32277679                1.00000000               -0.17720370               -0.27871793                0.75704695               -0.02330889                0.16839624                1.32463514
               3.48794897                4.76696920               33.19717617                0.82833337               -0.15071182               -0.14817081                0.50540730               -0.00890362                0.25792650               -0.28572676
               4.48670677                4.57997142               33.07329688                0.20193940               -0.07389108               -0.02713725                0.26516827               -0.09582529                1.29846297               -1.75165011
               5.48647115                4.39102474               32.96851159                0.00010000               -0.54025920                0.08913086                0.02763252                0.02031720                6.85883412               -2.78201777
               6.47590159                4.20730118               32.95580460                0.00010000               -0.98974585                0.08294567               -0.12320818                0.07720812               11.10848737               -1.29212940
               7.46667623                4.02427131               32.93468205                0.00010000               -0.84470910                0.08507280               -0.29781008               -0.04669857               10.40781588               -0.03494415
               8.45900740                3.84269600               32.90634905                0.00010000               -0.68031203                0.01047292               -0.48342102               -0.14087166                9.92922294                1.29749853
               9.45306999                3.66340707               32.87371494                0.00010000               -0.49836423               -0.04780156               -0.66804576               -0.15245624                9.76584791                2.55570865
              10.44904012                3.48770755               32.83998614                0.18001956               -0.02889534               -0.18163935               -0.84358696               -0.09493988                5.55312390                3.96358760
              11.45249208                3.31393818               32.72060154                0.67466649                0.34785219                0.20974731               -1.01235922               -0.02257121                0.74538089                1.53032335
              12.45599716                3.14002885               32.59011788                1.00000000                0.35050799                0.48984901               -1.33191879               -0.05104652                0.19723639               -0.29084953
               2.67523288                5.95082253               33.28161063                1.00000000               -0.13527192               -0.23460005                0.61288313               -0.02816913                0.13174928                1.08730350
               3.67388017                5.76575888               33.14758205                0.66570872               -0.10941896               -0.09296859                0.34904674               -0.01923987                0.32773448               -0.57326491
               4.67304451                5.58003533               33.01740552                0.13023419               -0.11423698                0.04128110                0.10287271               -0.08874223                1.89016992               -2.10248375
               5.67159543                5.39274941               32.91464493                0.00010000               -0.72422516                0.22537647               -0.08054617               -0.25292649                9.12829431               -1.27142638
               6.65856000                5.20898975               32.92921445                0.00010000               -1.24058892                0.23540365               -0.16764802               -0.24681905               14.32973926               -0.33515136
               7.64678365                5.02570654               32.92903347                0.00010000               -1.10096986                0.20852238               -0.32036443               -0.39700735               13.35577985                0.53699914
               8.63654061                4.84351776               32.92214594                0.00010000               -0.93704383                0.13183831               -0.47851844               -0.49847498               12.98166973                1.54084665
               9.62804277                4.66324429               32.91207025                0.00010000               -0.73957825                0.00679155               -0.63320054               -0.53407622               12.91956411                2.65333925
              10.62174904                4.48548542               32.90117584                0.18236573               -0.17045542               -0.19518952               -0.78436151               -0.27124344                6.96131876                3.78691770
              11.62463366                4.31561121               32.76907510                0.59610124                0.31268636                0.16801067               -0.94552741                0.03204816                0.50116059                1.62449386
              12.62800277                4.14496713               32.62852091                0.99885355                0.33691050                0.49422328               -1.29176660               -0.02316060                0.09351029               -0.21876142
               2.85928492                6.94873047               33.23826747                1.00000000               -0.09335519               -0.18061279                0.46321165               -0.02674808                0.05982388                0.91881206
               3.85835136                6.76510983               33.09553364                0.56741061               -0.06717625               -0.04163835                0.19494906               -0.01923293                0.28649354               -0.72836276
               4.85794139                6.58079704               32.95726354                0.08930536               -0.29465793                0.10104785               -0.06008392               -0.05611578                3.85477544               -2.42602875
               5.85245821                6.39553227               32.88591484                0.00010000               -0.99666585                0.28298926               -0.02648137               -0.46195400               12.07672132                0.72646759
               6.83800807                6.21200926               32.91219161                0.00010000               -1.41250684                0.35936618               -0.19234456               -0.49604323               16.56041693                0.44497984
               7.82420807                6.02844176               32.92858260                0.00010000               -1.32539571                0.34720521               -0.33457430               -0.68133838               15.96289694                0.92274201
               8.81150016                5.84533276               32.94047541                0.00010000               -1.18936340                0.24484669               -0.46232386               -0.85573620               15.79566783                1.68084998
               9.80042080                5.66354290               32.95069087                0.00010000               -1.01259152                0.07070068               -0.57621623               -0.97602997               15.88000259                2.59527449
              10.79124833                5.48380376               32.96118197                0.20176867               -0.33847293               -0.12439241               -0.67498020               -0.52837722                8.27843980                3.59838889
              11.79365134                5.31729839               32.81629086                0.55548346                0.27868913                0.17459839               -0.89861477                0.05013148                0.29094911                1.50091886
              12.79682211                5.14991332               32.66666449                0.97410549                0.31707697                0.48913765               -1.25613764               -0.01037482                0.06625220               -0.26632589
               3.04193920                7.94721027               33.19374686                1.00000000               -0.05102689               -0.12342421                0.31460547               -0.02511073                0.02191758                0.84566074
               4.04142894                7.76492611               33.04270700                0.52259823               -0.02197300                0.00182706                0.04421320               -0.01190942                0.17379637               -0.76429293
               5.04149974                7.58205629               32.89462802                0.06303991               -0.51424038                0.13862173               -0.22415804               -0.02995283                6.61678348               -2.57136771
               6.03114413                7.39840920               32.87244282                0.00010000               -1.28850480                0.35241700               -0.01830586               -0.38429247               15.50186686                1.12681263
               7.01572965                7.21617707               32.90165697                0.00010000               -1.56553779                0.50566038               -0.23323260               -0.50399380               18.20267434                0.77074063
               7.99983337                7.03265065               32.93124727                0.00010000               -1.57024531                0.53563713               -0.35166859               -0.84037524               18.30281605                1.04761255
               8.98432474                6.84841469               32.95978920                0.00010000               -1.48910974                0.40835293               -0.44142635               -1.18441131               18.41376354                1.66657199
               9.97005118                6.66465830               32.98850210                0.00010000               -1.34493689                0.18215012               -0.50994252               -1.41535396               18.66566086                2.42585198
              10.95742600                6.48299758               33.01880824                0.23287694               -0.52622225               -0.03920192               -0.54573260               -0.80943390                9.53587719                3.27120757
              11.95952673                6.31910318               32.86192564                0.53651032                0.25697073                0.18880868               -0.85751181                0.03272168                0.10941187                1.32515980
              12.96256542                6.15474988               32.70340882                0.95862103                0.30386867                0.46826498               -1.22464745                0.00088038                0.04079229               -0.40603373
               3.22335102                8.94626198               33.14891570                1.00000000               -0.00838611               -0.06774232                0.16809768               -0.02375329                0.00590377                0.84472549
               4.22326716                8.76514637               32.98981873                0.52720271                0.02541159                0.04147418               -0.10388329               -0.00440749                0.04011199               -0.75386402
               5.22385925                8.58356947               32.83132055                0.04169305               -0.63077890                0.15854428               -0.38600439                0.05253355                9.06012557               -2.42258309
               6.21065158                8.40258061               32.85258928                0.00010000               -1.50862500                0.52833465               -0.21393078               -0.08875555               19.02451160                0.44423718
               7.19368675                8.22212246               32.89185253                0.00010000               -1.77443193                0.72097690               -0.31609532               -0.34120021               20.19219839                0.63331276
               8.17516294                8.03915450               32.93411354                0.00010000               -1.89412342                0.78093157               -0.38371735               -0.81310076               20.59795473                0.88445887
               9.15580428                7.85349982               32.97874260                0.00010000               -1.88160500                0.70459527               -0.41351686               -1.34978683               20.92449845                1.42495174
              10.13753084                7.66718590               33.02445333                0.02003267               -1.75947519                0.36593662               -0.44563517               -1.89013834               21.25472316                2.40402900
              11.12061478                7.48301972               33.07233114                0.27305932               -0.74886841                0.04002069               -0.45675391               -1.10794888               10.75466655                2.73884651
              12.12255347                7.32107457               32.90532493                0.53518108                0.24657670                0.20965132               -0.83288596                0.00119780                0.01532035                1.10208944
              13.12554631                7.15927862               32.73813027                0.94935672                0.29928396                0.43280701               -1.20821921                0.00932142                0.02029117               -0.60250283
               3.40369537                9.94585542               33.10431326                1.00000000                0.03379264               -0.01640064                0.02380558               -0.02298788               -0.01675954                0.74508923
               4.40403330                9.76575560               32.93709751                0.55641502                0.07104010                0.08076046               -0.24941323               -0.00129326                0.06774609               -0.63381137
               5.40511617                9.58522718               32.77147752                0.00922349               -0.66086346                0.17767588               -0.53073108                0.23821703               11.15205044               -1.63075961
               6.39081603                9.40897589               32.82589596                0.00010000               -1.63922093                0.79434738               -0.43364995                0.15451667               22.22874952                0.03918726
               7.37233175                9.23059661               32.87922665                0.00010000               -1.93110139                0.90460190               -0.43131406               -0.14075470               22.41986355                0.31294314
               8.35219400                9.04826928               32.93437248                0.00010000               -2.15170728                0.98989795               -0.43881055               -0.51513768               22.89174673                0.49610518
               9.32929761                8.86250660               32.99426864                0.00010000               -2.47327424                1.03691914               -0.40150834               -1.06936384               23.68693700                0.84365144
              10.30272851                8.67197703               33.06267221                0.06788163               -2.39596213                0.91415142               -0.26475943               -1.78213716               23.64420170                1.87812697
              11.28137836                8.48379799               33.11920381                0.32153617               -0.97183614                0.12095156               -0.44218894               -1.40410385               11.72065403                1.66005555
              12.28329179                8.32329620               32.94622441                0.54590439                0.24826895                0.23621672               -0.83800989               -0.02507352                0.12098425                0.77862788
              13.28634374                8.16340602               32.77042123                0.93635509                0.30519525                0.39983888               -1.21674684                0.01143944               -0.00291529               -0.65478274
               3.58309091               10.94593397               33.05739520                1.00000000                0.07786239                0.00785473               -0.11744495                0.02231528                0.40802787                0.63519163
               4.58386954               10.76676158               32.88652208                0.81755834                0.11561896                0.10059818               -0.39170209                0.04307539                0.82645020               -0.52246219
               5.58540329               10.58712299               32.72391291                0.50031140               -0.77485290                0.18958159               -0.66647345                0.61401146               13.09025061               -1.01429170
               6.56837248               10.41846756               32.79824377                0.36836651               -1.69125136                0.94916692               -0.58645184                0.41022103               24.74959450               -0.07218785
               7.55157827               10.24021450               32.86367973                0.35805612               -1.77111436                0.96178963               -0.54639991               -0.05110337               24.54867949                0.12824813
               8.53295019               10.05895246               32.93018100                0.37196894               -2.04345089                1.06831844               -0.52050725               -0.22319530               25.03295009                0.24821649
               9.51070925                9.87423821               33.00234530                0.40897417               -2.61767440                1.17316074               -0.44404081               -0.53301233               26.15599073                0.46500565
              10.48059671                9.68546893               33.08902937                0.55341593               -3.47478592                1.34918981               -0.17989941               -1.65315351               25.70906110                1.28155833
              11.44121353                9.48543875               33.15090133                0.68689948               -1.90763681                0.16407621               -0.50035522               -1.99998488               13.06139976                0.91880029
              12.44244397                9.32579890               32.98283866                0.79007537                0.21709660                0.25026978               -0.87785767                0.00705008                1.02945682                0.58380320
              13.44555546                9.16727540               32.80366036                0.96756621                0.31114934                0.38693746               -1.24714258                0.06882150                0.49468969               -0.58624675
               1.83129902                1.02064640               34.49101191                1.00000000               -0.34449270               -0.36779610                1.27394474               -0.05772860               -0.95689840                0.97418961
               2.82785410                0.82191498               34.38470979                1.00000000               -0.30225752               -0.28724608                1.02728340               -0.03825183               -1.24888894                0.11623046
               3.82525387                0.62276141               34.27259361                1.00000000               -0.20830314               -0.20830235                0.76917929               -0.04205534               -1.22225643               -0.21108901
               4.82368803                0.42347798               34.16688865                0.62692737                0.03463384               -0.15118662                0.51929236                0.10122494               -0.39842587               -0.85167912
               5.82594655                0.22729201               34.07137358                0.71481377                0.17911738               -0.08309852                0.23171529               -0.07037595               -0.04529026                0.28008588
               6.82727038                0.03414879               33.97359502                0.79809185                0.13052312                0.00758620               -0.01684422               -0.04881517               -0.32614518                0.16272216
               7.82855701               -0.15775102               33.87225365                0.78544400                0.16370063                0.08099100               -0.26596337               -0.02874554               -0.56639531               -0.06772625
               8.83054439               -0.34887812               33.76937204                0.86776019                0.22287544                0.15982755               -0.52140088               -0.04061319               -0.85261560                0.10571788
               9.83301452               -0.53943052               33.66199909                1.00000000                0.27288348                0.23810981               -0.79410907               -0.04130961               -1.15633444                0.58329969
              10.83600206               -0.72980955               33.55286537                1.00000000                0.33336831                0.33078859               -1.07782504               -0.03121873               -1.11925140               -0.01075209
              11.83968189               -0.92035465               33.44624417                1.00000000                0.36798236                0.43135407               -1.35537192               -0.02333577               -0.99806852               -0.99419146
               2.02945316                2.01696844               34.44605258                1.00000000               -0.30390861               -0.35514021                1.13803743               -0.01565053               -0.14741526                1.32731869
               3.02641408                1.81904252               34.33950647                1.00000000               -0.27006714               -0.26775020                0.89366734                0.00508846               -0.17050496                0.16537568
               4.02405182                1.62067838               34.23248546                0.91731671               -0.19895457               -0.18315478                0.63426448               -0.00343748               -0.02184289               -0.53094287
               5.02243498                1.42196611               34.12886970                0.24727770               -0.20722170               -0.12848385                0.36655060                0.15984893                1.61028176               -1.25432654
               6.01990738                1.22646102               34.05431311                0.40408092               -0.15656203               -0.00484833                0.11059018               -0.06821288                2.45489898                1.00362213
               7.01930374                1.03422465               33.96565763                0.50787158               -0.00621846                0.05370759               -0.12694779                0.00755185                1.54665956                0.46005845
               8.01978302                0.84305889               33.87228225                0.42031315                0.08371354                0.11479851               -0.36464641                0.04205333                1.44729216               -0.28967736
               9.02097801                0.65272015               33.78137781                0.51831483                0.16420627                0.19627035               -0.61572833               -0.00127890                1.49534494                0.50801689
              10.02306714                0.46295058               33.68887447                1.00000000                0.25869644                0.25127106               -0.87504457               -0.01129547                0.78231228                0.83027721
              11.02615194                0.27349833               33.58377113                1.00000000                0.34632455                0.33593292               -1.15056851                0.01135901                0.08799933                0.12254994
              12.02999363                0.08395889               33.47732911                1.00000000                0.38416889                0.45987661               -1.42684662                0.02109946                0.02673188               -1.16336679
               2.22683786                3.01354359               34.40817501                1.00000000               -0.25919379               -0.33373202                1.01163801               -0.01055854                0.04962450                1.67822852
               3.22424592                2.81655997               34.29527324                1.00000000               -0.22881668               -0.23156061                0.76545915                0.01005180                0.22958343                0.15040715
               4.22226153                2.61909831               34.18592348                0.61823060               -0.15717734               -0.13192637                0.52715350               -0.01160583                0.71275228               -1.30690269
               5.22110237                2.42090830               34.08266254                0.00010000               -0.49688871               -0.09449483                0.24549919                0.23223746                4.64016912               -2.03720024
               6.21232375                2.22719504               34.05184992                0.00010000               -0.51394125               -0.01030188               -0.05428911                0.29665411                5.66290208               -1.18385880
               7.21082355                2.03522294               33.96372620                0.00010000               -0.07105851               -0.05172166               -0.24411684                0.17027136                2.44437271               -0.12500056
               8.21090258                1.84454495               33.86793892                0.00010000               -0.00982094               -0.03439181               -0.45208682                0.07216191                3.53906604                0.74986522
               9.21062713                1.65504728               33.80158620                0.00010000                0.05539254                0.01574249               -0.73312959               -0.02583234                4.28381362                1.35362503
              10.21201043                1.46559490               33.72086137                0.45628958                0.22969012                0.17918700               -0.96219393               -0.17659197                2.44140587                1.85751033
              11.21522093                1.27690911               33.61747617                1.00000000                0.35861692                0.32174088               -1.21055759               -0.04245710                0.87272910                0.87447050
              12.21918277                1.08884288               33.50512057                1.00000000                0.39618370                0.51016725               -1.50216999                0.00322812                0.44005041               -1.05839071
               2.42320924                4.01029380               34.37029055                1.00000000               -0.21488410               -0.31307533                0.88428428               -0.01512172                0.11299558                1.56809281
               3.42106040                3.81441130               34.24975685                1.00000000               -0.18689326               -0.19363038                0.63689460                0.00312099                0.16590294               -0.01495490
               4.41947137                3.61803986               34.13021640                0.36066045               -0.10386955               -0.07952697                0.40133141               -0.06390566                1.11843008               -1.68598922
               5.41898300                3.42007622               34.02872520                0.00010000               -0.39727731               -0.03468145                0.15184890                0.10950692                5.22992038               -2.71885110
               6.41152582                3.22625498               33.99137980                0.00010000               -0.68118723               -0.04299383               -0.07686678                0.30042965                8.02491422               -2.91549106
               7.40535926                3.03319022               33.94412600                0.00010000               -0.50619558               -0.09436394               -0.29500153                0.10688113                7.21300186               -0.63613312
               8.40140191                2.84237105               33.88847551                0.00010000               -0.29739203               -0.14163345               -0.51202361               -0.04355126                6.75134163                1.62443190
               9.39941142                2.65303500               33.83051745                0.00010000               -0.18642166               -0.14733625               -0.73034810               -0.05445059                6.47122433                2.17971149
              10.39767348                2.46653432               33.76821000                0.20332287                0.13217011               -0.01570155               -0.93429085               -0.11980827                4.20296934                3.36278472
              11.40205482                2.27993315               33.66348088                0.83211840                0.42585846                0.27410851               -1.23800475               -0.05533382                1.13084606                1.53609314
              12.40619065                2.09416223               33.53828630                1.00000000                0.41358281                0.52695580               -1.52029808               -0.03064694                0.15034038               -0.50988776
               2.61830041                5.00728209               34.33029520                1.00000000               -0.17381308               -0.28194212                0.74770306               -0.02506236                0.17551719                1.32745831
               3.61656228                4.81268736               34.20219605                0.82102378               -0.14909577               -0.14391962                0.49876879               -0.01282477                0.27017411               -0.29455793
               4.61531850                4.61750777               34.07592623                0.20107133               -0.07424492               -0.01737457                0.26018805               -0.11065095                1.31600798               -1.76883612
               5.61507739                4.42021467               33.96874215                0.00010000               -0.50500796                0.09637466                0.02286486               -0.09444999                6.91672408               -2.75499359
               6.60521834                4.22633516               33.95449320                0.00010000               -0.91161416                0.08717766               -0.14205585               -0.11938354               11.20299538               -1.23150717
               7.59684510                4.03333567               33.93154538                0.00010000               -0.75157824                0.07098397               -0.33377082               -0.23496359               10.49205908                0.03617971
               8.59018677                3.84171228               33.90127254                0.00010000               -0.57351223               -0.00433783               -0.53690657               -0.31655022               10.01839798                1.37966578
               9.58537486                3.65210056               33.86671881                0.00010000               -0.37353281               -0.06975658               -0.74266781               -0.32841241                9.86647704                2.65671036
              10.58271612                3.46528087               33.83110570                0.17092894                0.05557418               -0.17643683               -0.94002527               -0.14355036                5.69522510                4.05754788
              11.58648634                3.28239128               33.71043396                0.63872296                0.36977759                0.21422908               -1.05565601               -0.01410880                0.84509195                1.67433017
              12.59011167                3.09938199               33.57667822                1.00000000                0.36253294                0.52450542               -1.40039308               -0.04903724                0.22185043               -0.18925354
               2.81189744                6.00465496               34.28767959                1.00000000               -0.13192203               -0.23650306                0.60160672               -0.02967895                0.13153962                1.08163561
               3.81057822                5.81153291               34.15103324                0.65766816               -0.10831973               -0.08676767                0.34120575               -0.02365751                0.33633009               -0.59087797
               4.80973104                5.61769236               34.01841651                0.12752665               -0.11558021                0.05485540                0.09899703               -0.11090889                1.94165573               -2.13154650
               5.80826661                5.42200371               33.91389181                0.00010000               -0.68569403                0.21479789               -0.06927459               -0.38445532                9.25021727               -1.15036770
               6.79601716                5.22799854               33.92748087                0.00010000               -1.14918717                0.22248336               -0.18225776               -0.44681664               14.46827626               -0.25417910
               7.78528287                5.03460990               33.92564827                0.00010000               -0.98555736                0.18542952               -0.36173695               -0.57016971               13.46903577                0.61823701
               8.77630601                4.84228430               33.91707463                0.00010000               -0.80041424                0.10118205               -0.54320680               -0.66103359               13.10635281                1.63890208
               9.76927458                4.65163987               33.90536052                0.00010000               -0.58971290               -0.02369356               -0.72020278               -0.70799200               13.06596594                2.77855389
              10.76451176                4.46300558               33.89291757                0.17314120               -0.08015329               -0.20201580               -0.88859470               -0.35810408                7.14757309                3.94055584
              11.76767152                4.28421773               33.75937380                0.57013776                0.33583557                0.18705428               -1.01064701                0.03796858                0.60326486                1.73623804
              12.77122847                4.10465234               33.61526228                0.97329645                0.35569495                0.53082325               -1.37128698               -0.01653681                0.09491864               -0.13685436
               3.00395092                7.00255203               34.24283163                1.00000000               -0.08992002               -0.18058703                0.45012319               -0.02770704                0.05841885                0.91016642
               4.00305172                6.81095201               34.09743717                0.55967303               -0.06607015               -0.03508243                0.18540830               -0.02269664                0.29169976               -0.74282608
               5.00262952                6.61860488               33.95663963                0.08581940               -0.29848092                0.11533700               -0.06588905               -0.10131077                4.02378972               -2.45556369
               5.99708211                6.42451063               33.88590074                0.00010000               -0.94768530                0.24698062                0.02099261               -0.60227991               12.27552457                0.88405326
               6.98367582                6.23078483               33.91020759                0.00010000               -1.29630795                0.33010294               -0.20901812               -0.68377014               16.66270976                0.52352542
               7.97115595                6.03704426               33.92503147                0.00010000               -1.18698414                0.31153726               -0.38167990               -0.85108083               16.10553576                1.00666248
               8.95993613                5.84373592               33.93554081                0.00010000               -1.03311057                0.20335472               -0.53303531               -1.01455001               15.96960633                1.78835857
               9.95049374                5.65162669               33.94454495                0.00010000               -0.84799786                0.03645252               -0.66524225               -1.14356938               16.09111078                2.73665583
              10.94297618                5.46124055               33.95400393                0.19240990               -0.24473919               -0.13033138               -0.77825480               -0.60628307                8.47474110                3.78805617
              11.94559895                5.28613236               33.80705183                0.53425284                0.29677719                0.19286028               -0.95281692                0.06181303                0.36790915                1.60753052
              12.94891172                5.10999846               33.65379079                0.95425456                0.33127677                0.52507865               -1.32067906               -0.00805041                0.07045935               -0.17655862
               3.19454333                8.00104321               34.19681632                1.00000000               -0.04718974               -0.12132067                0.29970508               -0.02571822                0.02077071                0.83814499
               4.19407143                7.81083126               34.04309669                0.51651598               -0.01985613                0.00766051                0.03319871               -0.01380650                0.17309001               -0.77516938
               5.19414621                7.61999910               33.89234665                0.05986294               -0.50151841                0.15004331               -0.23389486               -0.10429667                6.86020924               -2.59769598
               6.18404106                7.42694332               33.87235669                0.00010000               -1.21690360                0.32059777               -0.00965617               -0.52003698               15.77382095                1.13622759
               7.16980813                7.23460060               33.89921626                0.00010000               -1.43654516                0.47197814               -0.26022257               -0.67219648               18.30839970                0.81777433
               8.15531016                7.04084065               33.92748952                0.00010000               -1.41877762                0.49338034               -0.40689015               -1.00760422               18.48846045                1.12175804
               9.14143258                6.84635139               33.95504161                0.00010000               -1.32057964                0.35808321               -0.51687231               -1.34391259               18.64546398                1.77717921
              10.12889857                6.65236892               33.98303156                0.00010000               -1.17760798                0.14073511               -0.59471984               -1.56979243               18.95221135                2.56727906
              11.11788042                6.46039895               34.01301566                0.22407260               -0.43743479               -0.03872565               -0.62401969               -0.88429080                9.73242244                3.45088314
              12.12014987                6.28807494               33.85310970                0.51767525                0.27274211                0.20207856               -0.90832625                0.04144661                0.14256949                1.41466263
              13.12333526                6.11515391               33.69087957                0.94202321                0.31853929                0.49730545               -1.28208619                0.00317507                0.04249636               -0.33049313
               3.38386047                9.00012561               34.15051095                1.00000000               -0.00407608               -0.06390343                0.15132671               -0.02411805                0.00496363                0.83898923
               4.38381970                8.81110522               33.98872218                0.52332151                0.02855311                0.04647969               -0.11605324               -0.00519010                0.03357878               -0.76153806
               5.38443153                8.62160575               33.82741896                0.04104503               -0.58699149                0.16576265               -0.39570122               -0.03643803                9.26797219               -2.43632047
               6.37207988                8.43092259               33.85027244                0.00010000               -1.40484830                0.51121442               -0.25227516               -0.23687597               19.33439628                0.34992615
               7.35633456                8.24022439               33.88850570                0.00010000               -1.64134044                0.68832039               -0.35939564               -0.50072842               20.39557915                0.64348856
               8.33925307                8.04691186               33.92998273                0.00010000               -1.74024780                0.74136556               -0.45020601               -0.97293726               20.84921261                0.93783268
               9.32152961                7.85089759               33.97422716                0.00010000               -1.71013695                0.65865723               -0.50033676               -1.51034659               21.21816184                1.52583870
              10.30505033                7.65444139               34.01961018                0.01779145               -1.59726312                0.31952663               -0.53270914               -2.04084839               21.59269169                2.58810828
              11.28958434                7.46046604               34.06750959                0.26618085               -0.66887023                0.04830625               -0.51223642               -1.17233728               10.94191143                2.85391383
              12.29167292                7.29017393               33.89674535                0.51708578                0.26164642                0.22368969               -0.88427610                0.00572496                0.01433785                1.16307032
              13.29481727                7.11994457               33.72576753                0.93459235                0.31443488                0.45684844               -1.26491874                0.01097978                0.01972047               -0.55212003
               3.57210175                9.99976515               34.10445576                1.00000000                0.03857444               -0.01119428                0.00502648               -0.02324404               -0.01787231                0.74168527
               4.57248750                9.81176086               33.93454111                0.55422144                0.07491632                0.08522604               -0.26260462               -0.00171567                0.06240318               -0.63812085
               5.57360008                9.62331436               33.76613534                0.00885935               -0.59013007                0.18169415               -0.53957115                0.13937370               11.32170886               -1.63081324
               6.56068490                9.43716761               33.82133995                0.00010000               -1.48978950                0.75391782               -0.47825024                0.02107729               22.55001856               -0.01928923
               7.54380429                9.24836700               33.87465250                0.00010000               -1.77533375                0.86821165               -0.48898838               -0.25895587               22.70945211                0.30691833
               8.52517822                9.05566796               33.92962570                0.00010000               -2.00540839                0.95932935               -0.51885588               -0.62546853               23.21316256                0.52296923
               9.50369612                8.85952454               33.98979399                0.00010000               -2.33325369                1.01565227               -0.50732715               -1.19357331               24.10192217                0.90637820
              10.47851315                8.65875945               34.05949284                0.06993985               -2.24974937                0.89130412               -0.39788661               -1.89747180               24.00020343                2.06399750
              11.45870113                8.46136508               34.11453011                0.31861652               -0.88636531                0.13544189               -0.49214607               -1.44755070               11.82748066                1.69276692
              12.46078584                8.29254873               33.93756131                0.52755474                0.26562273                0.25339350               -0.89438490               -0.02356070                0.11220306                0.80318079
              13.46401359                8.12429088               33.75794508                0.92250122                0.32277479                0.42141471               -1.27918045                0.01315144               -0.00234760               -0.63169907
               3.75940417               10.99990173               34.05611611                1.00000000                0.08320149                0.01365821               -0.13811995                0.02104254                0.40589646                0.63311730
               4.76023618               10.81280974               33.88253629                0.81718303                0.12040408                0.10488860               -0.40621981                0.04176325                0.82365217               -0.52473234
               5.76181225               10.62523963               33.71720390                0.49947125               -0.63937028                0.19252715               -0.67675252                0.48077676               13.25633783               -1.00958789
               6.74744877               10.44600094               33.79219085                0.36855752               -1.45785747                0.88333324               -0.62768189                0.29383769               25.08660612               -0.09881083
               7.73265510               10.25758863               33.85789873                0.35820164               -1.59313061                0.92216228               -0.61497219               -0.11004392               24.87799784                0.12054522
               8.71558616               10.06609845               33.92455014                0.37176279               -1.90442274                1.04304922               -0.61458702               -0.27810561               25.39818416                0.26124230
               9.69456664                9.87121063               33.99735688                0.40811742               -2.51629058                1.16860958               -0.56988709               -0.60449677               26.65715141                0.50230769
              10.66526035                9.67226747               34.08652937                0.55587363               -3.38612956                1.35080189               -0.35873702               -1.72706746               26.06760391                1.42956682
              11.62684405                9.46317488               34.14556952                0.68690287               -1.84922238                0.18097999               -0.56417161               -2.03699185               13.11726417                0.91015846
              12.62827590                9.29524180               33.97370895                0.78071939                0.23759746                0.26930708               -0.94605289                0.00890547                1.04043757                0.58824187
              13.63159600                9.12837286               33.79082049                0.96074943                0.33200974                0.40819805               -1.32057050                0.07134708                0.50950682               -0.57581756
               1.92920325                1.07607490               35.50376182                1.00000000               -0.34558343               -0.36902572                1.27679825               -0.05761214               -0.96891423                0.98360640
               2.92574742                0.86898183               35.39498327                1.00000000               -0.30396317               -0.28668157                1.02723448               -0.03707837               -1.26664493                0.12291504
               3.92312399                0.66145182               35.28026951                1.00000000               -0.21186069               -0.20614565                0.76466909               -0.04219231               -1.24064569               -0.20937485
               4.92151020                0.45368111               35.17203969                0.62790782                0.01074621               -0.14566201                0.50941749                0.04816218               -0.42794619               -0.86803849
               5.92333891                0.24779453               35.07365198                0.71030640                0.16464050               -0.09029306                0.22031398               -0.07316181               -0.06749863                0.28470971
               6.92480301                0.04428038               34.97341964                0.79005680                0.14717531                0.00475044               -0.02423327               -0.06011684               -0.31994744                0.16531096
               7.92628242               -0.15794472               34.86963011                0.78039326                0.18332915                0.07845597               -0.26601889               -0.03918102               -0.55136425               -0.06359546
               8.92846959               -0.35935705               34.76429187                0.86677606                0.23754344                0.15284283               -0.50372049               -0.05408699               -0.84162726                0.10663229
               9.93103329               -0.56003973               34.65420715                1.00000000                0.27701543                0.23126974               -0.77155027               -0.05134564               -1.16192225                0.59122908
              10.93400990               -0.76045602               34.54222520                1.00000000                0.33036256                0.32347916               -1.05211966               -0.03482175               -1.12907563               -0.00714368
              11.93764054               -0.96109395               34.43280106                1.00000000                0.36306333                0.42486890               -1.33409954               -0.01813282               -1.00548588               -0.99878773
               2.13572020                2.07238464               35.45743043                1.00000000               -0.30320227               -0.35718877                1.13844753               -0.01439007               -0.15254381                1.34084473
               3.13268817                1.86611502               35.34843013                1.00000000               -0.26838853               -0.26711373                0.89114361                0.00695337               -0.18392676                0.17500202
               4.13035242                1.65939036               35.23878956                0.92975239               -0.19338529               -0.18056683                0.62688242               -0.00510180               -0.04689434               -0.51493484
               5.12882047                1.45222449               35.13246945                0.25505453               -0.15223842               -0.12101010                0.35503878                0.08797943                1.58570799               -1.25638540
               6.12730766                1.24689160               35.05529802                0.40649275               -0.08745001               -0.01944559                0.08586606               -0.07851362                2.45772934                0.98617545
               7.12707147                1.04432789               34.96428277                0.50692012                0.02008327                0.05122623               -0.15141123               -0.01570074                1.57248651                0.46105656
               8.12770932                0.84283984               34.86856545                0.42155004                0.09523829                0.12123789               -0.38400355                0.01350763                1.47612030               -0.27862069
               9.12897623                0.64217138               34.77522900                0.51259892                0.16799972                0.19163554               -0.62173168               -0.03324188                1.51897505                0.50179960
              10.13106932                0.44227297               34.68013651                1.00000000                0.26062806                0.25156139               -0.87597475               -0.02278234                0.79360335                0.83592729
              11.13418879                0.24277877               34.57223435                1.00000000                0.35139083                0.32994305               -1.15677967                0.00874852                0.08987215                0.13276780
              12.13809713                0.04315474               34.46300567                1.00000000                0.39083391                0.45332038               -1.43665203                0.02723379                0.02935287               -1.17082817
               2.34145470                3.06893113               35.41827399                1.00000000               -0.25739354               -0.33730449                1.00959424               -0.00917474                0.04830470                1.69584647
               3.33888076                2.86363956               35.30291222                1.00000000               -0.22711107               -0.23073171                0.76219096                0.01102901                0.23046769                0.16262757
               4.33691248                2.65784048               35.19116026                0.63420188               -0.15561062               -0.12674053                0.51918754               -0.01571345                0.69412784               -1.28527906
               5.33576855                2.45126091               35.08503176                0.00010000               -0.36236182               -0.08571650                0.22935656                0.13492635                4.58890816               -2.00870151
               6.32966524                2.24740562               35.05113354                0.00010000               -0.36138991               -0.02569372               -0.08800913                0.10481195                5.67036087               -1.15331226
               7.32854075                2.04530491               34.96110791                0.00010000               -0.04780829               -0.04323199               -0.28113214                0.01398560                2.51562781               -0.09027537
               8.32870908                1.84448004               34.86323198                0.00010000               -0.00845593               -0.01882631               -0.49163655               -0.07046935                3.57750269                0.78326174
               9.32837163                1.64447566               34.79416044                0.00010000                0.06305869                0.02452782               -0.76266481               -0.13356673                4.32415683                1.40047594
              10.32997025                1.44499150               34.71103921                0.43087430                0.24657315                0.19283036               -0.99650196               -0.20636209                2.49470817                1.89561067
              11.33330310                1.24614284               34.60515694                1.00000000                0.37315085                0.32007835               -1.25164486               -0.06304069                0.89662334                0.89573840
              12.33743327                1.04797246               34.48988777                1.00000000                0.41301685                0.51300001               -1.53887962                0.00815670                0.44173917               -1.05762629
               2.54611983                4.06563855               35.37910366                1.00000000               -0.21204373               -0.31742622                0.87991644               -0.01506950                0.11580357                1.58054446
               3.54399940                3.86150038               35.25610093                1.00000000               -0.18515135               -0.19189551                0.63204992                0.00288307                0.17448061               -0.00805339
               4.54241681                3.65685555               35.13422074                0.36399417               -0.10227699               -0.07229496                0.39797340               -0.07109350                1.12663513               -1.68253624
               5.54195386                3.45051016               35.03024275                0.00010000               -0.35284548               -0.02513244                0.14674100               -0.00038611                5.23559857               -2.69272916
               6.53535990                3.24637773               34.99047843                0.00010000               -0.58385501               -0.04178255               -0.10481959                0.02230551                8.05191598               -2.83300489
               7.53027676                3.04346325               34.94099643                0.00010000               -0.41153590               -0.09161351               -0.33455407               -0.13585454                7.26203477               -0.56703085
               8.52712918                2.84246332               34.88314080                0.00010000               -0.22416564               -0.13949239               -0.55916608               -0.26542266                6.81973947                1.68481497
               9.52579344                2.64266194               34.82300919                0.00010000               -0.09271403               -0.13887280               -0.78628719               -0.20695059                6.54628314                2.25397769
              10.52527490                2.44612957               34.75799930                0.18935026                0.20767863               -0.04202781               -1.10508365               -0.21111908                4.32179695                3.55626579
              11.52994702                2.24918034               34.65044970                0.75218699                0.46630620                0.26945120               -1.37595040               -0.10982608                1.17855132                1.71329600
              12.53460102                2.05341474               34.52249581                1.00000000                0.46540064                0.56476716               -1.64342484               -0.05093985                0.20169162               -0.41388319
               2.74942965                5.06258260               35.33773085                1.00000000               -0.17082221               -0.28598748                0.74090360               -0.02626883                0.18213616                1.32989604
               3.74772143                4.85980165               35.20715154                0.81423163               -0.14744091               -0.14000898                0.49237626               -0.01587869                0.28134003               -0.30231550
               4.74648083                4.65639458               35.07850064                0.19932814               -0.07413864               -0.00822742                0.25355413               -0.12205731                1.33425385               -1.78393398
               5.74623865                4.45075826               34.96896889                0.00010000               -0.46612832                0.10366518                0.01952547               -0.21215294                6.96781903               -2.72786501
               6.73715826                4.24656997               34.95296348                0.00010000               -0.82502917                0.09070242               -0.16637977               -0.32382250               11.27833744               -1.15941374
               7.72973807                4.04347264               34.92800663                0.00010000               -0.64781661                0.05609717               -0.37840692               -0.42929644               10.55912306                0.11203666
               8.72420193                3.84169019               34.89561091                0.00010000               -0.45858519               -0.02178933               -0.60136647               -0.49740969               10.08800403                1.45838102
               9.72056637                3.64169821               34.85886158                0.00010000               -0.24862324               -0.08363578               -0.83757702               -0.49067718                9.94686099                2.74635962
              10.71922947                3.44415094               34.82118563                0.16020276                0.16275201               -0.23656277               -1.05320743               -0.23770123                5.84259801                4.22035711
              11.72382141                3.25153186               34.69948842                0.60251679                0.43580945                0.22688821               -1.19605173               -0.02379500                0.95841581                1.91037494
              12.72794566                3.05926780               34.56211002                0.97567831                0.41242495                0.58513619               -1.56129411               -0.05024731                0.23539342               -0.03274660
               2.95115636                6.05991880               35.29364277                1.00000000               -0.12865210               -0.23927702                0.59224893               -0.03123109                0.13103611                1.07582048
               3.94986984                5.85870020               35.15440616                0.64945408               -0.10686560               -0.08058951                0.33300228               -0.02859294                0.34496958               -0.60770626
               4.94901905                5.65669100               35.01938546                0.12417043               -0.11672143                0.06805212                0.09346618               -0.13219815                2.00050781               -2.15810988
               5.94753541                5.45258346               34.91325943                0.00010000               -0.64249899                0.19951031               -0.05904191               -0.51685744                9.36596540               -1.00683040
               6.93616907                5.24819177               34.92556930                0.00010000               -1.04824051                0.20872048               -0.20346434               -0.65124974               14.57684887               -0.16580454
               7.92657060                5.04458519               34.92179873                0.00010000               -0.86068272                0.16305627               -0.41354876               -0.74583763               13.55335985                0.70304335
               8.91895542                4.84202753               34.91128180                0.00010000               -0.65257238                0.07213808               -0.62311783               -0.82095486               13.20104195                1.73921357
               9.91351915                4.64098922               34.89766619                0.00010000               -0.41340988               -0.05466173               -0.83143114               -0.87078400               13.17889054                2.91443519
              10.91068722                4.44139832               34.88340395                0.16297588                0.04175494               -0.23420750               -1.04465926               -0.41321572                7.34241591                4.11803935
              11.91435425                4.25371810               34.74886216                0.54373420                0.37184878                0.20906207               -1.09474994                0.05601999                0.73638974                1.88925305
              12.91812419                4.06511747               34.60109517                0.95029405                0.37699408                0.57485260               -1.45461354               -0.01967760                0.10294385                0.00068465
               3.15124223                7.05779706               35.24726994                1.00000000               -0.08648585               -0.18124726                0.43854721               -0.02884422                0.05654178                0.90154297
               4.15037737                6.85818986               35.09924181                0.55142651               -0.06443097               -0.02812474                0.17491739               -0.02754357                0.29645550               -0.75680658
               5.14995361                6.65775563               34.95594576                0.08210206               -0.29883176                0.13160149               -0.07519928               -0.15082543                4.21711214               -2.48476806
               6.14440073                6.45474847               34.88633469                0.00010000               -0.89110326                0.20892942                0.06009996               -0.73978590               12.46816249                1.03764695
               7.13213154                6.25074438               34.90801125                0.00010000               -1.17075863                0.30213321               -0.23505871               -0.87094829               16.71488335                0.60375413
               8.12098556                6.04673376               34.92094900                0.00010000               -1.03763692                0.27746800               -0.44134419               -1.02023980               16.21575664                1.09480636
               9.11137880                5.84313296               34.92981471                0.00010000               -0.86028307                0.16221991               -0.62155334               -1.16961128               16.11331039                1.90503320
              10.10377990                5.64060497               34.93738602                0.00010000               -0.65712654               -0.00252805               -0.78187298               -1.30319810               16.27415331                2.89856703
              11.09823627                5.43946679               34.94561687                0.18205444               -0.12786206               -0.14443717               -0.92215556               -0.67913850                8.69288007                4.01602953
              12.10122266                5.25571310               34.79723452                0.51279753                0.32585496                0.19924036               -1.01589132                0.07290147                0.47982297                1.74620583
              13.10475337                5.07076486               34.64025091                0.93584171                0.35307142                0.55229071               -1.38508789               -0.00725359                0.07399636               -0.04842695
               3.34979388                8.05629386               35.19974097                1.00000000               -0.04334765               -0.11973661                0.28602729               -0.02633562                0.01933515                0.83046140
               4.34936040                7.85813771               35.04337097                0.50995416               -0.01749736                0.01406669                0.02101857               -0.01587403                0.17060466               -0.78535922
               5.34944393                7.65932303               34.88995012                0.05661748               -0.48047317                0.16493765               -0.24735948               -0.18304163                7.10529495               -2.62228838
               6.33975094                7.45676205               34.87224970                0.00010000               -1.13395630                0.29237055               -0.02120806               -0.66182832               16.03318497                1.10919469
               7.32676481                7.25423444               34.89645252                0.00010000               -1.29868566                0.44058105               -0.29889752               -0.84354998               18.38190971                0.86169225
               8.31377723                7.05013455               34.92310946                0.00010000               -1.25364138                0.45206102               -0.47655955               -1.17611667               18.64492658                1.20014412
               9.30169198                6.84527193               34.94945176                0.00010000               -1.13279351                0.30656308               -0.61109305               -1.50173120               18.85560216                1.89672371
              10.29112136                6.64093866               34.97660771                0.00010000               -0.98478320                0.09409118               -0.70363836               -1.72200071               19.23149081                2.73060107
              11.28199632                6.43850957               35.00632785                0.21398313               -0.33035703               -0.04416216               -0.73022660               -0.95770988                9.95116606                3.67652694
              12.28451422                6.25770291               34.84375911                0.49861635                0.29396508                0.20856285               -0.96408129                0.05066671                0.19596215                1.52174262
              13.28787562                6.07616328               34.67776710                0.92629101                0.33614007                0.52029224               -1.33816288                0.00318667                0.04426544               -0.23428911
               3.54702781                9.05540233               35.15194224                1.00000000                0.00028997               -0.06049472                0.13554654               -0.02444584                0.00397659                0.83268893
               4.54703071                8.85847119               34.98749767                0.51922442                0.03203090                0.05206826               -0.12963518               -0.00532864                0.02604792               -0.76824353
               5.54766843                8.66105438               34.82340653                0.04024690               -0.53889764                0.17514713               -0.40902606               -0.12838702                9.45820962               -2.44639581
               6.53625276                8.46059588               34.84754378                0.00010000               -1.28901937                0.49548235               -0.29423427               -0.39750395               19.61787284                0.24131815
               7.52188805                8.25955600               34.88466461                0.00010000               -1.49135122                0.65537566               -0.41618404               -0.66753291               20.57970537                0.64992144
               8.50642574                8.05577498               34.92510942                0.00010000               -1.56739871                0.70133498               -0.53240264               -1.13766276               21.07501792                0.99467855
               9.49054007                7.84926422               34.96873587                0.00010000               -1.51617483                0.61162566               -0.60948841               -1.67556281               21.49954170                1.63000052
              10.47610224                7.64248680               35.01379915                0.01421185               -1.41111212                0.26995628               -0.64091559               -2.19027814               21.94832948                2.76081896
              11.46231783                7.43858355               35.06208642                0.25779445               -0.57599765                0.05419113               -0.58058378               -1.23696244               11.15438100                3.00392792
              12.46458229                7.25988436               34.88763941                0.49885422                0.27892661                0.23466575               -0.93874582                0.00969083                0.01921086                1.23626845
              13.46789636                7.08117070               34.71283190                0.92030991                0.33140733                0.47779021               -1.32193573                0.01131573                0.01917718               -0.49138678
               3.74316724               10.05508396               35.10441379                1.00000000                0.04345459               -0.00633544               -0.01293689               -0.02345532               -0.01895795                0.73747960
               4.74360178                9.85917907               34.93184542                0.55199511                0.07921364                0.09026868               -0.27734603               -0.00169546                0.05640943               -0.64136666
               5.74475151                9.66282598               34.76068609                0.00837637               -0.51512704                0.18698690               -0.55260420                0.03498401               11.47119244               -1.62776251
               6.73329924                9.46667170               34.81633096                0.00010000               -1.32582326                0.70968282               -0.52351498               -0.11635046               22.83918669               -0.07304269
               7.71823504                9.26734195               34.86944688                0.00010000               -1.59917436                0.82884747               -0.55784329               -0.38097818               22.97485164                0.29956358
               8.70131575                9.06416125               34.92399536                0.00010000               -1.83830663                0.92767171               -0.61542216               -0.74037614               23.50676563                0.55184587
               9.68146891                8.85750444               34.98412210                0.00010000               -2.16596444                0.99471849               -0.64079798               -1.32452442               24.48521763                0.96839520
              10.65799646                8.64633779               35.05471448                0.07057631               -2.08047045                0.87501995               -0.58580587               -2.01385729               24.40008808                2.21385835
              11.63985950                8.43959340               35.10936089                0.31432860               -0.79377926                0.14897751               -0.54265323               -1.49400759               11.99134800                1.74002117
              12.64212088                8.26239622               34.92833671                0.50930435                0.28348752                0.26920535               -0.95062360               -0.02274224                0.10239592                0.83423174
              13.64552925                8.08571908               34.74483762                0.90888568                0.34083724                0.44187678               -1.34262047                0.01359423               -0.00287509               -0.60505577
               3.93836849               11.05527562               35.05463280                1.00000000                0.08863054                0.01916548               -0.15808185                0.02022005                0.40320464                0.63015079
               4.93925479               10.86027657               34.87839769                0.81688478                0.12534994                0.10974917               -0.42226777                0.04122617                0.81937856               -0.52600463
               5.94087549               10.66479412               34.71037786                0.49858049               -0.49225093                0.19681406               -0.69084729                0.33804636               13.40174203               -1.00207590
               6.92940978               10.47478953               34.78569013                0.36873275               -1.20482784                0.81178341               -0.67603469                0.17799519               25.38769546               -0.11904771
               7.91677893               10.27613295               34.85138029                0.35834782               -1.39770262                0.87909965               -0.69382490               -0.16866699               25.17398413                0.11205388
               8.90145572               10.07432842               34.91788926                0.37153549               -1.74529419                1.01671669               -0.72599730               -0.33472099               25.72807489                0.27435033
               9.88187305                9.86915859               34.99094755                0.40725161               -2.38597915                1.16541446               -0.72743117               -0.67664739               27.10497658                0.53594994
              10.85373614                9.65998719               35.08185463                0.55759217               -3.27469036                1.36494092               -0.61565411               -1.80580688               26.47944634                1.54503889
              11.81637924                9.44156310               35.13961789                0.68626188               -1.78671924                0.19697001               -0.62532121               -2.08396245               13.25638756                0.90521992
              12.81800176                9.26526847               34.96391760                0.77147638                0.25716408                0.28722455               -1.00990330                0.01034461                1.05359386                0.59584197
              13.82152252                9.09000824               34.77724896                0.95398408                0.35207659                0.42891519               -1.39292051                0.07330385                0.52496827               -0.56434269
               2.02947785                1.13298131               36.51654788                1.00000000               -0.34643382               -0.37081428                1.28162068               -0.05767103               -0.98198702                0.99337010
               3.02601351                0.91747955               36.40525448                1.00000000               -0.30466556               -0.28659484                1.02731181               -0.03608400               -1.28670027                0.12984003
               4.02338454                0.70153382               36.28788699                1.00000000               -0.21334329               -0.20448840                0.75808389               -0.04208637               -1.26242360               -0.20832537
               5.02174664                0.48525768               36.17707700                0.62892201               -0.00839567               -0.14113463                0.49668757               -0.00258071               -0.45971092               -0.88466848
               6.02321662                0.26969412               36.07577986                0.70512813                0.15733275               -0.09911586                0.19937431               -0.07324234               -0.08260724                0.28685289
               7.02489330                0.05572877               35.97311035                0.77995521                0.17204394                0.00287509               -0.04633122               -0.07011190               -0.30074464                0.16675511
               8.02665750               -0.15689360               35.86693327                0.77170375                0.21207525                0.07782075               -0.28294892               -0.04725753               -0.51521179               -0.06005157
               9.02913480               -0.36861974               35.75929763                0.86057350                0.25926196                0.15073223               -0.50672231               -0.06338760               -0.80954118                0.10722828
              10.03184274               -0.57946465               35.64656808                1.00000000                0.28459192                0.23017171               -0.76419265               -0.05843576               -1.14789177                0.60553526
              11.03482664               -0.78997071               35.53182297                1.00000000                0.32888544                0.31926594               -1.03467557               -0.03839077               -1.12186020                0.00072707
              12.03842045               -1.00073963               35.41956218                1.00000000                0.35938078                0.41952391               -1.31851563               -0.01513358               -0.99956385               -0.98622433
               2.24440289                2.12927316               36.46882153                1.00000000               -0.30264757               -0.35970053                1.14095892               -0.01347330               -0.15851349                1.35467279
               3.24137642                1.91461360               36.35732934                1.00000000               -0.26641416               -0.26689150                0.88908238                0.00856302               -0.19888642                0.18530235
               4.23907461                1.69948893               36.24502310                0.94167401               -0.18678654               -0.17861370                0.61913089               -0.00636304               -0.07322099               -0.49924753
               5.23764068                1.48384634               36.13597047                0.26190352               -0.09129748               -0.11483555                0.34366738                0.01873224                1.55559413               -1.26083934
               6.23724866                1.26870296               36.05603043                0.40738966               -0.00773212               -0.03728725                0.05840302               -0.08253131                2.45637482                0.96795480
               7.23748604                1.05575752               35.96262940                0.50383248                0.05552627                0.04875031               -0.18290791               -0.03369947                1.60643906                0.46333675
               8.23835918                0.84388460               35.86460218                0.42057796                0.11502048                0.12642197               -0.41232858               -0.00636673                1.52163937               -0.26823876
               9.23978645                0.63288758               35.76894318                0.50802897                0.17873411                0.19481804               -0.63815916               -0.04396512                1.56298172                0.49357717
              10.24193387                0.42283707               35.67135498                1.00000000                0.26468854                0.25544866               -0.88302379               -0.03001390                0.81633865                0.84520876
              11.24508022                0.21322195               35.56063553                1.00000000                0.35520837                0.32896113               -1.16312216                0.00483699                0.09588038                0.14856466
              12.24903803                0.00345561               35.44859607                1.00000000                0.39578104                0.44699186               -1.44452697                0.03013803                0.03338985               -1.15395590
               2.45852750                3.12578729               36.42836690                1.00000000               -0.25584974               -0.34126666                1.01033294               -0.00816326                0.04694267                1.71347611
               3.45596900                2.91214172               36.31051706                1.00000000               -0.22514781               -0.23013469                0.75894037                0.01153774                0.23023032                0.17579769
               4.45402454                2.69796154               36.19630723                0.65093768               -0.15308719               -0.12200904                0.50968445               -0.01965536                0.67240872               -1.26033356
               5.45290726                2.48296097               36.08724967                0.00010000               -0.21848637               -0.07809177                0.21388572                0.03917178                4.52794687               -1.97696305
               6.44965482                2.26894838               36.05008973                0.00010000               -0.19347953               -0.04690064               -0.12369025               -0.08476941                5.67974375               -1.11221621
               7.44903767                2.05670377               35.95810356                0.00010000               -0.01273534               -0.04033185               -0.32088166               -0.14309944                2.59538893               -0.04975935
               8.44940011                1.84563484               35.85810619                0.00010000                0.01326860               -0.00980915               -0.53297482               -0.20012006                3.63053916                0.81569793
               9.44930304                1.63527662               35.78633290                0.00010000                0.07539904                0.02629177               -0.78993928               -0.21491938                4.38638610                1.44294153
              10.45090809                1.42564432               35.70093133                0.41986799                0.25008981                0.23380717               -1.01869509               -0.19665310                2.54335072                1.87182608
              11.45430484                1.21660851               35.59244328                1.00000000                0.38238994                0.33228219               -1.28656829               -0.06975007                0.91279083                0.88878082
              12.45855589                1.00820021               35.47434298                1.00000000                0.42510529                0.51033575               -1.56665603                0.01388097                0.44119635               -1.05660444
               2.67153077                4.12244783               36.38788888                1.00000000               -0.20978469               -0.32231960                0.87866609               -0.01497946                0.11868607                1.59241012
               3.66943292                3.91001091               36.26239785                1.00000000               -0.18342600               -0.19029518                0.62749052                0.00256034                0.18408488               -0.00048713
               4.66786225                3.69704875               36.13817587                0.36677934               -0.09978189               -0.06485818                0.39136892               -0.07823612                1.13414425               -1.67600403
               5.66743729                3.48228450               36.03166002                0.00010000               -0.30258911               -0.01601407                0.13374730               -0.11100649                5.22985380               -2.65879601
               6.66181047                3.26776495               35.98928341                0.00010000               -0.47498464               -0.04461741               -0.13650706               -0.26205458                8.06603493               -2.74131322
               7.65793759                3.05495088               35.93743492                0.00010000               -0.30132639               -0.09648408               -0.38027920               -0.38670335                7.30647978               -0.49297291
               8.65578394                2.84368842               35.87729219                0.00010000               -0.12295076               -0.14479702               -0.61457274               -0.49228346                6.88066611                1.74085957
               9.65547858                2.63341341               35.81479170                0.00010000                0.04424823               -0.14529322               -0.86241354               -0.33704458                6.56654452                2.32042612
              10.65666891                2.42751321               35.74610833                0.17359939                0.28253775               -0.06804811               -1.21957147               -0.27563335                4.34875528                3.65354976
              11.66112933                2.21986760               35.63596188                0.69503913                0.47316778                0.27889000               -1.47963597               -0.17127216                1.23179369                1.84596231
              12.66613226                2.01366233               35.50541780                1.00000000                0.50029278                0.59637501               -1.73069133               -0.06950395                0.23231870               -0.34433360
               2.88310175                5.11934090               36.34511327                1.00000000               -0.16824607               -0.29077758                0.73720514               -0.02747873                0.18879806                1.33136318
               3.88141929                4.90833582               36.21204358                0.80770874               -0.14577596               -0.13611946                0.48602223               -0.01872661                0.29223067               -0.30955572
               4.88018623                4.69666438               36.08099731                0.19679197               -0.07241790                0.00181494                0.24499040               -0.13347248                1.35312492               -1.79634513
               5.87997093                4.48264069               35.96913266                0.00010000               -0.42194426                0.11084010                0.00951796               -0.33217760                7.00938491               -2.68864057
               6.87174734                4.26805603               35.95116560                0.00010000               -0.72954005                0.09348635               -0.19680046               -0.53311138               11.33496543               -1.08015498
               7.86538013                4.05477409               35.92397724                0.00010000               -0.53277177                0.03887587               -0.43148336               -0.63085833               10.60688847                0.18916097
               8.86109191                3.84273890               35.88924521                0.00010000               -0.33213846               -0.04118229               -0.67765447               -0.68639420               10.13268364                1.52972947
               9.85873736                3.63237075               35.84996727                0.00010000               -0.10753339               -0.10046393               -0.94480900               -0.66019327               10.00819472                2.82038909
              10.85894124                3.42428336               35.81004156                0.14793218                0.29964574               -0.32890398               -1.21637880               -0.33446204                5.97053275                4.37567068
              11.86473027                3.22218631               35.68651293                0.56416772                0.53175519                0.21945501               -1.38677558               -0.02884423                1.02668793                2.20859839
              12.86957634                3.02012771               35.54545234                0.94756101                0.48460703                0.64314047               -1.72450055               -0.07140633                0.20815588                0.17501183
               3.09299136                6.11663228               36.29952456                1.00000000               -0.12564473               -0.24281079                0.58580132               -0.03256227                0.13027118                1.06920026
               4.09173492                5.90728852               36.15769329                0.63976706               -0.10517176               -0.07423733                0.32369793               -0.03307541                0.35407761               -0.62419713
               5.09088793                5.69708505               36.02028584                0.12022883               -0.11664163                0.08402386                0.08408841               -0.15472811                2.06697316               -2.18080295
               6.08940208                5.48450130               35.91271098                0.00010000               -0.59365447                0.18163088               -0.05280702               -0.65207179                9.47237948               -0.84031354
               7.07901484                5.26963468               35.92341158                0.00010000               -0.93822629                0.19603305               -0.23282309               -0.85805407               14.65379937               -0.07342203
               8.07063756                5.05572840               35.91737730                0.00010000               -0.72777210                0.14277814               -0.47608045               -0.92412039               13.60596472                0.78843415
               9.06445940                4.84286478               35.90461228                0.00010000               -0.49536552                0.04638685               -0.71789659               -0.98254257               13.25989577                1.83619922
              10.06073025                4.63140413               35.88873190                0.00010000               -0.21476480               -0.08571183               -0.96933280               -1.02461820               13.23688661                3.04467584
              11.06016410                4.42093513               35.87202438                0.15171028                0.19889247               -0.28230580               -1.26013382               -0.45516991                7.54054605                4.29348821
              12.06470810                4.22425670               35.73747880                0.51671092                0.43286201                0.19866088               -1.19700128                0.07105510                0.91262022                2.11848902
              13.06882134                4.02652514               35.58617001                0.92952281                0.41132443                0.61151373               -1.53689757               -0.03403020                0.11444037                0.21288831
               3.30113802                7.11448469               36.25160258                1.00000000               -0.08330086               -0.18260692                0.42936665               -0.02942861                0.05400324                0.89250724
               4.30030501                6.90685107               36.10093552                0.54179945               -0.06295662               -0.02101525                0.16324814               -0.03001896                0.30041694               -0.77047484
               5.29987888                6.69834485               35.95513564                0.07809522               -0.29625704                0.15037600               -0.08958911               -0.20461557                4.43253230               -2.51345639
               6.29437987                6.48627331               35.88710274                0.00010000               -0.82598584                0.17084115                0.08977191               -0.87839430               12.65033063                1.17994595
               7.28335917                6.27197669               35.90550641                0.00010000               -1.03561227                0.27732002               -0.27199771               -1.05359652               16.71709844                0.68193399
               8.27366762                6.05762966               35.91620459                0.00010000               -0.87969227                0.24773586               -0.51409664               -1.18690798               16.29033028                1.18458853
               9.26576532                5.84366663               35.92310974                0.00010000               -0.67464903                0.12499663               -0.72900524               -1.31930774               16.21755110                2.02676210
              10.26017464                5.63065652               35.92890749                0.00010000               -0.43900201               -0.04181597               -0.93026549               -1.45536721               16.40936907                3.07654780
              11.25698528                5.41863724               35.93556082                0.17055505                0.01933640               -0.17375931               -1.12117419               -0.74543732                8.92973655                4.29218201
              12.26056137                5.22615953               35.78673400                0.49095407                0.36867879                0.19241015               -1.08882592                0.08212532                0.63776929                1.90808263
              13.26435886                5.03235799               35.62608904                0.91882696                0.37974885                0.56810044               -1.44137587               -0.01099214                0.07531082                0.09614116
               3.50767002                8.11298014               36.20253687                1.00000000               -0.03956519               -0.11890601                0.27425471               -0.02663627                0.01767185                0.82225494
               4.50727437                7.90686822               36.04351706                0.50282143               -0.01483203                0.02074173                0.00756060               -0.01581024                0.16654857               -0.79505989
               5.50737338                7.70009257               35.88739946                0.05295539               -0.45360023                0.17985013               -0.26499027               -0.26396805                7.34639349               -2.64646101
               6.49820236                7.48791813               35.87193252                0.00010000               -1.03934093                0.26971889               -0.05212759               -0.80560570               16.28041194                1.04932938
               7.48658656                7.27518108               35.89323831                0.00010000               -1.14964551                0.41258878               -0.34978182               -1.01155735               18.42775774                0.89888396
               8.47520945                7.06068312               35.91795833                0.00010000               -1.07700897                0.41449419               -0.56122408               -1.34009088               18.76983934                1.28164586
               9.46504638                6.84536471               35.94281975                0.00010000               -0.92785813                0.25803132               -0.72586013               -1.65249592               19.03666302                2.02369465
              10.45665229                6.63056781               35.96895880                0.00010000               -0.76470224                0.04472393               -0.84240183               -1.87065190               19.49092310                2.92014341
              11.44975234                6.41745994               35.99841113                0.20248951               -0.20112149               -0.05628424               -0.87805146               -1.03082474               10.19406576                3.96183476
              12.45262986                6.22810490               35.83382808                0.47932960                0.32261272                0.20810865               -1.02568699                0.05887462                0.27934125                1.64370458
              13.45620459                6.03788715               35.66411631                0.91138471                0.35747300                0.53441662               -1.38974055                0.00107388                0.04611313               -0.13057456
               3.71282914                9.11210657               36.15322188                1.00000000                0.00472354               -0.05779813                0.12119081               -0.02459968                0.00303010                0.82550095
               4.71287637                8.90726591               35.98612948                0.51487328                0.03602372                0.05826451               -0.14495065               -0.00478472                0.01759508               -0.77418936
               5.71354961                8.70194186               35.81923844                0.03912649               -0.48485635                0.18476044               -0.42685469               -0.22166085                9.63363240               -2.45460747
               6.70317925                8.49166769               35.84438776                0.00010000               -1.15932907                0.48211362               -0.34543325               -0.56039562               19.88640659                0.12686476
               7.69036303                8.28022846               35.88018202                0.00010000               -1.32485368                0.62307630               -0.48498386               -0.83488922               20.74358100                0.65351989
               8.67668217                8.06591954               35.91933468                0.00010000               -1.37661628                0.66209546               -0.63037911               -1.29861715               21.27385718                1.05559556
               9.66283071                7.84882726               35.96203739                0.00010000               -1.30079025                0.56580227               -0.74132335               -1.83667887               21.76570778                1.73668064
              10.65066637                7.63155099               36.00679186                0.00905924               -1.19995007                0.22066627               -0.77339460               -2.33459369               22.32197998                2.91205572
              11.63883170                7.41751156               36.05589792                0.24761243               -0.46773541                0.05870399               -0.67042157               -1.30378788               11.39715486                3.20432169
              12.64131166                7.23032171               35.87797044                0.48049812                0.29920684                0.24251376               -0.99768081                0.01309637                0.03420348                1.31962164
              13.64481584                7.04304632               35.69932882                0.90647080                0.35041811                0.49427813               -1.37808085                0.00994518                0.01869922               -0.43147568
               3.91685935               10.11182418               36.10419702                1.00000000                0.04840367               -0.00199198               -0.03003097               -0.02359952               -0.01988370                0.73206759
               4.91734338                9.90803351               35.92899418                0.54978525                0.08395182                0.09596013               -0.29373777               -0.00170387                0.04981764               -0.64337857
               5.91853838                9.70378778               35.75508326                0.00766149               -0.43177693                0.19363628               -0.57065432               -0.07340404               11.60418555               -1.62264839
               6.90870785                9.49756040               35.81086965                0.00010000               -1.14507296                0.66169767               -0.57127204               -0.25620838               23.10103861               -0.12430641
               7.89563693                9.28764260               35.86349563                0.00010000               -1.40347647                0.78672110               -0.63766678               -0.50313770               23.21412321                0.29492010
               8.88063832                9.07392503               35.91731725                0.00010000               -1.64777872                0.89390518               -0.72756093               -0.85318141               23.76973637                0.58411695
               9.86268135                8.85668075               35.97697803                0.00010000               -1.96810993                0.97257280               -0.79899406               -1.45368912               24.82189818                1.02916040
              10.84127612                8.63498114               36.04777672                0.06933268               -1.88877409                0.86684798               -0.82402659               -2.12670793               24.85781468                2.30503832
              11.82490587                8.41863402               36.10367705                0.30815106               -0.69595435                0.16268520               -0.59767282               -1.54744199               12.23969990                1.81097739
              12.82735703                8.23295517               35.91854884                0.49103992                0.30242007                0.28375733               -1.00816972               -0.02281279                0.09211687                0.87249466
              13.83095427                8.04777271               35.73109267                0.89542734                0.35972395                0.46085065               -1.40726209                0.01259454               -0.00461256               -0.58165935
               4.11993849               11.11206673               36.05295447                1.00000000                0.09402060                0.02425507               -0.17688977                0.01975224                0.39948873                0.62583699
               5.12087869               10.90918511               35.87409093                0.81678510                0.13080751                0.11516032               -0.43993433                0.04092374                0.81315511               -0.52570792
               6.12255464               10.70581458               35.70338695                0.49760108               -0.33392199                0.20268049               -0.71056031                0.18745193               13.52740333               -0.99284638
               7.11420025               10.50490164               35.77867016                0.36889857               -0.93094941                0.73412406               -0.73148447                0.05665597               25.65285540               -0.13889165
               8.10393565               10.29596289               35.84402223                0.35849569               -1.18099305                0.83202834               -0.78278508               -0.22532735               25.43678248                0.10545755
               9.09058039               10.08379764               35.91003020                0.37131642               -1.56174210                0.98726170               -0.85279915               -0.39000087               26.01873110                0.28833332
              10.07270081                9.86827871               35.98280826                0.40634667               -2.22007273                1.15979614               -0.91100492               -0.74353873               27.47565242                0.56398243
              11.04617894                9.64888795               36.07421629                0.55826389               -3.13959887                1.39068129               -0.94234902               -1.88539049               26.96453476                1.60578378
              12.00990883                9.42076526               36.13306310                0.68463583               -1.72311102                0.21312399               -0.68716618               -2.14425891               13.52340621                0.90841822
              13.01171672                9.23599685               35.95351088                0.76231526                0.27619155                0.30416782               -1.07027412                0.01087215                1.07252162                0.60867379
              14.01543266                9.05226333               35.76296208                0.94724504                0.37159431                0.44906227               -1.46467934                0.07448705                0.54243530               -0.55608242
               2.13215031                1.19139500               37.52939423                1.00000000               -0.34760128               -0.37359237                1.28984505               -0.05821179               -0.99744980                1.00416517
               3.12867430                0.96742890               37.41552950                1.00000000               -0.30486590               -0.28704155                1.02855588               -0.03563904               -1.31077956                0.13697202
               4.12605299                0.74301308               37.29543119                1.00000000               -0.21255910               -0.20279151                0.74991612               -0.04201693               -1.28925087               -0.20771734
               5.12442312                0.51820080               37.18197344                0.63071646               -0.01997909               -0.13657606                0.48009249               -0.04894157               -0.49865028               -0.90114328
               6.12565341                0.29303044               37.07763946                0.70088196                0.16057949               -0.10896203                0.16476243               -0.06888936               -0.10098723                0.28573248
               7.12763471                0.06857739               36.97249302                0.77011213                0.20687459                0.00240295               -0.08751175               -0.07632073               -0.27456413                0.16518077
               8.12979090               -0.15448356               36.86397113                0.76263809                0.25046239                0.07857123               -0.31938240               -0.05030532               -0.46234009               -0.05927502
               9.13264395               -0.37650358               36.75415742                0.85370876                0.28796014                0.15112300               -0.52913100               -0.06705163               -0.75496817                0.10898556
              10.13555011               -0.59750282               36.63892330                1.00000000                0.29673265                0.23167079               -0.77037336               -0.06278872               -1.11147224                0.62182621
              11.13857861               -0.81806660               36.52153169                1.00000000                0.33103730                0.31963622               -1.03082851               -0.04049954               -1.09842422                0.01072400
              12.14217085               -1.03888622               36.40643075                1.00000000                0.35922446                0.41810398               -1.31399772               -0.01466041               -0.98216329               -0.96174764
               2.35553430                2.18765908               37.48024961                1.00000000               -0.30254264               -0.36308532                1.14658831               -0.01291303               -0.16579954                1.36938320
               3.35250887                1.96455849               37.36621178                1.00000000               -0.26437086               -0.26709473                0.88800822                0.00984122               -0.21621956                0.19604222
               4.35024688                1.74098517               37.25117217                0.95342017               -0.17919230               -0.17660178                0.60967234               -0.00742020               -0.10160156               -0.48386158
               5.34892502                1.51683503               37.13934280                0.26859573               -0.02353276               -0.10843493                0.32825418               -0.04612379                1.51863821               -1.26646076
               6.34977622                1.29194082               37.05646608                0.40772488                0.08517395               -0.05610607                0.02476405               -0.07404022                2.44773973                0.94429386
               7.35062850                1.06860142               36.96062461                0.49997778                0.10260551                0.04634076               -0.22271922               -0.04206514                1.64502243                0.46229447
               8.35182833                0.84630215               36.86031888                0.41987025                0.14272811                0.12937752               -0.44686458               -0.01470762                1.58151266               -0.26261939
               9.35348306                0.62500765               36.76246582                0.50799639                0.19376996                0.19947722               -0.65607496               -0.04289994                1.62193960                0.48873066
              10.35570373                0.40481389               36.66247603                1.00000000                0.26911244                0.25887419               -0.89260575               -0.03505559                0.84713071                0.85539171
              11.35886531                0.18512976               36.54897190                1.00000000                0.35700648                0.33293587               -1.16944595                0.00247968                0.10508462                0.16301043
              12.36284386               -0.03470518               36.43411513                1.00000000                0.39785486                0.44524276               -1.45092282                0.03085335                0.03881141               -1.12406852
               2.57809324                3.18413330               37.43848065                1.00000000               -0.25482024               -0.34593488                1.01424800               -0.00756297                0.04500291                1.73182998
               3.57554504                2.96208701               37.31809103                1.00000000               -0.22325979               -0.22971828                0.75622587                0.01164934                0.22828507                0.18977124
               4.57362804                2.73948105               37.20135395                0.66760804               -0.15000228               -0.11698854                0.49888439               -0.02321348                0.64857478               -1.23368226
               5.57254499                2.51603210               37.08930947                0.00010000               -0.06109078               -0.06918933                0.19657120               -0.05271797                4.45718335               -1.94598151
               6.57240623                2.29190832               37.04865974                0.00010000               -0.00564567               -0.07326144               -0.16613382               -0.26992098                5.68205441               -1.07085761
               7.57243208                2.06950420               36.95469028                0.00010000                0.03421447               -0.04356547               -0.36396136               -0.30176337                2.67922631               -0.01383596
               8.57309052                1.84810399               36.85257249                0.00010000                0.04210678               -0.00803304               -0.56971627               -0.32304264                3.69785299                0.83830067
               9.57327421                1.62748597               36.77836165                0.00010000                0.08181862                0.02142198               -0.79305960               -0.28020933                4.44061185                1.44967536
              10.57472689                1.40767467               36.69066531                0.41754002                0.24365296                0.26382273               -1.02926522               -0.17588762                2.57474722                1.82821505
              11.57814727                1.18859211               36.57942558                1.00000000                0.38654514                0.34500864               -1.30691353               -0.06239626                0.91660065                0.86896108
              12.58245779                0.97001864               36.45855465                1.00000000                0.43105201                0.50619440               -1.58157115                0.01723652                0.43770872               -1.04441841
               2.79947561                4.18074038               37.39667698                1.00000000               -0.20815096               -0.32795584                0.88080467               -0.01503781                0.12144027                1.60438887
               3.79739411                3.95996412               37.26865074                1.00000000               -0.18190479               -0.18859562                0.62329073                0.00209931                0.19381912                0.00753210
               4.79583752                3.73864540               37.14204812                0.36861093               -0.09753565               -0.05616676                0.38148079               -0.08433337                1.14034760               -1.66734455
               5.79544339                3.51545125               37.03291770                0.00010000               -0.24659105               -0.00488013                0.11489630               -0.22283700                5.21637073               -2.62253222
               6.79090570                3.29047559               36.98774829                0.00010000               -0.35229125               -0.05348135               -0.17376292               -0.55571873                8.06835889               -2.64366137
               7.78839757                3.06773011               36.93339084                0.00010000               -0.17599912               -0.10953617               -0.43117418               -0.64849733                7.34158929               -0.42236626
               8.78738572                2.84614149               36.87084934                0.00010000               -0.00446859               -0.15696432               -0.67486335               -0.72594770                6.92263450                1.78314873
               9.78830820                2.62543609               36.80576092                0.00010000                0.18470583               -0.16600845               -0.93875591               -0.46957175                6.56236611                2.34886830
              10.79107983                2.41009035               36.73360787                0.15841171                0.34826110               -0.09631836               -1.23116454               -0.30192923                4.31122615                3.60995613
              11.79527342                2.19202993               36.62085699                0.65581001                0.46278553                0.27973942               -1.51067386               -0.19372611                1.25759247                1.90415847
              12.80033554                1.97541871               36.48788199                1.00000000                0.50621253                0.59985996               -1.74938938               -0.07251387                0.24640950               -0.28925241
               3.01934500                5.17757418               37.35247495                1.00000000               -0.16629974               -0.29634393                0.73681450               -0.02847252                0.19555713                1.33249376
               4.01768201                4.95831509               37.21687199                0.79813708               -0.14453781               -0.13198992                0.47995547               -0.02102265                0.30379998               -0.31761797
               5.01645425                4.73835771               37.08340045                0.19325014               -0.07119752                0.01456076                0.23470222               -0.14386474                1.37303420               -1.80964096
               6.01625806                4.51593449               36.96915925                0.00010000               -0.37206271                0.11779300               -0.00836966               -0.45525803                7.04366090               -2.63777194
               7.00901299                4.29083869               36.94902747                0.00010000               -0.62309112                0.09534670               -0.23431427               -0.74739892               11.37437668               -0.99657163
               8.00379623                4.06731348               36.91937697                0.00010000               -0.40737080                0.01982095               -0.49218225               -0.83911778               10.63320103                0.26290022
               9.00086558                3.84496470               36.88205783                0.00010000               -0.19311581               -0.06272517               -0.76295437               -0.88673325               10.14956801                1.58882435
               9.99993392                3.62416580               36.83996540                0.00010000                0.06144434               -0.12467893               -1.05817594               -0.83399080               10.00773731                2.86617648
              11.00209446                3.40574830               36.79685806                0.13487437                0.45052338               -0.41707620               -1.42767368               -0.41537488                6.05608762                4.44118979
              12.00894438                3.19418690               36.67175291                0.52899148                0.60677456                0.19184365               -1.51790298               -0.02724229                1.09359892                2.47142218
              13.01422995                2.98201584               36.52762000                0.92664120                0.52855701                0.66599118               -1.79611589               -0.08235373                0.17388381                0.37550603
               3.23742433                6.17481350               37.30535879                1.00000000               -0.12342145               -0.24696391                0.58259899               -0.03334727                0.12856475                1.06191792
               4.23619012                5.95732432               37.16088012                0.62787805               -0.10417547               -0.06792531                0.31354821               -0.03531246                0.36397825               -0.64169027
               5.23534083                5.73893661               37.02106723                0.11568976               -0.11664342                0.10075790                0.07037219               -0.17672179                2.14563582               -2.20806404
               6.23385725                5.51780711               36.91220329                0.00010000               -0.53810448                0.15956707               -0.05237100               -0.78877855                9.57584571               -0.65379885
               7.22457874                5.29238252               36.92091283                0.00010000               -0.81840239                0.18588212               -0.27120354               -1.06609532               14.69961648                0.02046971
               8.21748920                5.06812653               36.91227713                0.00010000               -0.58900019                0.12655105               -0.54857792               -1.10514687               13.62620912                0.87085817
               9.21279873                4.84488698               36.89692387                0.00010000               -0.33222128                0.02480118               -0.82529989               -1.15113344               13.27492646                1.92422755
              10.21084478                4.62294251               36.87827954                0.00010000               -0.00237509               -0.11283850               -1.13013378               -1.17779342               13.21605240                3.15421109
              11.21275123                4.40174882               36.85820127                0.13942658                0.38081283               -0.34123070               -1.52712697               -0.50828389                7.73228434                4.46760326
              12.21846104                4.19586680               36.72492214                0.48963053                0.51396836                0.16692917               -1.31142936                0.07475760                1.12846891                2.40195059
              13.22303060                3.98873853               36.57035721                0.91129995                0.45695622                0.63627696               -1.61208928               -0.04684842                0.10728897                0.45294456
               3.45365642                7.17263490               37.25585727                1.00000000               -0.08037721               -0.18469216                0.42303995               -0.02970161                0.05109144                0.88256799
               4.45285265                6.95695659               37.10250677                0.53163973               -0.06096969               -0.01408876                0.15054780               -0.03116863                0.30374389               -0.78408607
               5.45243703                6.74037287               36.95415398                0.07357475               -0.29080376                0.16771991               -0.11003288               -0.26076197                4.67164010               -2.54702237
               6.44703657                6.51912584               36.88813013                0.00010000               -0.75326786                0.13282593                0.10922096               -1.00767272               12.82621067                1.30311397
               7.43737167                6.29455633               36.90257130                0.00010000               -0.89238676                0.25769918               -0.32070955               -1.22829577               16.67022943                0.75732303
               8.42918884                6.06984450               36.91066707                0.00010000               -0.71723739                0.22554264               -0.59938700               -1.34961221               16.32775424                1.27289743
               9.42302692                5.84546072               36.91523460                0.00010000               -0.48363138                0.09655964               -0.85418312               -1.46547151               16.27262084                2.14821762
              10.41951621                5.62190903               36.91878071                0.00010000               -0.20112133               -0.07426774               -1.10992898               -1.60166861               16.47041720                3.26411311
              11.41900449                5.39892369               36.92319339                0.15798021                0.19668078               -0.21698260               -1.38716248               -0.80632102                9.18197252                4.62232098
              12.42344983                5.19752549               36.77545800                0.46891302                0.42725161                0.17368820               -1.16937217                0.08762580                0.85867271                2.09922040
              13.42754953                4.99474138               36.61142339                0.90321815                0.40997014                0.57867371               -1.48876488               -0.01887004                0.07518218                0.25127598
               3.66818693                8.17111966               37.20522606                1.00000000               -0.03581492               -0.11913557                0.26476613               -0.02687172                0.01601938                0.81302764
               4.66782878                7.95704255               37.04352218                0.49546333               -0.01152945                0.02768465               -0.00713704               -0.01576229                0.16132070               -0.80442533
               5.66795634                7.74229101               36.88465032                0.05086274               -0.41542229                0.19527833               -0.28672135               -0.34665719                7.57765491               -2.67198159
               6.65952033                7.52046363               36.87120714                0.00010000               -0.93310915                0.25351079               -0.09978088               -0.93768815               16.51035113                0.95376632
               7.64929416                7.29753651               36.88945688                0.00010000               -0.99638813                0.39063709               -0.41288910               -1.16925852               18.44935931                0.93146686
               8.63959257                7.07263738               36.91188498                0.00010000               -0.89346913                0.38417357               -0.66049129               -1.49298274               18.85988923                1.36433986
               9.63142477                6.84681818               36.93493455                0.00010000               -0.71220642                0.21894136               -0.86125720               -1.79050508               19.17892648                2.15559427
              10.62534844                6.62145716               36.95975967                0.00010000               -0.52082111                0.00004801               -1.01509105               -2.01219499               19.70942796                3.13871363
              11.62100835                6.39740917               36.98876682                0.18952281               -0.04762906               -0.07598111               -1.08531250               -1.10193648               10.46165396                4.32884127
              12.62439586                6.19934057               36.82324537                0.45985581                0.36065311                0.20152718               -1.09401159                0.06442343                0.40826263                1.77753645
              13.62822141                6.00031201               36.64997229                0.89736509                0.38255526                0.54117233               -1.43688333               -0.00265318                0.04693781               -0.03611974
               3.88127321                9.17025219               37.15436606                1.00000000                0.00928404               -0.05634702                0.10851932               -0.02477531                0.00191251                0.81700173
               4.88136605                8.95751028               36.98459866                0.51050165                0.04047961                0.06537514               -0.16216076               -0.00453152                0.00844930               -0.77927367
               5.88208280                8.74427844               36.81486944                0.03762320               -0.41643699                0.19667432               -0.44916745               -0.31554059                9.78988174               -2.46109330
               6.87303731                8.52419605               36.84063511                0.00010000               -1.01350283                0.47197727               -0.40860567               -0.72610284               20.12808142                0.01440888
               7.86181275                8.30236908               36.87496494                0.00010000               -1.14948986                0.59318211               -0.56418137               -0.99461690               20.88712762                0.65442237
               8.85004751                8.07752797               36.91250183                0.00010000               -1.17078533                0.62553450               -0.74339751               -1.44470093               21.44098818                1.12061275
               9.83839704                7.84983955               36.95390940                0.00010000               -1.06830994                0.52493051               -0.89373996               -1.97976744               22.01111778                1.84644159
              10.82868132                7.62190999               36.99833126                0.00218437               -0.96573427                0.17784833               -0.93306377               -2.46650913               22.70662392                3.03962132
              11.81908235                7.39740406               37.04867798                0.23546469               -0.34229296                0.06192964               -0.79389997               -1.37404660               11.67383532                3.47800540
              12.82183546                7.20155603               36.86768579                0.46194510                0.32356142                0.24825508               -1.06321028                0.01562432                0.06711232                1.41147272
              13.82555358                7.00556482               36.68527028                0.89312329                0.37181266                0.50703151               -1.43457630                0.00727553                0.01874647               -0.38479098
               4.09317524               10.16999272               37.10381317                0.99758492                0.05366632                0.00126348               -0.04650884               -0.02366020               -0.01980876                0.72603521
               5.09371190                9.95835005               36.92597066                0.54756295                0.08922594                0.10293152               -0.31253607               -0.00244280                0.04298080               -0.64409182
               6.09495976                9.74622450               36.74927301                0.00664052               -0.34021324                0.20256789               -0.59409560               -0.18426756               11.72272654               -1.61561213
               7.08690764                9.52990317               36.80490552                0.00010000               -0.94449296                0.61073134               -0.62597352               -0.40150245               23.33463276               -0.16885768
               8.07606990                9.30940015               36.85669354                0.00010000               -1.18397798                0.74099147               -0.72815861               -0.62066548               23.42475228                0.29159358
               9.06322808                9.08514807               36.90944414                0.00010000               -1.43112453                0.85706128               -0.85362195               -0.95432801               23.99957960                0.62075624
              10.04744741                8.85731679               36.96814221                0.00010000               -1.73871663                0.94691207               -0.97487443               -1.56654909               25.10079041                1.09078347
              11.02845375                8.62501412               37.03823395                0.06564868               -1.67830151                0.86568699               -1.09112881               -2.22891725               25.38147141                2.32399918
              12.01388138                8.39864776               37.09740743                0.29948873               -0.59530782                0.17776468               -0.66373499               -1.61190176               12.59220951                1.91885266
              13.01654759                8.20430567               36.90817331                0.47274504                0.32339790                0.29809166               -1.07017535               -0.02386858                0.08299604                0.91857011
              14.02034934                8.01045264               36.71669237                0.88217780                0.38017470                0.47914795               -1.47540100                0.01045967               -0.00761381               -0.57018214
               4.30408535               11.17027746               37.05109501                1.00000000                0.10000720                0.02847404               -0.19522883                0.02015587                0.39583184                0.62195563
               5.30508542               10.95956891               36.86959900                0.81652001                0.13794922                0.12188621               -0.46122113                0.03996825                0.80557558               -0.52384166
               6.30684433               10.74832979               36.69616665                0.49646627               -0.16269043                0.21052974               -0.73669265                0.03054548               13.63416109               -0.98205107
               7.30183161               10.53641068               36.77106045                0.36901367               -0.63448949                0.65075061               -0.79468410               -0.06464732               25.88444005               -0.16044037
               8.29415454               10.31718891               36.83572459                0.35862701               -0.93936456                0.77887547               -0.88193151               -0.27860994               25.66658270                0.10076513
               9.28304432               10.09466920               36.90083328                0.37109762               -1.34772692                0.95211279               -0.99230272               -0.43893170               26.26901110                0.30364398
              10.26720000                9.86877779               36.97272746                0.40545158               -2.01361622                1.14610049               -1.10887352               -0.79701409               27.75306335                0.58702899
              11.24277199                9.63922373               37.06300765                0.55748968               -2.98236141                1.42096026               -1.30445368               -1.95909688               27.53755271                1.59274577
              12.20755277                9.40095936               37.12587457                0.68159373               -1.66093919                0.23115944               -0.75649281               -2.21815367               13.95329232                0.92650473
              13.20955321                9.20751786               36.94251212                0.75321245                0.29580325                0.32121922               -1.13058726                0.00998326                1.10202877                0.62904897
              14.21346884                9.01514778               36.74795537                0.94049293                0.39156291                0.46951434               -1.53873075                0.07494226                0.56320814               -0.55670754
               2.23725832                1.25135386               38.54234478                1.00000000               -0.34973497               -0.37794462                1.30367198               -0.05951598               -1.01607121                1.01640112
               3.23376097                1.01885445               38.42582560                1.00000000               -0.30513670               -0.28815199                1.03208745               -0.03596877               -1.34007432                0.14443604
               4.23115558                0.78589749               38.30288531                1.00000000               -0.20978011               -0.20085610                0.74025298               -0.04232022               -1.32277581               -0.20741169
               5.22956536                0.55249610               38.18667885                0.63376557               -0.02391406               -0.13150086                0.45810719               -0.09167933               -0.55098087               -0.91801968
               6.23067730                0.31775554               38.07907510                0.69848103                0.17524917               -0.11869799                0.11424279               -0.06191016               -0.13454922                0.28149572
               7.23307035                0.08276921               37.97136012                0.76204316                0.25344982                0.00369432               -0.14972252               -0.08017229               -0.24872383                0.15922713
               8.23574630               -0.15077459               37.86054562                0.75461001                0.30064613                0.08054536               -0.37533930               -0.05110899               -0.39521561               -0.06253216
               9.23908327               -0.38305683               37.74871501                0.84811054                0.32463649                0.15147901               -0.56449514               -0.06946847               -0.67622380                0.11168785
              10.24223903               -0.61413359               37.63116062                1.00000000                0.31337194                0.23364853               -0.78654273               -0.06585389               -1.05418930                0.63497824
              11.24535071               -0.84463665               37.51120640                1.00000000                0.33700201                0.32249230               -1.03973895               -0.04127693               -1.06278629                0.02024717
              12.24897907               -1.07534334               37.39328222                1.00000000                0.36283584                0.41936832               -1.32079603               -0.01579662               -0.95629585               -0.93196306
               2.46916257                2.24757441               38.49175329                1.00000000               -0.30331080               -0.36786678                1.15709882               -0.01272402               -0.17487523                1.38543844
               3.46612946                2.01597293               38.37508951                1.00000000               -0.26255075               -0.26781310                0.88848977                0.01074779               -0.23678514                0.20726976
               4.46391155                1.78388893               38.25721655                0.96573960               -0.17049566               -0.17427736                0.59779743               -0.00849124               -0.13304515               -0.46843258
               5.46271955                1.55118109               38.14253555                0.27572558                0.05050462               -0.10148277                0.30646316               -0.10702977                1.47412952               -1.27273010
               6.46492165                1.31656856               38.05652571                0.40843880                0.19070724               -0.07532679               -0.01839510               -0.05685714                2.42943555                0.91226168
               7.46653369                1.08280615               37.95817502                0.49649700                0.16132895                0.04458056               -0.27362357               -0.04493006                1.68606769                0.45364737
               8.46814822                0.85003086               37.85566488                0.42018006                0.17671967                0.13224876               -0.48852371               -0.02043447                1.65679895               -0.26306056
               9.47006808                0.61845796               37.75582168                0.51032340                0.21110866                0.20159255               -0.67307747               -0.04443918                1.69431639                0.48929335
              10.47237040                0.38820289               37.65350286                1.00000000                0.27373654                0.26051890               -0.90046531               -0.03848020                0.88219017                0.86211060
              11.47554282                0.15858828               37.53724661                1.00000000                0.35787002                0.33696500               -1.17409009                0.00221199                0.11560552                0.17415498
              12.47952780               -0.07114966               37.41957761                1.00000000                0.39849824                0.44441659               -1.45445501                0.02984832                0.04514412               -1.08861009
               2.70020681                3.24399652               38.44865186                1.00000000               -0.25454065               -0.35165529                1.02258964               -0.00735912                0.04194955                1.75161680
               3.69766140                3.01349818               38.32564157                1.00000000               -0.22146071               -0.22961677                0.75437636                0.01120655                0.22438180                0.20458487
               4.69577759                2.78241195               38.20628492                0.68439970               -0.14581301               -0.11167865                0.48583481               -0.02705244                0.62339732               -1.20585458
               5.69474514                2.55046644               38.09118109                0.00010000                0.10687532               -0.05985050                0.17443373               -0.14089788                4.37663882               -1.91665749
               6.69791510                2.31624901               38.04676706                0.00010000                0.19821535               -0.10222864               -0.21685661               -0.45113856                5.66953376               -1.03753335
               7.69870945                2.08366082               37.95082433                0.00010000                0.08853483               -0.04946411               -0.41288110               -0.46219922                2.76653916                0.00851459
               8.69968579                1.85187038               37.84671186                0.00010000                0.06565037               -0.00824026               -0.60449032               -0.44837319                3.78381659                0.84130126
               9.70002245                1.62097502               37.77047171                0.00010000                0.08266570                0.01645337               -0.78647391               -0.34471552                4.49252963                1.41468545
              10.70133911                1.39107679               37.68034603                0.41465483                0.23625244                0.26583451               -1.02852111               -0.17227024                2.58932414                1.80190285
              11.70474750                1.16210265               37.56630501                1.00000000                0.38563991                0.35175790               -1.30781273               -0.05337747                0.91256788                0.84723637
              12.70905191                0.93354499               37.44271155                1.00000000                0.43044044                0.49807952               -1.57749380                0.01836575                0.43190613               -1.02205788
               2.93001206                4.24054131               38.40550497                1.00000000               -0.20738962               -0.33437772                0.88710965               -0.01547092                0.12373232                1.61708005
               3.92793817                4.01138059               38.27486366                1.00000000               -0.18049090               -0.18720540                0.61965466                0.00112205                0.20317816                0.01633642
               4.92640224                3.78165536               38.14580548                0.36972929               -0.09368177               -0.04797462                0.36822565               -0.09072249                1.14515872               -1.65659213
               5.92606453                3.54998408               38.03395795                0.00010000               -0.18488719                0.00666062                0.08872285               -0.33296909                5.19641920               -2.58649116
               6.92270450                3.31452399               37.98580815                0.00010000               -0.21980999               -0.06444759               -0.21890340               -0.85325758                8.06146480               -2.54303071
               7.92166833                3.08181687               37.92881144                0.00010000               -0.04189724               -0.12575012               -0.48824802               -0.91767923                7.36792311               -0.36211553
               8.92186656                2.84986606               37.86379492                0.00010000                0.11495202               -0.17147651               -0.73653236               -0.96103991                6.94953389                1.79895906
               9.92396737                2.61878703               37.79601659                0.00010000                0.29654039               -0.18996787               -0.99941495               -0.61385258                6.58451285                2.31391921
              10.92779736                2.39351958               37.72148504                0.14432915                0.40198469               -0.12815168               -1.19065606               -0.31136088                4.27957815                3.45534585
              11.93200706                2.16562343               37.60574840                0.62630333                0.46065406                0.27234756               -1.49494003               -0.18074261                1.24181776                1.91799546
              12.93701044                1.93881193               37.47043001                1.00000000                0.50033794                0.58088086               -1.72727118               -0.06775454                0.25380582               -0.23950047
               3.15821882                5.23730897               38.35984956                1.00000000               -0.16490325               -0.30264934                0.74027196               -0.03009231                0.20303603                1.33366115
               4.15656979                5.00975408               38.22164269                0.78806266               -0.14295833               -0.12803286                0.47400640               -0.02443150                0.31679428               -0.32638179
               5.15535965                4.78145245               38.08569135                0.18930261               -0.06763285                0.02574405                0.22105313               -0.15395946                1.39295330               -1.82339054
               6.15521713                4.55059966               37.96896527                0.00010000               -0.31712461                0.12351846               -0.03510663               -0.57417694                7.06940454               -2.57316296
               7.14901716                4.31496005               37.94647932                0.00010000               -0.51016668                0.09881281               -0.27945768               -0.96125017               11.39950599               -0.91086076
               8.14501380                4.08114582               37.91413359                0.00010000               -0.27611625                0.00192956               -0.55964965               -1.05184146               10.63979171                0.32957443
               9.14349483                3.84844085               37.87398612                0.00010000               -0.04609603               -0.08467541               -0.85210439               -1.09405938               10.13885270                1.62786291
              10.14409187                3.61717567               37.82880375                0.00010000                0.23903261               -0.15569924               -1.17122869               -1.00602886                9.93107592                2.86996983
              11.14827549                3.38851375               37.78148808                0.12188863                0.58742152               -0.47838590               -1.61762842               -0.46281201                6.10972705                4.34411561
              12.15584031                3.16754960               37.65615487                0.49942540                0.65221695                0.14835907               -1.55518666               -0.01183391                1.20457700                2.67141387
              13.16131983                2.94516260               37.50953002                0.91109865                0.54795208                0.64843545               -1.78782546               -0.08437370                0.15162366                0.55676356
               3.38452000                6.23448832               38.31117654                1.00000000               -0.12139507               -0.25200939                0.58280054               -0.03473737                0.12631056                1.05434089
               4.38330605                6.00881993               38.16396425                0.61507695               -0.10212624               -0.06133928                0.30283223               -0.04023444                0.37500215               -0.66033250
               5.38247747                5.78217024               38.02169328                0.11066923               -0.11163283                0.11844315                0.05103738               -0.20184023                2.23663479               -2.24062104
               6.38107339                5.55245445               37.91166356                0.00010000               -0.47720684                0.13660407               -0.05800371               -0.92001804                9.67655558               -0.44760912
               7.37293334                5.31650025               37.91798751                0.00010000               -0.69613444                0.18095221               -0.31770460               -1.26946695               14.71606863                0.11314263
               8.36715070                5.08185546               37.90640574                0.00010000               -0.44889100                0.11669666               -0.62917636               -1.28910469               13.61568166                0.94685771
               9.36395552                4.84817255               37.88810628                0.00010000               -0.16884048                0.00897243               -0.94071574               -1.32865759               13.24337019                1.99723772
              10.36377389                4.61567304               37.86612922                0.00010000                0.21058335               -0.13585110               -1.30078633               -1.33441765               13.09862475                3.23231252
              11.36816718                4.38395187               37.84148184                0.12664687                0.56738205               -0.39978175               -1.81397426               -0.57052356                7.92225607                4.61067960
              12.37512153                4.16859062               37.71125022                0.46403307                0.59648924                0.11355520               -1.39490012                0.07466410                1.40778019                2.68498371
              13.38009697                3.95178064               37.55392822                0.89575090                0.49754347                0.63029125               -1.64753733               -0.05040349                0.08787083                0.68631200
               3.60886084                7.23226878               38.26006338                1.00000000               -0.07776678               -0.18782066                0.41965157               -0.03024076                0.04790685                0.87186204
               4.60808317                7.00852729               38.10394647                0.52164733               -0.05862559               -0.00660548                0.13715653               -0.03384912                0.30562286               -0.79732983
               5.60768833                6.78382132               37.95293498                0.06858250               -0.27982053                0.18836204               -0.13579193               -0.32157541                4.93170407               -2.58255355
               6.60248676                6.55333174               37.88928716                0.00010000               -0.67307595                0.10170086                0.11158776               -1.13563953               12.99791361                1.40465593
               7.59422681                6.31857910               37.89909222                0.00010000               -0.74636826                0.24582634               -0.37982455               -1.39447073               16.57926172                0.82716287
               8.58755940                6.08347975               37.90421685                0.00010000               -0.55613572                0.21398458               -0.69508266               -1.50899661               16.32885102                1.35574910
               9.58310410                5.84862030               37.90602608                0.00010000               -0.29675977                0.08146247               -0.99273025               -1.61131985               16.27251561                2.26278410
              10.58162420                5.61445864               37.90670891                0.00010000                0.04216741               -0.09407516               -1.31351501               -1.74337452               16.43239007                3.44992934
              11.58394745                5.38051812               37.90781757                0.14459558                0.39403056               -0.26998483               -1.71519921               -0.86527024                9.45410374                4.99477327
              12.58950481                5.16982071               37.76334656                0.44710924                0.49921325                0.14186085               -1.24637183                0.08592110                1.16578232                2.30967805
              13.59393171                4.95776843               37.59631374                0.88897387                0.44268956                0.57686133               -1.52556180               -0.02560082                0.06919100                0.40205895
               3.83139816                8.23073191               38.20783219                1.00000000               -0.03216347               -0.12046450                0.25770726               -0.02734101                0.01455724                0.80277348
               4.83107653                8.00868782               38.04337432                0.48830973               -0.00783221                0.03523336               -0.02312490               -0.01678095                0.15554687               -0.81300621
               5.83124152                7.78593748               37.88166504                0.04863326               -0.37368537                0.21379913               -0.31216559               -0.42884479                7.79597385               -2.69344918
               6.82360282                7.55448847               37.86993691                0.00010000               -0.81728032                0.24628759               -0.16080244               -1.06810507               16.72306569                0.82648225
               7.81489591                7.32141677               37.88498053                0.00010000               -0.83366261                0.37505768               -0.48859069               -1.31706330               18.45067098                0.95862995
               8.80692957                7.08613515               37.90474850                0.00010000               -0.70728434                0.36464439               -0.77225839               -1.63084501               18.91372723                1.44465591
               9.80075023                6.84980180               37.92559461                0.00010000               -0.49604909                0.19640648               -1.01491217               -1.91120350               19.27270205                2.28774580
              10.79700859                6.61379154               37.94865698                0.00010000               -0.26252550               -0.02947525               -1.22236679               -2.14217851               19.85938539                3.38360089
              11.79549971                6.37855217               37.97670488                0.17525950                0.12905291               -0.10435308               -1.36938079               -1.16786401               10.75842601                4.79428458
              12.79958964                6.17142783               37.81194784                0.44035789                0.40948975                0.19012545               -1.16655722                0.06612459                0.60883035                1.91898877
              13.80368951                5.96331786               37.63537864                0.88414355                0.40998655                0.54309922               -1.48127055               -0.00649241                0.04632987                0.03776464
               4.05240219                9.22985949               38.15539226                1.00000000                0.01397928               -0.05579873                0.09757787               -0.02525146                0.00053412                0.80714521
               5.05254198                9.00923196               37.98288626                0.50591547                0.04543025                0.07317517               -0.18131462               -0.00477757               -0.00100494               -0.78346295
               6.05331079                8.78809730               37.81025509                0.03568401               -0.34483034                0.21204185               -0.47615661               -0.40789650                9.92813657               -2.46389785
               7.04564537                8.55825749               37.83621564                0.00010000               -0.85359646                0.46347226               -0.47384018               -0.88199512               20.33861027               -0.09342258
               8.03623886                8.32608025               37.86889840                0.00010000               -0.95439493                0.56490267               -0.65570469               -1.13937069               21.00773773                0.65245746
               9.02655747                8.09077264               37.90446673                0.00010000               -0.95076130                0.59367758               -0.86974058               -1.56400763               21.57317257                1.18752558
              10.01722364                7.85254843               37.94416259                0.00010000               -0.82636063                0.49382847               -1.06259455               -2.08731873               22.22682206                1.95905095
              11.01003026                7.61386914               37.98813059                0.00010000               -0.71348808                0.14965948               -1.12299429               -2.57428154               23.08677037                3.15383272
              12.00295387                7.37843106               38.04001992                0.22122749               -0.19843252                0.06311612               -0.96875522               -1.44674702               11.98798902                3.85450770
              13.00606161                7.17362322               37.85670623                0.44332978                0.35339613                0.25362080               -1.13718315                0.01708608                0.13144982                1.50902950
              14.01002180                6.96863041               37.67063729                0.88023931                0.39601862                0.51830559               -1.49490342                0.00443776                0.01940909               -0.36309180
               4.27214820               10.22961593               38.10326685                0.99305996                0.05949680                0.00413428               -0.06237098               -0.02421285               -0.01848799                0.71983859
               5.27274317               10.01015133               37.92274346                0.54492859                0.09549292                0.11098208               -0.33478636               -0.00305159                0.03659091               -0.64468107
               6.27405806                9.79017832               37.74320134                0.00525513               -0.23815998                0.21444866               -0.62362459               -0.29638960               11.82782930               -1.60673473
               7.26797997                9.56375791               37.79835018                0.00010000               -0.72323525                0.55627454               -0.68973542               -0.53888720               23.54040275               -0.20738520
               8.25959335                9.33271483               37.84893246                0.00010000               -0.93993646                0.69179252               -0.82913511               -0.72468021               23.60491416                0.28863982
               9.24918124                9.09800870               37.90024481                0.00010000               -1.18430015                0.81598006               -0.99226733               -1.03180937               24.19422150                0.66094797
              10.23590735                8.85967837               37.95748054                0.00010000               -1.47704534                0.91501907               -1.16014928               -1.64299503               25.31970275                1.15610070
              11.21964033                8.61678473               38.02595414                0.05909916               -1.45483260                0.86631645               -1.34935739               -2.30556283               25.96499736                2.27766378
              12.20681070                8.37981449               38.09040235                0.28788938               -0.49541611                0.19650122               -0.75094236               -1.68840750               13.05028879                2.08059977
              13.20973201                8.17650025               37.89714533                0.45445774                0.34765879                0.31384996               -1.14100229               -0.02578153                0.07844035                0.97306905
              14.21376387                7.97368398               37.70158465                0.86911074                0.40318637                0.49863891               -1.55103648                0.00779943               -0.01178730               -0.57802723
               4.49084714               11.22994218               38.04904990                1.00000000                0.10714218                0.03262443               -0.21457547                0.02083634                0.39261410                0.61955595
               5.49191856               11.01145160               37.86486651                0.81622760                0.14646383                0.13002720               -0.48794267                0.03974427                0.79859511               -0.52283194
               6.49377641               10.79238627               37.68865310                0.49518685                0.02062812                0.22079545               -0.77017802               -0.13159515               13.72451809               -0.97008688
               7.49233112               10.56938298               37.76277647                0.36913407               -0.31409729                0.56250682               -0.86639917               -0.18839299               26.08299095               -0.18335525
               8.48749447               10.33991610               37.82638360                0.35876663               -0.66866881                0.72012769               -0.99148314               -0.32442544               25.86297409                0.09753104
               9.47895775               10.10709224               37.89018414                0.37085806               -1.09533809                0.90835355               -1.14263002               -0.47571367               26.47976208                0.32026008
              10.46558771                9.87084881               37.96063078                0.40454020               -1.75874330                1.11704456               -1.30893270               -0.82680266               27.93840641                0.60912788
              11.44378288                9.63119547               38.04812722                0.55491673               -2.80587496                1.44107366               -1.63700407               -2.01013168               28.19377619                1.50081708
              12.40947021                9.38236108               38.11793324                0.67682720               -1.60531922                0.25465887               -0.84344763               -2.29881145               14.55311836                0.96660564
              13.41167650                9.17990022               37.93089914                0.74410630                0.31700608                0.33999681               -1.19647535                0.00655428                1.14851418                0.65956089
              14.41581033                8.97860319               37.73218746                0.93380485                0.41338337                0.49192154               -1.62010170                0.07494326                0.58841421               -0.57067529
               2.34486726                1.31290600               39.55546767                1.00000000               -0.35349770               -0.38452262                1.32554816               -0.06190930               -1.03809543                1.03017454
               3.34133228                1.07178980               39.43617125                1.00000000               -0.30615160               -0.29018933                1.03903255               -0.03741824               -1.37489546                0.15238425
               4.33874423                0.83020237               39.31023625                1.00000000               -0.20592864               -0.19854651                0.72957224               -0.04357004               -1.36375372               -0.20732770
               5.33721371                0.58812699               39.19113558                0.63805388               -0.02315332               -0.12487989                0.43039799               -0.13368708               -0.62126997               -0.93537558
               6.33828116                0.34375914               39.07992432                0.69828122                0.19880037               -0.12650392                0.04758057               -0.05531161               -0.19289626                0.27513886
               7.34118972                0.09813213               38.96949857                0.75602722                0.31252703                0.00780199               -0.23335774               -0.08449719               -0.22846485                0.14862844
               8.34453170               -0.14597274               38.85646434                0.74731263                0.36573833                0.08474308               -0.45144601               -0.05216928               -0.31236416               -0.07109517
               9.34850448               -0.38848316               38.74286752                0.84300278                0.37216140                0.15199776               -0.61078997               -0.07305730               -0.57093755                0.11299801
              10.35197493               -0.62948775               38.62319245                1.00000000                0.33483980                0.23584374               -0.81104708               -0.06817929               -0.97808591                0.64417939
              11.35520128               -0.86974209               38.50073691                1.00000000                0.34591847                0.32563402               -1.05740087               -0.04128574               -1.01782313                0.02896208
              12.35889330               -1.11011626               38.38001483                1.00000000                0.36920190                0.42095459               -1.33549520               -0.01827181               -0.92407005               -0.89882611
               2.58536436                2.30906077               39.50339159                1.00000000               -0.30544538               -0.37460205                1.17472130               -0.01300962               -0.18599537                1.40294505
               3.58230991                2.06888790               39.38398157                1.00000000               -0.26122174               -0.26926237                0.89132306                0.01117324               -0.26132225                0.21910255
               4.58013993                1.82821691               39.26312812                0.97919589               -0.16057287               -0.17136744                0.58295335               -0.00987341               -0.16869358               -0.45256496
               5.57909845                1.58687819               39.14547206                0.28368164                0.12927715               -0.09252174                0.27685924               -0.16704413                1.42133057               -1.27889286
               6.58272547                1.34249410               39.05609817                0.41022102                0.30561148               -0.09419631               -0.07394311               -0.03977683                2.40115812                0.87243082
               7.58521068                1.09821015               38.95515214                0.49398018                0.22960894                0.04529723               -0.33993562               -0.04955354                1.73013306                0.43645213
               8.58731765                0.85487469               38.85054840                0.42093060                0.21603652                0.13863546               -0.54344291               -0.02927806                1.75259848               -0.27228701
               9.58953141                0.61303682               38.74900427                0.51234469                0.23024737                0.20339626               -0.69424806               -0.05089223                1.78627837                0.48888813
              10.59192260                0.37287069               38.64446673                1.00000000                0.27856320                0.26091479               -0.90508109               -0.04087093                0.92349023                0.86428081
              11.59510268                0.13351425               38.52549010                1.00000000                0.35810763                0.33885717               -1.17513060                0.00272110                0.12753914                0.18321656
              12.59908475               -0.10590671               38.40502603                1.00000000                0.39820743                0.44206678               -1.45313227                0.02737931                0.05231203               -1.04915219
               2.82495280                3.30541395               39.45893244                1.00000000               -0.25531902               -0.35882457                1.03720143               -0.00751482                0.03738604                1.77307475
               3.82239961                3.06640455               39.33317855                1.00000000               -0.21981637               -0.22990831                0.75371206                0.01041580                0.21787398                0.22056736
               4.82055647                2.82677502               39.21107065                0.70078741               -0.14019886               -0.10548914                0.46867869               -0.03107574                0.59658816               -1.17627681
               5.81959563                2.58627655               39.09279815                0.00010000                0.27985956               -0.04704699                0.14319711               -0.23145757                4.28778581               -1.88938728
               6.82615366                2.34187521               39.04432261                0.00010000                0.41112108               -0.12956934               -0.27834463               -0.63412224                5.64421384               -1.01417538
               7.82781805                2.09903807               38.94643266                0.00010000                0.14829035               -0.05158091               -0.47403722               -0.62583358                2.86192626                0.01402786
               8.82911947                1.85679997               38.84048268                0.00010000                0.08362930               -0.00141426               -0.65279305               -0.57998578                3.89746218                0.81914301
               9.82949064                1.61558477               38.76263217                0.00010000                0.07803024                0.01728078               -0.78845931               -0.41462478                4.56448138                1.34463050
              10.83068007                1.37573055               38.67009489                0.40932668                0.22712326                0.25922596               -1.01495899               -0.17663623                2.59945798                1.78319068
              11.83403310                1.13703506               38.55326932                1.00000000                0.38013711                0.35128619               -1.29179031               -0.04716759                0.90532452                0.82860178
              12.83828282                0.89872508               38.42700478                1.00000000                0.42497123                0.48584741               -1.55606580                0.01718578                0.42590368               -0.99103372
               3.06323288                4.30188428               39.41441918                1.00000000               -0.20757214               -0.34190613                0.89872887               -0.01612017                0.12558753                1.63089026
               4.06115716                4.06428974               39.28104383                1.00000000               -0.17932347               -0.18588395                0.61658230               -0.00003300                0.21207337                0.02619985
               5.05964641                3.82610712               39.14941264                0.36916812               -0.08940236               -0.03864591                0.35082844               -0.09591125                1.14804289               -1.64355388
               6.05936911                3.58593725               39.03469216                0.00010000               -0.11824516                0.02445366                0.05221071               -0.44709308                5.17310194               -2.55274016
               7.05728151                3.33990271               38.98337023                0.00010000               -0.07999284               -0.07165512               -0.27458599               -1.15387983                8.05060905               -2.44022911
               8.05776925                3.09717853               38.92362588                0.00010000                0.09448682               -0.13637054               -0.55470982               -1.18945483                7.39268516               -0.31502232
               9.05917124                2.85484641               38.85611869                0.00010000                0.22695422               -0.17946836               -0.80114439               -1.19715449                6.97982927                1.78397555
              10.06230834                2.61338243               38.78577262                0.00010000                0.38841700               -0.20661034               -1.04648676               -0.76141791                6.65166815                2.21234928
              11.06693958                2.37805521               38.70979475                0.13094051                0.44282298               -0.15483712               -1.14424463               -0.32923223                4.29279399                3.22159557
              12.07116480                2.14053998               38.59095818                0.59955083                0.45544220                0.25391516               -1.45380465               -0.16420454                1.20957910                1.91895450
              13.07604843                1.90381024               38.45333656                0.99658436                0.48836292                0.54639128               -1.68219375               -0.06150874                0.25600747               -0.18380838
               3.29981948                5.29857583               39.36728039                1.00000000               -0.16433754               -0.30988863                0.74838888               -0.03178383                0.21080970                1.33506555
               4.29817610                5.06268687               39.22635212                0.77626373               -0.14143723               -0.12379250                0.46785669               -0.02787289                0.33076690               -0.33542421
               5.29699073                4.82600211               39.08782151                0.18483917               -0.06589617                0.03867187                0.20263816               -0.15967174                1.41182153               -1.83675043
               6.29685818                4.58676563               38.96845712                0.00010000               -0.25779747                0.12978892               -0.07173781               -0.69174875                7.09276763               -2.49728371
               7.29183478                4.34044211               38.94343832                0.00010000               -0.38864582                0.10648796               -0.33360954               -1.17892721               11.41616460               -0.82099486
               8.28908526                4.09631066               38.90818397                0.00010000               -0.14311539               -0.00990523               -0.63378605               -1.26583444               10.63398275                0.38810085
               9.28897248                3.85321060               38.86501574                0.00010000                0.09841073               -0.10273136               -0.94154588               -1.30433464               10.11051781                1.64251436
              10.29105348                3.61145256               38.81654083                0.00010000                0.39827049               -0.18494180               -1.27199910               -1.17217135                9.80673492                2.81677271
              11.29693789                3.37263381               38.76450549                0.10926259                0.69702553               -0.52111399               -1.74709255               -0.51017138                6.18240162                4.08056609
              12.30499399                3.14211336               38.64064917                0.47338616                0.67871196                0.09174040               -1.52087178                0.00122804                1.38451480                2.81217569
              13.31051213                2.90965290               38.49186349                0.89722704                0.55181373                0.59354098               -1.72890942               -0.07686674                0.14010149                0.71686009
               3.53437513                6.29568651               39.31701480                1.00000000               -0.12016998               -0.25796680                0.58711163               -0.03581728                0.12303905                1.04634078
               4.53317343                6.06181389               39.16693677                0.60262753               -0.10004543               -0.05434729                0.29125396               -0.04442730                0.38522554               -0.67873631
               5.53237422                5.82688056               39.02208797                0.10506056               -0.10396492                0.13739687                0.02364372               -0.22705885                2.33955953               -2.27132549
               6.53109413                5.58853303               38.91104322                0.00010000               -0.41081465                0.10899877               -0.06736288               -1.04343319                9.76934852               -0.22440139
               7.52415793                5.34203247               38.91455874                0.00010000               -0.57050281                0.18322335               -0.37296891               -1.46800830               14.70431921                0.20410930
               8.51968407                5.09698043               38.89969360                0.00010000               -0.31076357                0.11530257               -0.71579179               -1.47469785               13.58081443                1.01485251
               9.51794265                4.85279178               38.87810956                0.00010000               -0.01211826                0.00087358               -1.05769918               -1.51420688               13.17331686                2.05029125
              10.51944171                4.60968360               38.85226381                0.00010000                0.40663503               -0.15363507               -1.46418940               -1.49199003               12.89485063                3.26730866
              11.52607535                4.36763293               38.82192179                0.11388063                0.73642779               -0.45188447               -2.06619870               -0.63988883                8.14082192                4.66434200
              12.53417026                4.14237479               38.69702414                0.44024435                0.66783264                0.04540293               -1.41913727                0.06617184                1.77989844                2.92018125
              13.53943201                3.91568106               38.53740647                0.88179877                0.52617441                0.58396153               -1.63399599               -0.04502970                0.06872168                0.88533327
               3.76684837                7.29341650               39.26425030                1.00000000               -0.07548691               -0.19201306                0.41937616               -0.03072302                0.04473464                0.86057693
               4.76609350                7.06159992               39.10524990                0.51175950               -0.05589772                0.00143715                0.12318760               -0.03665055                0.30622461               -0.80930267
               5.76573042                6.82875004               38.95143814                0.06371603               -0.26279486                0.21106773               -0.16426184               -0.38576554                5.20615359               -2.61447011
               6.76083760                6.58894560               38.89036188                0.00010000               -0.58515982                0.07658813                0.09291164               -1.25357181               13.16547941                1.48278873
               7.75402722                6.34410658               38.89497481                0.00010000               -0.60028023                0.24352302               -0.44748086               -1.54954169               16.45327388                0.88744599
               8.74883200                6.09861672               38.89676542                0.00010000               -0.40210261                0.21500954               -0.79794617               -1.66547708               16.29884960                1.42960380
               9.74598517                5.85322808               38.89538000                0.00010000               -0.12297364                0.08224012               -1.13742850               -1.76045836               16.22003718                2.36262719
              10.74637253                5.60837986               38.89251041                0.00010000                0.27318778               -0.09880486               -1.52630074               -1.88238926               16.28306878                3.61601182
              11.75144892                5.36359612               38.88888940                0.13077265                0.59483869               -0.32702090               -2.07454164               -0.92738952                9.76639661                5.36275617
              12.75826930                5.14302142               38.75053056                0.42594106                0.57750347                0.09929445               -1.30143655                0.07322283                1.59336844                2.50760793
              13.76299899                4.92133213               38.58091216                0.87578083                0.47296918                0.55313466               -1.54438441               -0.02620820                0.05871685                0.52716708
               3.99739381                8.29184624               39.21038021                1.00000000               -0.02869407               -0.12280296                0.25319974               -0.02798544                0.01323369                0.79186295
               4.99710687                8.06184263               39.04305969                0.48081213               -0.00402905                0.04359780               -0.04066815               -0.01773532                0.14997488               -0.82053247
               5.99731323                7.83110192               38.87840700                0.04589735               -0.32203568                0.23570650               -0.34225964               -0.50960501                7.99970143               -2.70967722
               6.99066616                7.59006479               38.86799110                0.00010000               -0.69086255                0.24843648               -0.23834395               -1.19351862               16.92815165                0.67851895
               7.98349598                7.34690293               38.87968507                0.00010000               -0.67065611                0.36798575               -0.57288561               -1.45474866               18.43830126                0.97612379
               8.97725303                7.10128062               38.89643981                0.00010000               -0.52628175                0.35827284               -0.89273612               -1.75257897               18.93359204                1.51695441
               9.97297034                6.85443658               38.91463631                0.00010000               -0.29135773                0.19532787               -1.18124875               -2.01443319               19.31165295                2.41255357
              10.97142588                6.60770750               38.93531233                0.00010000               -0.00421702               -0.03451922               -1.45871109               -2.25785990               19.91087090                3.64158516
              11.97288600                6.36109251               38.96137920                0.16001022                0.32364125               -0.13996833               -1.74203953               -1.22646280               11.09763221                5.35519678
              12.97789870                6.14436067               38.79991423                0.42104313                0.47002058                0.17588548               -1.23768183                0.06145068                0.91990733                2.05564177
              13.98228642                5.92674375               38.62034688                0.87163077                0.43877102                0.53824213               -1.52552093               -0.00766008                0.04392790                0.08017054
               4.22629589                9.29096044               39.15631761                1.00000000                0.01872325               -0.05571935                0.08842450               -0.02593388               -0.00074009                0.79611675
               5.22648312                9.06247188               38.98097236                0.50108471                0.05101321                0.08167767               -0.20264243               -0.00469551               -0.01005474               -0.78678278
               6.22731615                8.83346417               38.80534630                0.03318862               -0.26584547                0.22949398               -0.50890083               -0.49805732               10.05479159               -2.46308450
               7.22116621                8.59391433               38.83115831                0.00010000               -0.67998679                0.45649233               -0.53963077               -1.03397288               20.52907498               -0.19532741
               8.21371642                8.35146629               38.86185084                0.00010000               -0.74597214                0.53924061               -0.75742999               -1.26772980               21.10341054                0.64700621
               9.20624677                8.10578217               38.89510702                0.00010000               -0.72233998                0.56844969               -1.00610901               -1.65101367               21.67007716                1.25024858
              10.19926962                7.85713463               38.93265751                0.00010000               -0.58436862                0.47670123               -1.24236535               -2.14654535               22.40088704                2.07067239
              11.19455940                7.60768947               38.97587137                0.00010000               -0.45015630                0.14316347               -1.34628054               -2.64659348               23.43559522                3.27825032
              12.19026649                7.36079675               39.02930288                0.20508614               -0.03561602                0.06269606               -1.21955501               -1.51701925               12.34615618                4.36433970
              13.19384708                7.14653913               38.84494213                0.42477581                0.39065748                0.26067348               -1.22011526                0.01678042                0.25236527                1.60675073
              14.19807964                6.93209698               38.65537221                0.86784335                0.42325647                0.52990876               -1.56405508                0.00321156                0.02113499               -0.37430085
               4.45385225               10.29073186               39.10256575                0.98856124                0.06569777                0.00710212               -0.07711368               -0.02514187               -0.01653626                0.71233789
               5.45450922               10.06347618               38.91927493                0.54211543                0.10286927                0.11971500               -0.36039629               -0.00345337                0.03052707               -0.64509797
               6.45590963                9.83569180               38.73680052                0.00346334               -0.12623233                0.22801859               -0.65981474               -0.40864869               11.91988915               -1.59568066
               7.45198458                9.59919464               38.79111081                0.00010000               -0.48180448                0.49883210               -0.76202040               -0.67046662               23.71788171               -0.24459980
               8.44627354                9.35768775               38.84011084                0.00010000               -0.67100780                0.63854770               -0.93905012               -0.81275451               23.75346462                0.28601759
               9.43856442                9.11264961               38.88959879                0.00010000               -0.90707039                0.77067851               -1.14146925               -1.07857687               24.35094608                0.70077652
              10.42813213                8.86397061               38.94493923                0.00010000               -1.18662651                0.87626176               -1.34864048               -1.66617022               25.48806648                1.22501581
              11.41483189                8.61057077               39.01124680                0.04931664               -1.22180857                0.86022231               -1.56313286               -2.34192554               26.58273148                2.20512861
              12.40369596                8.36234643               39.08238858                0.27306060               -0.39489014                0.22164639               -0.87482864               -1.77099487               13.59110053                2.31843255
              13.40693409                8.14957414               38.88535327                0.43621002                0.37694941                0.33311727               -1.22558387               -0.02911574                0.08630947                1.03530459
              14.41123495                7.93734192               38.68567164                0.85633672                0.43008630                0.52158418               -1.64016817                0.00581951               -0.01620785               -0.61030753
               4.68030440               11.29110248               39.04680350                1.00000000                0.11497158                0.03706220               -0.23460860                0.02158554                0.38847572                0.61597266
               5.68145412               11.06486618               38.85984015                0.81578835                0.15601628                0.13899970               -0.51879503                0.04059250                0.79076248               -0.52242920
               6.68342473               10.83802454               38.68076309                0.49369771                0.21534067                0.23327485               -0.81163321               -0.29725085               13.79923562               -0.95658275
               7.68576093               10.60389097               38.75373246                0.36922123                0.02908136                0.46963365               -0.94612457               -0.31172957               26.25015134               -0.20649641
               8.68400635               10.36423725               38.81589492                0.35889238               -0.36842793                0.65495014               -1.11000611               -0.36148042               26.02420704                0.09433365
               9.67839237               10.12119574               38.87798068                0.37062375               -0.79906494                0.85461305               -1.30215523               -0.49607396               26.65044907                0.33736789
              10.66802506                9.87465987               38.94654880                0.40362071               -1.45236555                1.06892607               -1.50536948               -0.82579905               28.05661867                0.63561656
              11.64934506                9.62489392               39.03026757                0.55022834               -2.60909166                1.43231493               -1.86922737               -2.02019250               28.90065247                1.35956881
              12.61584322                9.36522968               39.10900562                0.67000868               -1.55378938                0.28832453               -0.96176785               -2.36989644               15.28653803                1.03760487
              13.61826927                9.15320147               38.91858261                0.73502452                0.34086259                0.36273300               -1.27548355               -0.00153252                1.21989731                0.70217686
              14.62266047                8.94252866               38.71555333                0.92716231                0.43912006                0.51867359               -1.71663718                0.07527076                0.61833292               -0.60094631
               2.45508925                1.37610952               40.56885574                1.00000000               -0.35947678               -0.39409797                1.35791043               -0.06545943               -1.06354206                1.04560659
               3.45149448                1.12628149               40.44660625                1.00000000               -0.30865386               -0.29338148                1.05044999               -0.03991732               -1.41485503                0.16084705
               4.44891617                0.87596719               40.31747676                1.00000000               -0.20212953               -0.19639566                0.71783057               -0.04519150               -1.41171657               -0.20753630
               5.44745189                0.62511563               40.19528681                0.64335701               -0.02298917               -0.11749590                0.39461461               -0.18040772               -0.71289928               -0.95296466
               6.44845639                0.37091061               40.08002672                0.70018182                0.22545647               -0.12917172               -0.03519108               -0.05321510               -0.28270928                0.26770089
               7.45196102                0.11443464               39.96669296                0.75193399                0.38368357                0.01664647               -0.33902251               -0.09125043               -0.21660086                0.13317662
               8.45613006               -0.14036461               39.85151670                0.74015547                0.44876969                0.09313943               -0.55034588               -0.05345080               -0.21041819               -0.08689373
               9.46093642               -0.39307037               39.73649921                0.83684862                0.43389261                0.15414403               -0.67046577               -0.07780705               -0.43471634                0.10997381
              10.46480791               -0.64379857               39.61493968                1.00000000                0.36177229                0.23846362               -0.84292431               -0.07002474               -0.88237830                0.65192600
              11.46817186               -0.89356378               39.49005838                1.00000000                0.35669586                0.32839776               -1.08012454               -0.04094225               -0.96421908                0.03739974
              12.47194183               -1.14334227               39.36657232                1.00000000                0.37699695                0.42196195               -1.35418018               -0.02181531               -0.88639813               -0.86223929
               2.70426269                2.37216854               40.51524772                1.00000000               -0.30962117               -0.38395479                1.20181097               -0.01343400               -0.19926992                1.42195393
               3.70116648                2.12334768               40.39291597                1.00000000               -0.26077501               -0.27171105                0.89760890                0.01104382               -0.28994086                0.23114031
               4.69904719                1.87400323               40.26887562                0.99453062               -0.14951857               -0.16826452                0.56532950               -0.01167090               -0.20831286               -0.43562249
               5.69817611                1.62394067               40.14807274                0.29294932                0.21087725               -0.08285122                0.24153910               -0.22936685                1.35964403               -1.28188413
               6.70326473                1.36961889               40.05504685                0.41371173                0.42550093               -0.11085797               -0.14453911               -0.03155451                2.36214917                0.82547088
               7.70668613                1.11460111               39.95137630                0.49280629                0.30416623                0.05164929               -0.42706417               -0.06126132                1.77817402                0.41004676
               8.70934806                0.86056679               39.84479603                0.42143126                0.25945998                0.15237786               -0.61983055               -0.04122878                1.87592971               -0.29604873
               9.71187533                0.60847107               39.74193672                0.51214380                0.25031565                0.20848258               -0.72625006               -0.06086289                1.90914322                0.48019440
              10.71435437                0.35858607               39.63540124                1.00000000                0.28294840                0.26055719               -0.90644809               -0.04338338                0.97699025                0.86399259
              11.71753429                0.10972020               39.51374400                1.00000000                0.35738999                0.33851915               -1.17177231                0.00317580                0.14151548                0.19191901
              12.72150217               -0.13912265               39.39051497                1.00000000                0.39678791                0.43780268               -1.44606530                0.02357665                0.06066431               -1.00495890
               2.95246231                3.36843043               40.46939589                1.00000000               -0.25816347               -0.36786904                1.06005687               -0.00772541                0.03093326                1.79583263
               3.94988067                3.12084727               40.34071581                1.00000000               -0.21862730               -0.23083258                0.75548181                0.00955820                0.20792983                0.23719508
               4.94808976                2.87260190               40.21565850                0.71899961               -0.13158870               -0.09849072                0.44418481               -0.03605373                0.56573932               -1.14315715
               5.94724890                2.62345861               40.09404503                0.00010000                0.45375526               -0.03351816                0.09701000               -0.32577889                4.18830041               -1.85761798
               6.95716487                2.36869345               40.04120016                0.00010000                0.62695002               -0.15075965               -0.35604919               -0.82363808                5.61009627               -0.99970460
               7.95978790                2.11546763               39.94134359                0.00010000                0.21353272               -0.04180012               -0.55921787               -0.79615294                2.96839671                0.00433203
               8.96143552                1.86268295               39.83365600                0.00010000                0.09559878                0.02228613               -0.73139434               -0.71999996                4.04955344                0.77293054
               9.96169987                1.61109928               39.75470252                0.00010000                0.06277994                0.03271450               -0.80773405               -0.49105090                4.67959368                1.24108762
              10.96269112                1.36141258               39.66004685                0.40145739                0.21221134                0.24774115               -0.98812097               -0.18896859                2.62004930                1.76448919
              11.96594410                1.11320660               39.54046920                1.00000000                0.37039741                0.34512366               -1.26196210               -0.04381289                0.89652886                0.81278689
              12.97009907                0.86541378               39.41159024                1.00000000                0.41549665                0.46998488               -1.52012385                0.01430074                0.42002145               -0.95307583
               3.19927450                4.36481116               40.42347955                1.00000000               -0.20883256               -0.35078890                0.91715350               -0.01655112                0.12664240                1.64526650
               4.19718617                4.11873102               40.28719531                1.00000000               -0.17798595               -0.18473067                0.61397311               -0.00072095                0.21997995                0.03716487
               5.19571478                3.87203342               40.15282205                0.36804317               -0.08085963               -0.02798949                0.32890245               -0.10296978                1.14762532               -1.62695410
               6.19556898                3.62327031               40.03500216                0.00010000               -0.04659135                0.04221557                0.00449775               -0.56114704                5.14599466               -2.51548669
               7.19478295                3.36660370               39.98031643                0.00010000                0.06022923               -0.06709031               -0.34411244               -1.45282384                8.04015864               -2.33373085
               8.19677356                3.11376510               39.91771724                0.00010000                0.22667259               -0.13137545               -0.63625362               -1.46315278                7.42501266               -0.27660563
               9.19931640                2.86101251               39.84777204                0.00010000                0.32755570               -0.16913361               -0.87520513               -1.43634624                7.02922400                1.74689349
              10.20332468                2.60912536               39.77508685                0.00010000                0.45756375               -0.20396754               -1.09119387               -0.92173340                6.77753224                2.05849692
              11.20846768                2.36354089               39.69860015                0.11777741                0.46660766               -0.17072713               -1.08771969               -0.36893184                4.34678903                2.90615816
              12.21265683                2.11662267               39.57667230                0.57277067                0.44530767                0.22602806               -1.39533093               -0.15176777                1.17108658                1.91813889
              13.21737383                1.87027705               39.43678614                0.98041193                0.47170009                0.50080605               -1.61890900               -0.05485546                0.25382171               -0.12247563
               3.44429156                5.36141465               40.37481734                1.00000000               -0.16475631               -0.31829692                0.76184531               -0.03308161                0.21879375                1.33679432
               4.44264400                5.11715266               40.23099982                0.76172316               -0.14002403               -0.11918013                0.46168577               -0.03106627                0.34596741               -0.34501373
               5.44149108                4.87204211               40.08974412                0.17951191               -0.05941602                0.05468441                0.17772038               -0.17011529                1.43058973               -1.85329085
               6.44145568                4.62430292               39.96753051                0.00010000               -0.19387438                0.13956746               -0.11940212               -0.81349258                7.11977791               -2.40571387
               7.43761359                4.36735164               39.93980713                0.00010000               -0.26698242                0.12211239               -0.39784484               -1.39382043               11.43211901               -0.72481020
               8.43611603                4.11284012               39.90145787                0.00010000               -0.01326283               -0.00970187               -0.71639424               -1.48043758               10.62689327                0.44223734
               9.43734834                3.85930028               39.85515521                0.00010000                0.23103959               -0.10991987               -1.03061666               -1.51424726               10.08407012                1.63583497
              10.44073682                3.60701993               39.80336377                0.00010000                0.52334173               -0.20378642               -1.35197098               -1.33841232                9.67621515                2.70868354
              11.44781517                3.35799804               39.74654623                0.09704484                0.77178860               -0.53430502               -1.82017006               -0.57685754                6.31532366                3.66822061
              12.45617259                3.11772717               39.62573743                0.44865814                0.69390202                0.02450899               -1.44839780                0.00049296                1.63369976                2.91268168
              13.46169321                2.87542990               39.47495183                0.88301761                0.55206185                0.50807978               -1.64293873               -0.06308092                0.13427324                0.85559062
               3.68713685                6.35844522               40.32291878                1.00000000               -0.11994636               -0.26498666                0.59573056               -0.03654171                0.11838185                1.03786939
               4.68593739                6.11634742               40.16978933                0.59082489               -0.09873201               -0.04671688                0.27949402               -0.04711463                0.39374904               -0.69705154
               5.68516221                5.87312711               40.02216615                0.09869486               -0.09738969                0.15853887               -0.00912904               -0.25387119                2.46128418               -2.30473221
               6.68398960                5.62606166               39.91031630                0.00010000               -0.33964348                0.08683597               -0.08125426               -1.16385760                9.86355601                0.00871774
               7.67836934                5.36904594               39.91052814                0.00010000               -0.43867094                0.19250246               -0.43862619               -1.66077163               14.67041736                0.29701681
               8.67521618                5.11357107               39.89208990                0.00010000               -0.17588491                0.12427461               -0.80714584               -1.66083327               13.53487202                1.07673584
               9.67485164                4.85881411               39.86695230                0.00010000                0.13212487                0.00229064               -1.17037262               -1.70549623               13.08470722                2.08297074
              10.67785867                4.60504963               39.83684543                0.00010000                0.56858250               -0.16447880               -1.60379929               -1.64599821               12.64653834                3.24916775
              11.68622329                4.35285479               39.80015787                0.10135362                0.86880748               -0.48411049               -2.23708220               -0.72483633                8.42645329                4.58659206
              12.69523482                4.11711285               39.68286747                0.41759128                0.72417225               -0.03221943               -1.39031473                0.03803400                2.25180258                3.09204388
              13.70070674                3.88043864               39.52124830                0.86821126                0.54719161                0.49707288               -1.58289841               -0.03493899                0.05469111                1.03611489
               3.92775633                7.35611492               40.26845090                1.00000000               -0.07365084               -0.19716863                0.42259987               -0.03130861                0.04202195                0.84842817
               4.92701983                7.11621832               40.10641022                0.50179879               -0.05284559                0.01036448                0.10799843               -0.03950970                0.30752531               -0.81962663
               5.92669942                6.87521289               39.94964975                0.06007787               -0.23800688                0.23543353               -0.19700582               -0.45183788                5.48816458               -2.64020643
               6.92225969                6.62603964               39.89114540                0.00010000               -0.49053345                0.06003807                0.05526629               -1.35565010               13.32348000                1.53072428
               7.91688875                6.37120169               39.89014261                0.00010000               -0.45642454                0.25086329               -0.52479450               -1.69350750               16.30639289                0.94282247
               8.91313120                6.11532561               39.88825792                0.00010000               -0.25644537                0.22807841               -0.90405185               -1.82108045               16.24936542                1.49381995
               9.91175985                5.85934609               39.88327751                0.00010000                0.03224896                0.09806235               -1.27963212               -1.91680670               16.13029931                2.44163886
              10.91377618                5.60373036               39.87618290                0.00010000                0.47476906               -0.08936743               -1.72877164               -2.02029131               16.03710768                3.74176795
              11.92125523                5.34831583               39.86632673                0.11693380                0.77866250               -0.38060836               -2.40750013               -1.00102039               10.15174236                5.64416547
              12.92934943                5.11708278               39.73731783                0.40547844                0.65438142                0.05081238               -1.32535040                0.04204136                2.16701036                2.66151899
              13.93434286                4.88537136               39.56542605                0.86309910                0.49934288                0.50112909               -1.54519909               -0.02134051                0.04803025                0.60425962
               4.16630388                8.35450185               40.21289618                1.00000000               -0.02546494               -0.12593196                0.25140594               -0.02863666                0.01197612                0.78046149
               5.16604923                8.11655471               40.04256096                0.47297653                0.00001306                0.05313681               -0.06024459               -0.01868538                0.14477876               -0.82691372
               6.16630414                7.87783578               39.87481984                0.04246556               -0.25807190                0.26146071               -0.37859424               -0.58855182                8.18440241               -2.72193415
               7.16088779                7.62726242               39.86517003                0.00010000               -0.55454588                0.25957949               -0.32543022               -1.31549618               17.11319743                0.51910334
               8.15521322                7.37406321               39.87352281                0.00010000               -0.51188105                0.36964580               -0.66310468               -1.58300891               18.42104595                0.98309089
               9.15065017                7.11813263               39.88689378                0.00010000               -0.35512275                0.36465096               -1.01674102               -1.86333483               18.92539616                1.57715386
              10.14811076                6.86077536               39.90196963                0.00010000               -0.10835277                0.21564355               -1.35139370               -2.10765845               19.29851905                2.52124348
              11.14848311                6.60326228               39.91948275                0.00010000                0.23698505               -0.01153399               -1.71011579               -2.36060578               19.83842198                3.88813084
              12.15285047                6.34524263               39.94186409                0.14412853                0.52685020               -0.18036775               -2.19600693               -1.27910862               11.50450854                5.97118584
              13.15902012                6.11812910               39.78719421                0.40213063                0.54261485                0.16182070               -1.30166645                0.04543778                1.39348565                2.16717206
              14.16370276                5.89046122               39.60486822                0.85961916                0.46826466                0.52241356               -1.57291422               -0.00471371                0.04092809                0.07800555
               4.40307788                9.35359628               40.15716075                1.00000000                0.02343115               -0.05625231                0.08107426               -0.02676039               -0.00170407                0.78397551
               5.40331219                9.11728105               39.97883342                0.49569262                0.05713980                0.09134372               -0.22622564               -0.00422299               -0.01844015               -0.78883449
               6.40422068                8.88044210               39.80007708                0.03003243               -0.17949315                0.25060708               -0.54860147               -0.58670021               10.17344738               -2.45825608
               7.39972233                8.63123123               39.82542303                0.00010000               -0.49311594                0.45146720               -0.61174850               -1.18540031               20.70153829               -0.28543227
               8.39435836                8.37859461               39.85374980                0.00010000               -0.52849896                0.51639445               -0.86403932               -1.38255775               21.17571356                0.63325468
               9.38915235                8.12261863               39.88434455                0.00010000               -0.49406667                0.55089694               -1.14684678               -1.71070210               21.73409929                1.30151948
              10.38447703                7.86365896               39.91931528                0.00010000               -0.35277790                0.47560157               -1.42669259               -2.16045247               22.52235054                2.17352885
              11.38209679                7.60349968               39.96120498                0.00010000               -0.18353933                0.16144109               -1.60307475               -2.67939985               23.71550002                3.43873796
              12.38080624                7.34470847               40.01562882                0.18733127                0.14713958                0.06188903               -1.57991219               -1.57523547               12.76140957                5.03239057
              13.38503959                7.12031919               39.83230392                0.40641559                0.43890477                0.27183787               -1.31180331                0.01330907                0.47193283                1.69447107
              14.38958434                6.89581963               39.63935619                0.85589892                0.45447497                0.54177403               -1.64921507                0.00505396                0.02471482               -0.42448319
               4.63839911               10.35337681               40.10172457                0.98423671                0.07198317                0.00949330               -0.08995248               -0.02624854               -0.01441289                0.70286789
               5.63911894               10.11838159               39.91553554                0.53880023                0.11104243                0.12957674               -0.38912043               -0.00334345                0.02492704               -0.64430718
               6.64061996                9.88284792               39.73000505                0.00114760               -0.00458344                0.24436843               -0.70360545               -0.52208456               12.00072228               -1.58111944
               7.63902728                9.63629176               39.78310977                0.00010000               -0.22226497                0.43892620               -0.84117483               -0.79884166               23.87090283               -0.28208218
               8.63617466                9.38439110               39.83015146                0.00010000               -0.38277528                0.58200026               -1.05413032               -0.88845800               23.87133192                0.28101373
               9.63137177                9.12915057               39.87741543                0.00010000               -0.60769969                0.72285945               -1.29626338               -1.09716061               24.46807913                0.73363820
              10.62402067                8.87028739               39.93050773                0.00010000               -0.87630823                0.83415186               -1.53766264               -1.63516505               25.62336009                1.29190069
              11.61384561                8.60649111               39.99469149                0.03620118               -0.97472134                0.84228172               -1.73149196               -2.32823319               27.19356785                2.17401397
              12.60452624                8.34648041               40.07290577                0.25502696               -0.28352345                0.25853203               -1.05915265               -1.84227831               14.17679306                2.65960668
              13.60817514                8.12356586               39.87263366                0.41820702                0.41383596                0.35829353               -1.32871913               -0.03482824                0.12290486                1.10183242
              14.61280296                7.90129670               39.66878129                0.84391303                0.46278241                0.55006276               -1.75130162                0.00564517               -0.01937261               -0.66943462
               4.87254335               11.35378614               40.04435772                1.00000000                0.12308612                0.04093376               -0.25393163                0.02306857                0.38279195                0.60996585
               5.87377421               11.11987259               39.85449061                0.81506584                0.16627290                0.14910041               -0.55331679                0.04269311                0.78108636               -0.52080653
               6.87586881               10.88532947               39.67242044                0.49201091                0.42140518                0.24815503               -0.86118848               -0.46825709               13.85956772               -0.94034239
               7.88220232               10.64000975               39.74385398                0.36929152                0.39307897                0.37179877               -1.03174134               -0.43723871               26.38993851               -0.22952756
               8.88373039               10.39023461               39.80418347                0.35901010               -0.04447344                0.58435126               -1.23313290               -0.39112384               26.15074995                0.08990770
               9.88131285               10.13707582               39.86414104                0.37040161               -0.46485988                0.79252453               -1.46648303               -0.50052283               26.77824743                0.35241634
              10.87443319                9.88034200               39.93052339                0.40268447               -1.09868672                1.00546083               -1.70009506               -0.79527300               28.14980848                0.66844243
              11.85933911                9.62034531               40.01074267                0.54320641               -2.37736344                1.38542042               -1.98316725               -1.97379352               29.60151469                1.24330851
              12.82688592                9.34987911               40.09869788                0.66095303               -1.49061951                0.33987050               -1.13036481               -2.40704427               16.08157329                1.15105101
              13.82952672                9.12748506               39.90538947                0.72605506                0.36748113                0.39192047               -1.37507114               -0.01775249                1.32717146                0.75642362
              14.83423555                8.90682089               39.69785472                0.92066161                0.47088221                0.55241838               -1.83784516                0.07684107                0.65188692               -0.64837120
               2.56809541                1.44103417               41.58262588                1.00000000               -0.36812443               -0.40744682                1.40328057               -0.06998238               -1.09267518                1.06285426
               3.56441417                1.18238729               41.45718025                1.00000000               -0.31330387               -0.29861502                1.06776149               -0.04210945               -1.46056569                0.16964921
               4.56182933                0.92325392               41.32459286                1.00000000               -0.20042013               -0.19312055                0.70428142               -0.04581596               -1.46935425               -0.21015372
               5.56040576                0.66349583               41.19902788                0.64952700               -0.03042567               -0.10135510                0.34778056               -0.23761779               -0.82874013               -0.96849146
               6.56122082                0.39907289               41.07922050                0.70408172                0.24809756               -0.12428208               -0.13309081               -0.05893557               -0.40448391                0.25828674
               7.56536771                0.13142898               40.96271812                0.74971507                0.46481345                0.03314827               -0.46682369               -0.10138082               -0.21520267                0.11261052
               8.57051709               -0.13426927               40.84545743                0.73284067                0.55097325                0.10836823               -0.67501877               -0.05350926               -0.08662900               -0.11237091
               9.57638718               -0.39715870               40.72945820                0.82819956                0.51255490                0.15960899               -0.74706177               -0.08296645               -0.26123262                0.09947502
              10.58076819               -0.65737236               40.60633396                1.00000000                0.39485376                0.24157291               -0.88065849               -0.07163852               -0.76366467                0.66164710
              11.58428425               -0.91636533               40.47913442                1.00000000                0.36846414                0.33071470               -1.10565335               -0.04019818               -0.90214413                0.04619695
              12.58813747               -1.17524634               40.35293123                1.00000000                0.38532145                0.42225295               -1.37455434               -0.02623711               -0.84396086               -0.82207867
               2.82604247                2.43695970               41.52742781                1.00000000               -0.31592724               -0.39676972                1.24076676               -0.01404648               -0.21428126                1.44232436
               3.82288320                2.17940114               41.40193375                1.00000000               -0.26127828               -0.27590904                0.90827195                0.01222223               -0.32220329                0.24361472
               4.82081690                1.92132272               41.27443471                1.00000000               -0.13815469               -0.16442391                0.54769443               -0.01030765               -0.24908370               -0.42296136
               5.82012010                1.66248228               41.15030284                0.30404612                0.29239941               -0.06505306                0.20310879               -0.30392205                1.28960902               -1.29223814
               6.82666489                1.39783007               41.05320739                0.41964305                0.54524418               -0.12306745               -0.23361332               -0.04428025                2.30680628                0.76990990
               7.83102499                1.13176046               40.94661085                0.49343232                0.38054710                0.06774009               -0.54068789               -0.08266107                1.82915617                0.37166305
               8.83427583                0.86681442               40.83815179                0.42135471                0.30420380                0.17759194               -0.72582152               -0.05442770                2.03421759               -0.34162022
               9.83710906                0.60443739               40.73447927                0.50826605                0.26896420                0.22075404               -0.77509501               -0.07332804                2.07807682                0.45634597
              10.83965512                0.34504337               40.62633777                1.00000000                0.28551010                0.25968951               -0.90443757               -0.04746890                1.05113597                0.86437092
              11.84281926                0.08694182               40.50205465                1.00000000                0.35504973                0.33639103               -1.16344672                0.00344287                0.15769116                0.20105618
              12.84675611               -0.17102381               40.37610473                1.00000000                0.39368482                0.43193641               -1.43284218                0.01862181                0.07011819               -0.95579556
               3.08293161                3.43309878               41.48013358                1.00000000               -0.26360118               -0.37957746                1.09293477               -0.00837980                0.02404710                1.81924625
               4.08029560                3.17686911               41.34828819                1.00000000               -0.21947844               -0.23260556                0.76054958                0.00988635                0.19345269                0.25356833
               5.07854204                2.91996545               41.21995435                0.73806456               -0.12378129               -0.09201480                0.41384453               -0.03495885                0.52936324               -1.10884250
               6.07781997                2.66219477               41.09473835                0.00010000                0.62574978               -0.01701211                0.03741858               -0.43396895                4.08260819               -1.83279254
               7.09105703                2.39661154               41.03720162                0.00010000                0.84550889               -0.16044687               -0.45814166               -1.03531398                5.56751545               -0.99127760
               8.09473015                2.13278378               40.93524830                0.00010000                0.28472833               -0.01141650               -0.68207965               -0.97700284                3.08343994               -0.01603440
               9.09675160                1.86928257               40.82585479                0.00010000                0.09807583                0.07353291               -0.85501852               -0.87085585                4.25128928                0.70814929
              10.09669167                1.60725638               40.74647749                0.00010000                0.02813907                0.07268670               -0.85318171               -0.57696649                4.86569080                1.10733740
              11.09731438                1.34782143               40.65033247                0.39096366                0.18643137                0.23178116               -0.94819706               -0.21295497                2.66734384                1.74395078
              12.10042029                1.09036249               40.52803008                1.00000000                0.35633922                0.33463517               -1.21987243               -0.04238848                0.88573692                0.79821798
              13.10444117                0.83339239               40.39660230                1.00000000                0.40208747                0.45114711               -1.47109060                0.01004347                0.41392861               -0.90959274
               3.33833421                4.42936816               41.43276225                1.00000000               -0.21199531               -0.36131427                0.94363032               -0.01697326                0.12669841                1.65904617
               4.33621425                4.17474903               41.29332330                1.00000000               -0.17710717               -0.18382685                0.61227290               -0.00063265                0.22800163                0.04820950
               5.33479206                3.91948242               41.15599069                0.36669937               -0.07098141               -0.01866298                0.30095174               -0.10385958                1.14467399               -1.60558587
               6.33479463                3.66214204               41.03478211                0.00010000                0.02887690                0.05712208               -0.05526896               -0.67452679                5.11134487               -2.47058091
               7.33536960                3.39462113               40.97648798                0.00010000                0.20096363               -0.04386706               -0.43300838               -1.75585716                8.02946080               -2.21606004
               8.33881390                3.13153213               40.91090081                0.00010000                0.35082544               -0.10005167               -0.74063620               -1.73955791                7.47149486               -0.23425054
               9.34238611                2.86828507               40.83861459                0.00010000                0.41084871               -0.12677632               -0.96851508               -1.68223097                7.11191346                1.70756929
              10.34703087                2.60589113               40.76394874                0.00010000                0.49518990               -0.16943677               -1.14061146               -1.10554955                6.97879994                1.87320837
              11.35228991                2.34967899               40.68804036                0.10462500                0.46848315               -0.16904670               -1.01620538               -0.43501469                4.44657151                2.51609735
              12.35640054                2.09363452               40.56305157                0.54484077                0.43036417                0.19046676               -1.32056727               -0.14188852                1.12765260                1.91418222
              13.36089719                1.83799913               40.42095838                0.96148145                0.44966561                0.44550838               -1.53720419               -0.04715793                0.24746989               -0.05938984
               3.59183039                5.42587249               41.38251730                1.00000000               -0.16617183               -0.32789111                0.78151753               -0.03461976                0.22712519                1.33746591
               4.59016868                5.17319257               41.23558583                0.74925934               -0.13792781               -0.11432885                0.45487213               -0.03467655                0.36109714               -0.35390016
               5.58907184                4.91959219               41.09137592                0.17317122               -0.04889759                0.06989323                0.14343075               -0.17872443                1.44833039               -1.86827632
               6.58919072                4.66333721               40.96606907                0.00010000               -0.12610190                0.14752285               -0.17927268               -0.93246725                7.14372223               -2.28276619
               7.58654980                4.39573420               40.93548142                0.00010000               -0.14578371                0.15080996               -0.47535944               -1.60657003               11.45275544               -0.61951101
               8.58627505                4.13078275               40.89385609                0.00010000                0.10990925                0.00914813               -0.81109079               -1.69218506               10.63012429                0.50199044
               9.58874799                3.86674705               40.84440340                0.00010000                0.34558527               -0.09780915               -1.12200040               -1.72099698               10.08291116                1.62068271
              10.59318676                3.60386765               40.78950141                0.00010000                0.60613547               -0.20216528               -1.41084020               -1.50852619                9.57559002                2.56009234
              11.60087069                3.34444050               40.72810209                0.08512273                0.80378141               -0.50473610               -1.84455613               -0.67016745                6.52821239                3.14527589
              12.60926238                3.09417183               40.61168122                0.42400042                0.69490492               -0.04996284               -1.35252982               -0.02112963                1.94420385                2.97912284
              13.61476879                2.84230255               40.45900472                0.86750024                0.55064091                0.39650017               -1.53634639               -0.04357838                0.12931092                0.96645630
               3.84300165                6.42281033               41.32892942                1.00000000               -0.12006217               -0.27324207                0.60882014               -0.03779953                0.11349630                1.02862603
               4.84180103                6.17246245               41.17252665                0.57829689               -0.09643579               -0.03784036                0.26744709               -0.05267794                0.40188657               -0.71459707
               5.84107294                5.92088029               41.02190539                0.09156841               -0.08988816                0.18500189               -0.04551514               -0.28416302                2.60237066               -2.33506345
               6.84000327                5.66509250               40.90941814                0.00010000               -0.26401339                0.06845722               -0.10206879               -1.28096681                9.96721972                0.25279862
               7.83579267                5.39763733               40.90578622                0.00010000               -0.30229565                0.21170742               -0.51574566               -1.84423271               14.62486009                0.39253338
               8.83395735                5.13171509               40.88355068                0.00010000               -0.04556996                0.14532439               -0.90318144               -1.84495454               13.49533469                1.14046014
               9.83488127                4.86632889               40.85470210                0.00010000                0.26047726                0.01482348               -1.27552798               -1.89745391               13.00546445                2.10226601
              10.83916690                4.60184782               40.82018782                0.00010000                0.68505560               -0.16448768               -1.70820935               -1.79329590               12.41203927                3.17783042
              11.84858238                4.33958427               40.77718014                0.08916619                0.94744930               -0.48336429               -2.30263196               -0.83672058                8.80642279                4.37412831
              12.85811589                4.09263527               40.66921784                0.39545513                0.75908954               -0.11233825               -1.32602444               -0.02036644                2.80279426                3.19669764
              13.86376417                3.84592913               40.50574850                0.85421129                0.56482868                0.37474241               -1.50846087               -0.02189499                0.04436904                1.12247874
               4.09177016                7.42040765               41.27270230                1.00000000               -0.07250016               -0.20323552                0.42966566               -0.03208181                0.03922967                0.83581292
               5.09104516                7.17243577               41.10740987                0.49109968               -0.05058152                0.02093552                0.09085183               -0.04188355                0.30913862               -0.82855310
               6.09075853                6.92329222               40.94749802                0.05559085               -0.21154100                0.26778075               -0.23794954               -0.52050687                5.77629979               -2.66119844
               7.08681434                6.66470636               40.89146721                0.00010000               -0.38579926                0.05383643               -0.01381111               -1.45500041               13.50087546                1.55636396
               8.08304255                6.39996835               40.88447892                0.00010000               -0.30649708                0.26601144               -0.60790479               -1.83083235               16.15885122                0.99767881
               9.08068440                6.13368923               40.87868438                0.00010000               -0.11881854                0.25109897               -1.01031126               -1.97840247               16.20052994                1.55341716
              10.08066618                5.86704351               40.86978736                0.00010000                0.16905282                0.12473948               -1.41164497               -2.08204274               16.02956862                2.50045778
              11.08406546                5.60057790               40.85793498                0.00010000                0.63413305               -0.06998911               -1.90059162               -2.15686698               15.74310516                3.81164155
              12.09334884                5.33477321               40.84073940                0.10331038                0.92223665               -0.41850612               -2.64623193               -1.09852464               10.64342039                5.74878533
              13.10251019                5.09192506               40.72402355                0.38556385                0.71971588                0.00413776               -1.32321951               -0.01637051                2.88116378                2.75092025
              14.10774316                4.84979740               40.55000818                0.85051976                0.52329658                0.42222932               -1.53723624               -0.01312741                0.03961318                0.61030826
               4.33830379                8.41874562               41.21540832                1.00000000               -0.02250001               -0.12980466                0.25263949               -0.02913000                0.01056279                0.76854401
               5.33807879                8.17288116               41.04185479                0.46443366                0.00442104                0.06424223               -0.08244070               -0.01784432                0.14009569               -0.83153712
               6.33839221                7.92623590               40.87083512                0.03817524               -0.19258264                0.29108108               -0.42249318               -0.66374915                8.35671187               -2.72950909
               7.33422713                7.66616922               40.86148249                0.00010000               -0.40995316                0.27797951               -0.40840072               -1.42842128               17.28806028                0.35330654
               8.33019314                7.40295756               40.86642298                0.00010000               -0.34564973                0.37671984               -0.76012083               -1.70827642               18.40967727                0.98727313
               9.32731414                7.13673707               40.87610499                0.00010000               -0.19206954                0.38008397               -1.13845829               -1.97275071               18.90627313                1.62616327
              10.32635175                6.86882368               40.88760844                0.00010000                0.04928627                0.25117968               -1.51471817               -2.20495060               19.24967737                2.60892736
              11.32829986                6.60044804               40.90111002                0.00010000                0.44564837                0.03388025               -1.95573833               -2.45595616               19.63649116                4.09412379
              12.33526472                6.33121415               40.91745907                0.12811874                0.72322089               -0.21851660               -2.68062854               -1.33415603               12.01570985                6.54489095
              13.34276428                6.09271802               40.77388090                0.38368695                0.62461119                0.15320189               -1.35831698                0.01038716                2.07774518                2.23348079
              14.34775694                5.85437372               40.58888859                0.84791705                0.49926622                0.49484217               -1.63159813                0.00188260                0.03953090                0.01512592
               4.58291648                9.41781156               41.15793910                0.99776930                0.02815135               -0.05766894                0.07561139               -0.02718104               -0.00149413                0.77150821
               5.58319800                9.17372061               40.97644785                0.48939624                0.06395029                0.10258417               -0.25257086               -0.00246044               -0.02579358               -0.78951911
               6.58419549                8.92911385               40.79437427                0.02608385               -0.08368691                0.27450727               -0.59667556               -0.67485113               10.28627805               -2.44991722
               7.58152426                8.67026595               40.81892334                0.00010000               -0.29431583                0.44764071               -0.69269146               -1.32910030               20.86466390               -0.36578938
               8.57830917                8.40750275               40.84457006                0.00010000               -0.30804951                0.49583906               -0.97062685               -1.48868298               21.23619851                0.61380827
               9.57536327                8.14129091               40.87217009                0.00010000               -0.27264869                0.53944054               -1.28481602               -1.75900258               21.77704387                1.33839157
              10.57285620                7.87206711               40.90412366                0.00010000               -0.14037006                0.48884154               -1.60873292               -2.15319431               22.59081066                2.26035980
              11.57255587                7.60125550               40.94380988                0.00010000                0.07697692                0.20326588               -1.88466616               -2.68294422               23.88039955                3.64174552
              12.57439574                7.33040288               40.99770464                0.16841419                0.35012469                0.06276760               -2.08513376               -1.61207328               13.25628253                5.85796251
              13.57955836                7.09498910               40.81870606                0.38854759                0.50368364                0.29036154               -1.41231849                0.00218774                0.85695841                1.75832161
              14.58446941                6.85969425               40.62238791                0.84434462                0.49110490                0.55404915               -1.75990756                0.01027895                0.03120314               -0.51998374
               4.82594206               10.41759224               41.10076670                0.97950791                0.07852293                0.01119680               -0.10050880               -0.02704034               -0.01260673                0.69262870
               5.82672729               10.17493285               40.91149252                0.53450145                0.12038935                0.14096478               -0.42227439               -0.00255295                0.01973128               -0.64300973
               6.82834985                9.93172605               40.72272841                0.00010000                0.12644685                0.26365386               -0.75665404               -0.63767948               12.07483220               -1.56442454
               7.82925623                9.67512204               40.77428731                0.00010000                0.05223351                0.37730212               -0.92505967               -0.92896516               24.00903863               -0.31787003
               8.82939452                9.41287434               40.81902823                0.00010000               -0.08432509                0.52343084               -1.16865915               -0.95855147               23.96778278                0.27288184
               9.82756973                9.14752588               40.86367352                0.00010000               -0.30356189                0.67509693               -1.44830275               -1.10098498               24.55285340                0.75505169
              10.82332328                8.87860051               40.91418598                0.00010000               -0.56322575                0.79651437               -1.72577287               -1.57245660               25.74359580                1.34846314
              11.81630521                8.60451336               40.97661696                0.01985423               -0.70168128                0.82011109               -1.90397668               -2.27430064               27.75830440                2.24474197
              12.80928965                8.33246950               41.06120553                0.23395207               -0.13942707                0.31317992               -1.34284500               -1.87779750               14.78320856                3.13977691
              13.81351667                8.09852525               40.85877888                0.40064916                0.46312893                0.39146136               -1.45373404               -0.04586440                0.22023529                1.16609928
              14.81855223                7.86545470               40.65064561                0.83189549                0.50355642                0.58600667               -1.89479676                0.00786007               -0.01917927               -0.75542709
               5.06769447               11.41803549               41.04172486                0.99980693                0.13186626                0.04432506               -0.27223466                0.02568222                0.37634940                0.60245442
               6.06901313               11.17653991               40.84877381                0.81403804                0.17791179                0.16070600               -0.59302197                0.04615578                0.77126748               -0.51871154
               7.07125271               10.93438692               40.66353932                0.49005965                0.63917636                0.26608752               -0.92061301               -0.64610994               13.91248218               -0.92200826
               8.08179666               10.67781199               40.73309763                0.36933948                0.77407959                0.26899509               -1.11997438               -0.56673463               26.51319121               -0.25140050
               9.08673430               10.41797136               40.79123226                0.35913963                0.29103697                0.50970208               -1.35448878               -0.41697884               26.25162497                0.08352989
              10.08761740               10.15479285               40.84865102                0.37016901               -0.11573530                0.72669688               -1.62710263               -0.49393088               26.86715143                0.36286899
              11.08441959                9.88799740               40.91254690                0.40171279               -0.72082674                0.93968851               -1.89454345               -0.74712526               28.25823245                0.70349589
              12.07320087                9.61765772               40.99060422                0.53391569               -2.07958500                1.31443648               -2.05938510               -1.87698044               30.24503187                1.23551124
              13.04282789                9.33666648               41.08639832                0.64980736               -1.37724982                0.41969771               -1.37762308               -2.38814591               16.87839997                1.32574109
              14.04565587                9.10281833               40.89108119                0.71736531                0.39699079                0.42930763               -1.50144364               -0.04868484                1.49011963                0.81957764
              15.05076771                8.87141438               40.67879643                0.91430690                0.51118394                0.59596763               -1.99476274                0.08115266                0.68740227               -0.71090818
               2.68412701                1.50776276               42.59692135                1.00000000               -0.38108160               -0.42554284                1.46461486               -0.07571170               -1.12462562                1.08156527
               3.68031619                1.24016748               42.46796148                1.00000000               -0.32227730               -0.30554454                1.09266197               -0.04418681               -1.51227316                0.17733635
               4.67768146                0.97208040               42.33156239                1.00000000               -0.20333708               -0.18978873                0.69051983               -0.04708511               -1.53831965               -0.21187674
               5.67624945                0.70319586               42.20224242                0.65649980               -0.05024967               -0.08104256                0.29275593               -0.30427714               -0.96706706               -0.97596058
               6.67667647                0.42810255               42.07736490                0.70990493                0.25852926               -0.10665895               -0.24190058               -0.07308584               -0.55511989                0.24515152
               7.68142004                0.14890138               41.95735649                0.74935328                0.54904627                0.06028036               -0.61363037               -0.11468376               -0.22785490                0.08680832
               8.68765740               -0.12800075               41.83801632                0.72530447                0.67075962                0.13377677               -0.82689846               -0.05055929                0.05866240               -0.15059802
               9.69483523               -0.40112300               41.72155797                0.81626890                0.61005031                0.17017013               -0.84343213               -0.08705871               -0.04297729                0.07775169
              10.69985840               -0.67057323               41.59732651                1.00000000                0.43482417                0.24482172               -0.92126574               -0.07353476               -0.61645215                0.67637056
              11.70353171               -0.93848030               41.46794532                1.00000000                0.38053020                0.33259676               -1.13255169               -0.03893648               -0.83258581                0.05567461
              12.70746901               -1.20613085               41.33908123                1.00000000                0.39372927                0.42212082               -1.39640826               -0.03151620               -0.79822761               -0.77895755
               2.95096518                2.50350733               42.54006306                1.00000000               -0.32496717               -0.41409246                1.29395051               -0.01417901               -0.23121241                1.46323609
               3.94771551                2.23711203               42.41108141                1.00000000               -0.26343783               -0.28191938                0.92451089                0.01439746               -0.35568132                0.25584637
               4.94569642                1.97018252               42.27982951                1.00000000               -0.12599484               -0.16056644                0.53001950               -0.00905954               -0.28736300               -0.41590899
               5.94519561                1.70238544               42.15213491                0.31767950                0.36982162               -0.04361871                0.15496487               -0.38711122                1.20804853               -1.31341335
               6.95309285                1.42703596               42.05037458                0.42876937                0.65646211               -0.12576198               -0.34401399               -0.07762491                2.22660832                0.70346693
               7.95832485                1.14950419               41.94056255                0.49642479                0.45355707                0.09777979               -0.68606367               -0.11577269                1.88012203                0.31747589
               8.96216399                0.87333702               41.83027960                0.42063689                0.34630172                0.21919421               -0.87035356               -0.06753838                2.23525150               -0.41716977
               9.96525089                0.60057870               41.72643482                0.49950261                0.28188564                0.24497773               -0.84683127               -0.08806239                2.31298179                0.40848597
              10.96780171                0.33187498               41.61731249                1.00000000                0.28351350                0.25811193               -0.89732289               -0.05530155                1.15716657                0.86826323
              11.97092116                0.06484567               41.49047507                1.00000000                0.35013411                0.33271771               -1.14924699                0.00363353                0.17554582                0.21062413
              12.97480439               -0.20190964               41.36185812                1.00000000                0.38832339                0.42495578               -1.41379262                0.01267913                0.07995732               -0.90220736
               3.21663403                3.49948091               42.49125458                1.00000000               -0.27050709               -0.39494819                1.13734140               -0.00912270                0.01692086                1.84195757
               4.21392896                3.23452909               42.35592681                1.00000000               -0.22035817               -0.23572305                0.76862518                0.00952111                0.17603758                0.26952593
               5.21222687                2.96886908               42.22393539                0.75624376               -0.11375877               -0.08411971                0.38168083               -0.03762890                0.49130770               -1.07877927
               6.21165379                2.70232349               42.09479340                0.00010000                0.78891780                0.00712622               -0.02958561               -0.55893940                3.96975635               -1.82699205
               7.22800522                2.42558731               42.03203733                0.00010000                1.05748714               -0.15166316               -0.59147331               -1.26529483                5.50508082               -0.98315319
               8.23280353                2.15085698               41.92770199                0.00010000                0.36134442                0.04840573               -0.85526791               -1.17260906                3.20028183               -0.03874873
               9.23523211                1.87638313               41.81655563                0.00010000                0.08662443                0.16391333               -1.04061812               -1.03688376                4.51419805                0.63499324
              10.23453602                1.60377656               41.73763889                0.00010000               -0.03733517                0.14934553               -0.94142730               -0.67850505                5.16069850                0.94995033
              11.23448541                1.33458900               41.64108291                0.37759173                0.14264945                0.21091188               -0.89384980               -0.25539622                2.76245193                1.72088933
              12.23738901                1.06817405               41.51607175                1.00000000                0.33738939                0.32047564               -1.16543690               -0.04250177                0.87136924                0.78307352
              13.24123320                0.80236827               41.38216843                1.00000000                0.38441914                0.42982336               -1.40972913                0.00468184                0.40685398               -0.86161715
               3.48068637                4.49560837               42.44235216                1.00000000               -0.21686019               -0.37420574                0.97891227               -0.01793148                0.12621184                1.67108166
               4.47851777                4.23239757               42.29944077                1.00000000               -0.17684617               -0.18288955                0.61175949               -0.00149460                0.23611980                0.05857868
               5.47714944                3.96850012               42.15884109                0.36407007               -0.06095897               -0.00536011                0.26391709               -0.10610152                1.14029567               -1.58212814
               6.47729859                3.70252796               42.03389678                0.00010000                0.10520114                0.08440394               -0.13122059               -0.79632925                5.07442349               -2.42703166
               7.47925347                3.42400270               41.97165626                0.00010000                0.33891303                0.00379346               -0.54640569               -2.05895984                8.02005354               -2.07579736
               8.48407685                3.15047230               41.90290451                0.00010000                0.46266376               -0.03134615               -0.87609191               -2.01972046                7.53712678               -0.16677707
               9.48850674                2.87661528               41.82840174                0.00010000                0.46990334               -0.03783571               -1.09235577               -1.93887789                7.24133216                1.69559130
              10.49347491                2.60356561               41.75227462                0.00010000                0.48947726               -0.08969287               -1.20395951               -1.32540695                7.27859091                1.68534435
              11.49829629                2.33609322               41.67827604                0.09138157                0.44084706               -0.14126200               -0.92814269               -0.52981172                4.60242060                2.06071500
              12.50229185                2.07125518               41.55026096                0.51479110                0.41066525                0.14846468               -1.22900642               -0.13206795                1.07843845                1.90323460
              13.50650959                1.80668683               41.40604206                0.93945229                0.42177374                0.38003220               -1.43664295               -0.03687353                0.23731216                0.00191864
               3.74269700                5.49199680               42.39044769                1.00000000               -0.16896817               -0.33878129                0.80798235               -0.03625255                0.23478693                1.33602261
               4.74100732                5.23087130               42.24009726                0.73666599               -0.13612753               -0.10830651                0.44694620               -0.03767741                0.37469650               -0.36168392
               5.73997445                4.96876187               42.09261273                0.16559607               -0.03913452                0.09018058                0.09989274               -0.18455180                1.46583118               -1.87801649
               6.74022463                4.70401157               41.96394506                0.00010000               -0.05463794                0.15957669               -0.25584036               -1.04720570                7.17261573               -2.13163483
               7.73888169                4.42566318               41.93029994                0.00010000               -0.02140464                0.19482099               -0.57103559               -1.81504905               11.48536376               -0.49444419
               8.73979653                4.15023006               41.88523606                0.00010000                0.22397771                0.05398378               -0.92233035               -1.89533114               10.65553082                0.58451859
               9.74336124                3.87562642               41.83271520                0.00010000                0.43767038               -0.05699017               -1.22110840               -1.92151531               10.12915906                1.61889995
              10.74854994                3.60198270               41.77514696                0.00010000                0.64191836               -0.16964721               -1.45468857               -1.68580746                9.53866054                2.39582205
              11.75619961                3.33176376               41.70965511                0.07348081                0.78020488               -0.41965865               -1.81697791               -0.79069545                6.83100251                2.55453464
              12.76415404                3.07114335               41.59868684                0.39850716                0.67164078               -0.12753552               -1.23711739               -0.06821760                2.30162217                3.00989640
              13.76963243                2.80996891               41.44422490                0.85016853                0.54783875                0.25989653               -1.41086247               -0.01628263                0.12371819                1.03891820
               4.00221231                6.48883274               42.33509518                1.00000000               -0.12131704               -0.28222662                0.62704446               -0.03869089                0.10838794                1.01814459
               5.00099914                6.23023144               42.17513827                0.56467965               -0.09470867               -0.02760944                0.25377977               -0.05647273                0.41039233               -0.73017106
               6.00031814                5.97030373               42.02125585                0.08598022               -0.07729883                0.21486585               -0.08950377               -0.31591557                2.76493384               -2.35802490
               6.99945317                5.70571950               41.90827492                0.00010000               -0.17920707                0.05454953               -0.13292496               -1.36664679               10.08128944                0.48974737
               7.99673400                5.42789912               41.90021322                0.00010000               -0.16230908                0.24276642               -0.60709484               -2.01003015               14.57603991                0.50521719
               8.99620698                5.15155198               41.87402627                0.00010000                0.07948975                0.18047928               -1.00486821               -2.01934074               13.47957296                1.22000205
               9.99832379                4.87547548               41.84144174                0.00010000                0.37072175                0.04112466               -1.37331622               -2.08199654               12.96504149                2.12344186
              11.00362142                4.60017267               41.80268124                0.00010000                0.74989693               -0.14708532               -1.77399821               -1.93195675               12.25025408                3.06589307
              12.01332173                4.32770005               41.75410523                0.07746175                0.95504672               -0.43755764               -2.26123427               -0.98163758                9.28800990                4.05731380
              13.02272235                4.06870447               41.65634698                0.37337398                0.76055366               -0.18526096               -1.24169017               -0.11327004                3.39534736                3.23145543
              14.02853280                3.81188476               41.49107908                0.83945272                0.58104511                0.22342587               -1.42420955               -0.00529838                0.03575906                1.12346961
               4.25912578                7.48635227               42.27704421                1.00000000               -0.07189132               -0.20984062                0.44085783               -0.03282148                0.03607615                0.82316400
               5.25840687                7.23031911               42.10822726                0.47931634               -0.04788518                0.03272727                0.07136284               -0.04339365                0.31042440               -0.83580556
               6.25816808                6.97305919               41.94489075                0.05011211               -0.15552821                0.30328055               -0.28768745               -0.58620069                6.05590181               -2.67977528
               7.25529631                6.70510256               41.89086917                0.00010000               -0.26597382                0.05764605               -0.11444411               -1.54663552               13.68262210                1.56740322
               8.25284860                6.43051851               41.87798451                0.00010000               -0.17314759                0.29092065               -0.69454534               -1.96063257               16.03650665                1.05830374
               9.25183336                6.15383964               41.86805170                0.00010000                0.01260074                0.28091080               -1.11563368               -2.13432051               16.17029707                1.62038551
              10.25310062                5.87644891               41.85504461                0.00010000                0.29264412                0.15710626               -1.52878883               -2.25115770               15.95150366                2.54926443
              11.25768624                5.59904099               41.83817107                0.00010000                0.74672201               -0.04514037               -2.02604327               -2.28477062               15.47362806                3.82228434
              12.26803506                5.32301261               41.81340210                0.09024055                1.00088436               -0.42624204               -2.73765372               -1.22654075               11.25518837                5.61612285
              13.27770392                5.06743813               41.71085344                0.36614728                0.75654076               -0.02941316               -1.30750307               -0.10760220                3.69267249                2.76421528
              14.28316587                4.81443743               41.53468133                0.83783800                0.54619501                0.32496238               -1.53598163               -0.00281052                0.03484218                0.52015469
               4.51362219                8.48463593               42.21794897                1.00000000               -0.01978477               -0.13421015                0.25726002               -0.02975895                0.00877080                0.75636518
               5.51342434                8.23088599               42.04091214                0.45477426                0.00942424                0.07669158               -0.10767793               -0.01561552                0.13608761               -0.83400480
               6.51381068                7.97636935               41.86636998                0.03297877               -0.11816036                0.32456390               -0.47581631               -0.73554491                8.52793015               -2.73413653
               7.51106114                7.70687242               41.85700201                0.00010000               -0.25132069                0.30040285               -0.49515824               -1.55641485               17.47812403                0.20090248
               8.50878426                7.43371753               41.85832040                0.00010000               -0.17354844                0.38735029               -0.86055636               -1.83576232               18.41707976                0.99295931
               9.50759017                7.15717019               41.86412462                0.00010000               -0.03424877                0.39891432               -1.25410882               -2.08968253               18.90154525                1.67325803
              10.50809929                6.87861760               41.87167527                0.00010000                0.18860692                0.29198529               -1.66212300               -2.31737510               19.19468541                2.67945590
              11.51136231                6.59926986               41.88036799                0.00010000                0.61472471                0.08933239               -2.17315772               -2.55024152               19.33986815                4.23801480
              12.52039378                6.31917521               41.88825152                0.11244136                0.88915914               -0.24456779               -3.09276534               -1.40765069               12.66731241                6.92618424
              13.52914549                6.06811621               41.76002787                0.36594249                0.70421017                0.15747546               -1.41355679               -0.04998217                2.98383595                2.24053746
              14.53447799                5.81838401               41.57223626                0.83644664                0.53324956                0.46127544               -1.71494585                0.01072183                0.04168099               -0.12601436
               4.76603049                9.48366806               42.15867298                0.99270550                0.03306527               -0.05961586                0.07273919               -0.02785479                0.00045578                0.75979602
               5.76636115                9.23185294               41.97378200                0.48215249                0.07201289                0.11547224               -0.28318953                0.00049637               -0.03193858               -0.78958900
               6.76747075                8.97955047               41.78814356                0.02132305                0.02293392                0.30125166               -0.65443145               -0.76155940               10.39645326               -2.43905831
               7.76681983                8.71111062               41.81156920                0.00010000               -0.08175849                0.44438238               -0.78163971               -1.47189356               21.03107587               -0.43818041
               8.76583558                8.43826551               41.83433726                0.00010000               -0.08400979                0.47344990               -1.07401674               -1.59664220               21.30727249                0.59811727
               9.76513963                8.16181793               41.85864823                0.00010000               -0.05910669                0.53002393               -1.41376051               -1.81479841               21.82203841                1.36649023
              10.76465345                7.88228862               41.88714063                0.00010000                0.04920880                0.51079022               -1.78168100               -2.15702150               22.62531536                2.33109729
              11.76612381                7.60082764               41.92351165                0.00010000                0.31911273                0.26608682               -2.17080366               -2.67687652               23.88606730                3.85741720
              12.77103570                7.31812126               41.97392614                0.14899267                0.56858375                0.07035269               -2.73670662               -1.63026481               13.86683887                6.77382731
              13.77749548                7.07058764               41.80405755                0.37139518                0.59045018                0.31982554               -1.52332968               -0.02320229                1.49502584                1.78530792
              14.78284471                6.82366294               41.60415804                0.83318370                0.53492261                0.56978163               -1.90800077                0.01792708                0.04174746               -0.66733996
               5.01669534               10.48344361               42.09971440                0.97485463                0.08565303                0.01254250               -0.10933508               -0.02772064               -0.01220817                0.68272453
               6.01755187               10.23319543               41.90709005                0.52910491                0.13132395                0.15414226               -0.46097989               -0.00126392                0.01545022               -0.64216533
               7.01932182                9.98239438               41.71487197                0.00010000                0.26781771                0.28585025               -0.81969177               -0.75557451               12.14938482               -1.54596424
               8.02290822                9.71576007               41.76460857                0.00010000                0.34111457                0.31252412               -1.01169902               -1.06272388               24.14901314               -0.34708924
               9.02614411                9.44318653               41.80677827                0.00010000                0.21814374                0.46158172               -1.27733636               -1.03077361               24.06407712                0.26454466
              10.02727110                9.16777067               41.84844937                0.00010000               -0.00974805                0.62801390               -1.58915016               -1.10757537               24.62865565                0.76738964
              11.02594915                8.88883341               41.89599228                0.00010000               -0.26394783                0.77007247               -1.91089482               -1.50939420               25.85999690                1.39299526
              12.02199214                8.60459160               41.95661195                0.00079990               -0.39603277                0.81266866               -2.14381884               -2.19933115               28.25378965                2.41392153
              13.01802849                8.32058226               42.04604887                0.21063110                0.05738106                0.39435487               -1.78410169               -1.85688152               15.43134354                3.78867540
              14.02313976                8.07451272               41.84355898                0.38395982                0.53287147                0.43421833               -1.60132291               -0.06835476                0.43908121                1.21845251
              15.02868592                7.82977964               41.63088535                0.82031781                0.55461596                0.63190731               -2.08239910                0.01211261               -0.01301089               -0.86796084
               5.26597245               11.48391891               42.03891303                0.99770412                0.14126578                0.04752982               -0.28932352                0.02939854                0.36982993                0.59334299
               6.26738510               11.23493579               41.84263017                0.81221856                0.19110910                0.17403560               -0.63829084                0.05075179                0.76255724               -0.51613128
               7.26979463               10.98526747               41.65400817                0.48783411                0.86940469                0.28730945               -0.99129696               -0.83145316               13.96700128               -0.90266255
               8.28477320               10.71736110               41.72145450                0.36937034                1.17074375                0.16010334               -1.20872753               -0.70201854               26.63876110               -0.27031183
               9.29320950               10.44749715               41.77709370                0.35924622                0.62840213                0.43106199               -1.46866620               -0.44260494               26.34904309                0.07608099
              10.29734124               10.17437821               41.83159899                0.36994934                0.22175671                0.66075347               -1.77513026               -0.48333951               26.94118219                0.36786095
              11.29764464                9.89769007               41.89263253                0.40074102               -0.34764547                0.88566583               -2.08588361               -0.69531048               28.39782943                0.73505750
              12.29038833                9.61708101               41.96955497                0.52254694               -1.68338410                1.24894149               -2.22494195               -1.74446651               30.82715295                1.35278105
              13.26397696                9.32600835               42.07114542                0.63692540               -1.17286628                0.54260927               -1.74508173               -2.29560406               17.68610691                1.58967646
              14.26693101                9.07927200               41.87536059                0.70911704                0.42880774                0.47592867               -1.65704077               -0.10623885                1.74692812                0.88412261
              15.27255311                8.83630109               41.65795946                0.90820810                0.56221048                0.65214459               -2.19830895                0.08962738                0.72357216               -0.78641842
               2.80352265                1.57638208               43.61191818                1.00000000               -0.39949830               -0.44908766                1.54469661               -0.08290619               -1.15706366                1.09959256
               3.79952767                1.29969415               43.47903349                1.00000000               -0.33703290               -0.31414155                1.12638111               -0.04745171               -1.56561953                0.18386155
               4.79678200                1.02248215               43.33840325                1.00000000               -0.21328821               -0.18506090                0.67881459               -0.05171229               -1.61179927               -0.21208978
               5.79526191                0.74419163               43.20488300                0.66418887               -0.08888223               -0.05286002                0.23249727               -0.37887079               -1.11907303               -0.97707155
               6.79500435                0.45795655               43.07438248                0.71754178                0.24486422               -0.07295770               -0.35263532               -0.09542264               -0.72915215                0.22948577
               7.80015919                0.16675303               42.95044551                0.75077148                0.62422491                0.10114451               -0.77075376               -0.13189428               -0.25889088                0.05615881
               8.80748885               -0.12180777               42.82891946                0.71724662                0.80291302                0.17394838               -1.00515390               -0.04354453                0.22065482               -0.20530135
               9.81621745               -0.40535735               42.71258956                0.80018640                0.72814746                0.18835452               -0.96290124               -0.08862238                0.22794581                0.03923881
              10.82205180               -0.68381692               42.58790865                1.00000000                0.48301806                0.24691506               -0.95954023               -0.07705995               -0.43260049                0.69831882
              11.82587781               -0.96031134               42.45648339                1.00000000                0.39246457                0.33392056               -1.15964339               -0.03744425               -0.75778774                0.06590072
              12.82990109               -1.23637928               42.32500306                1.00000000                0.40232775                0.42241207               -1.42192999               -0.03798792               -0.75150490               -0.73406557
               3.07938151                2.57189120               43.55330682                1.00000000               -0.33783961               -0.43666230                1.36351398               -0.01369996               -0.24900269                1.48239564
               4.07600312                2.29655274               43.42042397                1.00000000               -0.26826893               -0.28969418                0.94754319                0.01741060               -0.38925467                0.26670154
               5.07401614                2.02063154               43.28503510                1.00000000               -0.11335614               -0.15519336                0.50876416               -0.00850556               -0.32443743               -0.41017632
               6.07373600                1.74366303               43.15340214                0.33425005                0.43766450               -0.01492830                0.08894544               -0.47766578                1.11354194               -1.33210763
               7.08276943                1.45722698               43.04632711                0.44188066                0.74932085               -0.11448776               -0.47506657               -0.13264221                2.11958443                0.62733172
               8.08872241                1.16776447               42.93288958                0.50243390                0.51695834                0.14569039               -0.86595505               -0.16184872                1.92628290                0.24558335
               9.09310859                0.87993171               42.82074472                0.41924561                0.38066949                0.28340348               -1.06478653               -0.08142292                2.48825296               -0.53064261
              10.09633580                0.59652620               42.71754264                0.48471548                0.28248015                0.28864660               -0.95165825               -0.10592876                2.64196714                0.32205725
              11.09875820                0.31865223               42.60839131                1.00000000                0.27243731                0.25462945               -0.88019572               -0.07097859                1.31108947                0.87763191
              12.10178455                0.04302787               42.47906971                1.00000000                0.34154773                0.32747046               -1.12793822                0.00384802                0.19382325                0.22003734
              13.10558915               -0.23215516               42.34782888                1.00000000                0.38046015                0.41776930               -1.39088689                0.00588790                0.08883543               -0.84506435
               3.35392558                3.56764883               43.50288041                1.00000000               -0.27900331               -0.41472593                1.19452308               -0.00987058                0.00893846                1.86173646
               4.35113554                3.29390027               43.36366069                1.00000000               -0.22119911               -0.24012954                0.77997210                0.00870263                0.15664665                0.28424802
               5.34950160                3.01937828               43.22758796                0.77227846               -0.10111958               -0.07345113                0.34657173               -0.04406899                0.45282903               -1.05067458
               6.34911315                2.74389306               43.09414663                0.00010000                0.93742341                0.03933629               -0.10542290               -0.69897772                3.83819136               -1.82438226
               7.36825006                2.45566680               43.02537216                0.00010000                1.25521657               -0.11922002               -0.75622353               -1.51163558                5.40761305               -0.96365714
               8.37421748                2.16966684               42.91814294                0.00010000                0.44243020                0.14490252               -1.08630358               -1.38589769                3.30754524               -0.04810812
               9.37709867                1.88386030               42.80504243                0.00010000                0.05804374                0.30528106               -1.30842818               -1.22585978                4.84725318                0.57195221
              10.37537836                1.60041559               42.72764895                0.00010000               -0.14840543                0.27818703               -1.10605470               -0.80960216                5.61683927                0.78105168
              11.37413056                1.32127567               42.63245547                0.36082437                0.06919004                0.18344306               -0.82052458               -0.32918633                2.93825716                1.69287978
              12.37676216                1.04623807               42.50472134                1.00000000                0.31271685                0.30281305               -1.09767019               -0.04404092                0.85091892                0.76499012
              13.38038490                0.77197611               42.36840772                1.00000000                0.36227363                0.40680907               -1.33773163               -0.00159148                0.39760245               -0.80956439
               3.62668122                4.56359668               43.45234049                1.00000000               -0.22335019               -0.38994532                1.02365428               -0.01958267                0.12492585                1.67993079
               4.62444772                4.29175015               43.30555848                1.00000000               -0.17696294               -0.18194405                0.61228885               -0.00360708                0.24224070                0.06853598
               5.62314196                4.01916252               43.16126903                0.35983976               -0.04898993                0.01194063                0.21694471               -0.11306599                1.13266700               -1.55629157
               6.62346792                3.74444975               43.03215770                0.00010000                0.18104888                0.12166569               -0.22546687               -0.92386308                5.03743191               -2.38384016
               7.62676294                3.45484258               42.96555986                0.00010000                0.46715199                0.08107783               -0.68610582               -2.35356100                8.01382759               -1.89825779
               8.63281096                3.17066252               42.89337897                0.00010000                0.55398536                0.08422616               -1.04818986               -2.30261606                7.62421730               -0.04466579
               9.63784265                2.88603733               42.81676748                0.00010000                0.49587135                0.11123733               -1.25864559               -2.21254955                7.43044840                1.75297917
              10.64272839                2.60208994               42.73986955                0.00010000                0.42546674                0.04809405               -1.29453877               -1.60372722                7.70843498                1.53753344
              11.64635198                2.32232109               42.66947750                0.07788047                0.37374502               -0.07868361               -0.82426707               -0.65927485                4.83349347                1.55378421
              12.65020329                2.04908413               42.53847144                0.48160139                0.38646306                0.10228306               -1.11997342               -0.11885959                1.02250591                1.87995583
              13.65408124                1.77598103               42.39222553                0.91412738                0.38779552                0.30338906               -1.31792255               -0.02120395                0.22346102                0.05769948
               3.89722699                5.55984992               43.39867694                1.00000000               -0.17294230               -0.35099893                0.84141798               -0.03875348                0.24149900                1.33202411
               4.89549757                5.29026139               43.24452475                0.72372790               -0.13431609               -0.10105565                0.43793485               -0.04161726                0.38703068               -0.36841128
               5.89454067                5.01961709               43.09337378                0.15762322               -0.02708688                0.11396247                0.04789403               -0.19210053                1.48186772               -1.88201938
               6.89495583                4.74632638               42.96095227                0.00010000                0.02127027                0.17567857               -0.35464668               -1.15624870                7.21373426               -1.95041414
               7.89496607                4.45728836               42.92406071                0.00010000                0.10072890                0.26072641               -0.68741594               -2.00879215               11.53986116               -0.33835704
               8.89697041                4.17135136               42.87540948                0.00010000                0.32270937                0.13184847               -1.05382973               -2.08469868               10.71351089                0.71290219
               9.90142026                3.88608504               42.81998124                0.00010000                0.50248243                0.02154904               -1.33419336               -2.11447067               10.24228495                1.66054762
              10.90702006                3.60137747               42.76040764                0.00010000                0.62653055               -0.09741796               -1.49249874               -1.88014755                9.60336661                2.24947920
              11.91395087                3.31970200               42.69176253                0.06215892                0.68524884               -0.26687659               -1.73534591               -0.93844373                7.23269931                1.93451635
              12.92072503                3.04828373               42.58693887                0.37191577                0.61080752               -0.19931791               -1.10476008               -0.14062064                2.68653695                2.99802190
              13.92616702                2.77804389               42.43078747                0.83111089                0.54419896                0.09805388               -1.27135510                0.02271127                0.11677173                1.05617775
               4.16508322                6.55657670               43.34147030                1.00000000               -0.12350158               -0.29163932                0.65072794               -0.03983641                0.10275397                1.00645311
               5.16384820                6.28972903               43.17760224                0.55040425               -0.09241280               -0.01578018                0.23755929               -0.06126961                0.41910749               -0.74333507
               6.16323496                6.02144177               43.02011532                0.07944170               -0.05882604                0.24827485               -0.14461558               -0.35358600                2.95230282               -2.37506768
               7.16267168                5.74796333               42.90675964                0.00010000               -0.08364249                0.05004767               -0.18923287               -1.44837297               10.22796143                0.71977145
               8.16156211                5.46005711               42.89364432                0.00010000               -0.01756919                0.28694462               -0.71058078               -2.15198745               14.53389960                0.64939383
               9.16232030                5.17329949               42.86345332                0.00010000                0.19825065                0.23236211               -1.11516221               -2.17644793               13.50456712                1.33362316
              10.16552713                4.88646831               42.82723578                0.00010000                0.45940924                0.08551127               -1.46644563               -2.25006455               12.99058290                2.16780238
              11.17150849                4.60014158               42.78470786                0.00010000                0.75748569               -0.10203132               -1.80534124               -2.06621369               12.21188382                2.93673394
              12.18067684                4.31698356               42.73195546                0.06635909                0.87702479               -0.33763075               -2.13490777               -1.16122238                9.86413782                3.68776048
              13.18904898                4.04509777               42.64438404                0.35113723                0.71691556               -0.23776248               -1.14924542               -0.23410390                3.99068802                3.19270858
              14.19501515                3.77794210               42.47726431                0.82403003                0.59661719                0.04997134               -1.34600086                0.01529364                0.02813472                1.01303042
               4.43012560                7.55401714               43.28151945                1.00000000               -0.07184855               -0.21662709                0.45641538               -0.03365297                0.03265415                0.81069689
               5.42940711                7.28994579               43.10883713                0.46657489               -0.04454701                0.04586471                0.04913320               -0.04516090                0.31186672               -0.84045220
               6.42923466                7.02458259               42.94174428                0.04367484               -0.10170407                0.34292980               -0.34730423               -0.64962398                6.32540939               -2.69311321
               7.42737303                6.74732733               42.88917832                0.00010000               -0.13222496                0.07619614               -0.22226254               -1.61939145               13.86688195                1.56377687
               8.42659016                6.46302725               42.87058801                0.00010000               -0.01713944                0.32034461               -0.79400013               -2.07393531               15.95575914                1.14158951
               9.42703024                6.17599860               42.85637171                0.00010000                0.14933631                0.31531064               -1.22088604               -2.27810536               16.17975684                1.71066979
              10.42957688                5.88779527               42.83921158                0.00010000                0.40751478                0.19242352               -1.63043990               -2.40933994               15.93078215                2.60550260
              11.43518054                5.59933684               42.81741411                0.00010000                0.80966751               -0.01369159               -2.09761701               -2.39166965               15.30861293                3.78297690
              12.44577023                5.31294938               42.78598632                0.07795596                0.99519371               -0.38848866               -2.67520390               -1.37670547               11.97610569                5.25649915
              13.45508441                5.04352848               42.69787349                0.34725486                0.75069977               -0.03865579               -1.29282628               -0.22493932                4.53380651                2.69838364
              14.46078423                4.77904332               42.51928854                0.82503880                0.56998186                0.22173081               -1.56223624                0.00941471                0.03510655                0.31100360
               4.69255286                8.55224416               43.22055352                1.00000000               -0.01733305               -0.13875403                0.26545899               -0.03068477                0.00694392                0.74466245
               5.69237953                8.29064633               43.03970124                0.44406988                0.01540382                0.09025699               -0.13614076               -0.01311340                0.13274455               -0.83424985
               6.69286094                8.02830036               42.86131879                0.02688410               -0.02701685                0.36240509               -0.53974277               -0.80281911                8.69892796               -2.73425464
               7.69183920                7.74948725               42.85157933                0.00010000               -0.07244016                0.32842246               -0.60028338               -1.66286557               17.68891009                0.07277016
               8.69141214                7.46646400               42.84921185                0.00010000                0.00754881                0.39899841               -0.96268871               -1.95480517               18.46378052                1.01241796
               9.69199017                7.17960571               42.85102282                0.00010000                0.12949770                0.41486791               -1.36375437               -2.20883920               18.93773579                1.73456893
              10.69400209                6.89031678               42.85436598                0.00010000                0.32654039                0.32883885               -1.78920363               -2.44078817               19.17108240                2.74561091
              11.69852098                6.59986775               42.85764686                0.00010000                0.74744989                0.14115194               -2.34311584               -2.63959177               19.03352221                4.31461855
              12.70895109                6.30921379               42.85560376                0.09754757                0.99676386               -0.24336563               -3.31543629               -1.50633565               13.47572227                6.95973023
              13.71845626                6.04432466               42.74560976                0.34903310                0.76113446                0.18178338               -1.47679783               -0.13472481                4.05905420                2.18273136
              14.72417378                5.78237672               42.55458968                0.82520590                0.57175202                0.43275175               -1.83960027                0.02116470                0.04948948               -0.35979987
               4.95270756                9.55124206               43.15939388                0.98758363                0.03810778               -0.06187379                0.07327042               -0.02942659                0.00303845                0.74864546
               5.95308864                9.29175092               42.97078406                0.47355563                0.08148951                0.12975202               -0.31850649                0.00439136               -0.03642774               -0.78873221
               6.95433735                9.03183069               42.78128564                0.01573709                0.14317201                0.33208959               -0.72258384               -0.84485328               10.50956203               -2.42463279
               7.95595208                8.75389578               42.80329054                0.00010000                0.15191212                0.44038546               -0.87767099               -1.61662427               21.21820700               -0.49254515
               8.95737560                8.47100722               42.82308972                0.00010000                0.15242944                0.44723990               -1.17485861               -1.70883483               21.41465308                0.59670670
               9.95900067                8.18429596               42.84389488                0.00010000                0.15617408                0.51586052               -1.53133457               -1.88482546               21.89979031                1.39997052
              10.96049908                7.89437205               42.86849004                0.00010000                0.22455141                0.53258659               -1.93923894               -2.18887656               22.66290443                2.39270875
              11.96349170                7.60215988               42.90039380                0.00010000                0.53437680                0.34403629               -2.43619093               -2.67432750               23.71680255                4.03334294
              12.97118661                7.30808207               42.94297050                0.12994586                0.78676411                0.09049696               -3.43901361               -1.64886569               14.64096891                7.60895684
              13.97922698                7.04716415               42.78823947                0.35525131                0.69583895                0.36333045               -1.64864861               -0.06890806                2.46363432                1.76782882
              14.98510339                6.78769835               42.58422789                0.82244795                0.58764123                0.59586709               -2.10592675                0.02669424                0.05721843               -0.87232390
               5.21094659               10.55100668               43.09858000                0.96988319                0.09321312                0.01315154               -0.11659004               -0.02907001               -0.01287628                0.67301688
               6.21187872               10.29324137               42.90227293                0.52220666                0.14362135                0.16930579               -0.50447192                0.00079815                0.01322932               -0.64058046
               7.21381902               10.03494215               42.70633457                0.00010000                0.42257305                0.31152829               -0.89415083               -0.87576791               12.23286226               -1.52589100
               8.22033019                9.75829496               42.75405333                0.00010000                0.65081197                0.24090649               -1.10059826               -1.19995399               24.31172169               -0.36407131
               9.22683526                9.47540880               42.79348151                0.00010000                0.52993243                0.39274563               -1.37879160               -1.10884832               24.19030231                0.26315551
              10.23092883                9.18992292               42.83189052                0.00010000                0.27626906                0.57774450               -1.71484220               -1.12693662               24.73042926                0.77963761
              11.23236064                8.90096852               42.87596808                0.00010000                0.01977871                0.75230008               -2.08953526               -1.46266608               25.97745492                1.42941591
              12.23132441                8.60674847               42.93374059                0.00010000               -0.06955691                0.83337165               -2.46096876               -2.11027303               28.64875107                2.60602367
              13.23096950                8.31102373               43.02552350                0.18622738                0.30687018                0.50924185               -2.44809098               -1.77997087               16.18773655                4.58980094
              14.23746181                8.05159126               42.82675243                0.36843829                0.63348778                0.48666974               -1.77000340               -0.10881263                0.88012570                1.25102380
              15.24363926                7.79429406               42.60899763                0.80937277                0.61774465                0.69197205               -2.32525894                0.01718077                0.00012814               -1.00629564
               5.46765679               11.55150509               43.03593839                0.99546415                0.15123419                0.04984027               -0.30489706                0.03421541                0.36330996                0.58368158
               6.46916914               11.29513704               42.83600799                0.80971917                0.20558066                0.18956719               -0.68943970                0.05684961                0.75540609               -0.51194068
               7.47176841               11.03806126               42.64371338                0.48533829                1.11586119                0.31191045               -1.07404558               -1.02621798               14.03276872               -0.88291959
               8.49148636               10.75871391               42.70892308                0.36941494                1.59011323                0.04189511               -1.29904701               -0.84433905               26.78982934               -0.28425026
               9.50357067               10.47886213               42.76185894                0.35935616                0.97079294                0.34533339               -1.57500614               -0.46961183               26.47531349                0.06993675
              10.51090222               10.19585085               42.81314842                0.36971114                0.54247639                0.59279332               -1.90668258               -0.47486571               27.04127071                0.36931257
              11.51442020                9.90941805               42.87082923                0.39978791                0.01644052                0.84495322               -2.27163307               -0.64522110               28.55846872                0.75777068
              12.51123103                9.61882731               42.94610538                0.50967282               -1.18378961                1.20788378               -2.53040322               -1.56689513               31.35626928                1.52510487
              13.49074441                9.31826691               43.05149669                0.62294122               -0.87253182                0.72431800               -2.28914121               -2.11899792               18.57934713                1.97613693
              14.49378039                9.05689755               42.85794038                0.70156960                0.46485029                0.53062817               -1.83949302               -0.20459759                2.16826502                0.94225130
              15.50004141                8.80153779               42.63483025                0.90245509                0.62610207                0.72437323               -2.45806280                0.10424025                0.76162955               -0.87214549
               2.92675512                1.64697734               44.62781529                1.00000000               -0.42363862               -0.47843225                1.64488072               -0.09178796               -1.18633005                1.11422859
               3.92251873                1.36106376               44.49048910                1.00000000               -0.35795702               -0.32448937                1.16925945               -0.05178183               -1.61436479                0.18936714
               4.91959597                1.07457491               44.34513868                1.00000000               -0.23149831               -0.17806289                0.66874093               -0.05902866               -1.68107321               -0.21126530
               5.91788876                0.78661614               44.20689236                0.67211224               -0.15325311               -0.01364919                0.16608877               -0.46002750               -1.26611526               -0.97247047
               6.91653091                0.48880301               44.07031219                0.72669116                0.19082419               -0.02100878               -0.45262302               -0.12736649               -0.90563187                0.21282289
               7.92170525                0.18513642               43.94194141                0.75379395                0.66977647                0.15820016               -0.92298641               -0.15524988               -0.30768897                0.02358948
               8.92992644               -0.11575730               43.81791325                0.70797703                0.93498562                0.23584911               -1.20534100               -0.03408581                0.39195483               -0.27902328
               9.94040496               -0.41024439               43.70229995                0.77710311                0.86930618                0.22048501               -1.11587538               -0.08687627                0.56047679               -0.02532049
              10.94731257               -0.69757218               43.57813570                1.00000000                0.54382923                0.24529788               -0.98815708               -0.08614150               -0.19734105                0.72999434
              11.95128154               -0.98233494               43.44475245                1.00000000                0.40434989                0.33433976               -1.18566551               -0.03672904               -0.68063648                0.07627633
              12.95539956               -1.26646378               43.31064263                1.00000000                0.41180198                0.42482024               -1.45583786               -0.04656340               -0.70637287               -0.68880484
               3.21175082                2.64219302               44.56733334                1.00000000               -0.35486951               -0.46476870                1.45091671               -0.01255976               -0.26620186                1.49672383
               4.20820213                2.35781886               44.43003227                1.00000000               -0.27606616               -0.29921111                0.97747508                0.02184375               -0.42157866                0.27576086
               5.20622950                2.07279428               44.29000479                1.00000000               -0.10138433               -0.14766262                0.48358737               -0.00688420               -0.36062308               -0.40342046
               6.20617444                1.78647965               44.15391382                0.35388651                0.48838040                0.02320749                0.00619255               -0.57283527                1.01064574               -1.34090566
               7.21599710                1.48859292               44.04087325                0.45953423                0.81292318               -0.08607968               -0.62083775               -0.20654770                1.98912067                0.54813791
               8.22243290                1.18671843               43.92324344                0.51209972                0.56394418                0.21344994               -1.07682796               -0.22064088                1.96165194                0.16049368
               9.22727599                0.88660119               43.80898387                0.41703433                0.40053680                0.37783591               -1.32180530               -0.10066165                2.80363568               -0.68532980
              10.23044364                0.59196046               43.70740165                0.46130159                0.26102188                0.36575335               -1.11400419               -0.13327968                3.11249694                0.17222664
              11.23249643                0.30488080               43.59970858                1.00000000                0.24582078                0.24662944               -0.84472952               -0.10432062                1.54112230                0.89389858
              12.23536005                0.02100846               43.46791630                1.00000000                0.32831749                0.32035345               -1.09799485                0.00386076                0.21058750                0.22792541
              13.23906278               -0.26221558               43.33404038                1.00000000                0.37027221                0.41220574               -1.36847675               -0.00175775                0.09526890               -0.78535492
               3.49525223                3.63768197               44.51514504                1.00000000               -0.28978925               -0.43912842                1.26555902               -0.01033950                0.00003152                1.87544262
               4.49235434                3.35507953               44.37152625                1.00000000               -0.22273626               -0.24573167                0.79507301                0.00858055                0.13594768                0.29707149
               5.49079751                3.07162166               44.23086682                0.78568290               -0.08604606               -0.06029036                0.30633030               -0.05125862                0.41597798               -1.02217117
               6.49063342                2.78708029               44.09268495                0.00010000                1.06818366                0.07829405               -0.19421518               -0.84791466                3.68532564               -1.81698262
               7.51216118                2.48708142               44.01691286                0.00010000                1.43253705               -0.06219668               -0.94537932               -1.76816138                5.26710190               -0.91484489
               8.51928416                2.18940542               43.90597592                0.00010000                0.52549950                0.27970094               -1.37033975               -1.61806604                3.39077058               -0.01913822
               9.52267117                1.89179942               43.79038707                0.00010000                0.00878012                0.50674342               -1.67383409               -1.44927997                5.24950345                0.54946807
              10.51945976                1.59707068               43.71551779                0.00010000               -0.32465066                0.47985645               -1.41822348               -0.99745320                6.32097282                0.63030825
              11.51617816                1.30736041               43.62467242                0.34056745               -0.05023125                0.14905254               -0.72008262               -0.45653518                3.25418200                1.65181922
              12.51845514                1.02407213               43.49411835                1.00000000                0.28171676                0.28141535               -1.01518197               -0.04730902                0.82080660                0.74051022
              13.52181249                0.74178033               43.35541379                1.00000000                0.33573556                0.38383240               -1.25914054               -0.00878714                0.38469457               -0.75300270
               3.77674890                4.63341045               44.46282524                1.00000000               -0.23148530               -0.40872501                1.07851528               -0.02166595                0.12245766                1.68359423
               4.77443404                4.35290423               44.31168654                1.00000000               -0.17726631               -0.18101094                0.61378030               -0.00626089                0.24503566                0.07795605
               5.77320357                4.07158848               44.16317998                0.35397587               -0.03388275                0.03267672                0.16047873               -0.12359591                1.12068947               -1.52638054
               6.77375639                3.78804553               44.02938745                0.00010000                0.25525866                0.16605301               -0.33749878               -1.05302631                4.99860244               -2.33844291
               7.77830874                3.48734899               43.95793415                0.00010000                0.57985950                0.18650817               -0.85140873               -2.63362835                8.00993622               -1.66654671
               8.78535358                3.19231244               43.88194072                0.00010000                0.61581934                0.25041669               -1.25736836               -2.58754319                7.73282494                0.16617092
               9.79062513                2.89673606               43.80322882                0.00010000                0.47900045                0.32848243               -1.47649053               -2.51086166                7.69187066                1.93356137
              10.79493359                2.60155759               43.72638385                0.00010000                0.28695709                0.25316483               -1.42638769               -1.97489973                8.30924785                1.50230418
              11.79636427                2.30786185               43.66179070                0.06410725                0.25301806                0.03078639               -0.70535183               -0.83883103                5.17221760                1.00621800
              12.79999395                2.02663677               43.52786149                0.44463468                0.35531814                0.05595253               -0.99231270               -0.09980412                0.96086444                1.83570630
              13.80347063                1.74546107               43.37968360                0.88573092                0.34766862                0.21366772               -1.18362284                0.00533818                0.20554832                0.10273430
               4.05583135                5.62950747               44.40727605                1.00000000               -0.17802593               -0.36455772                0.88209285               -0.04208432                0.24673520                1.32470029
               5.05405110                5.35145932               44.24885596                0.70933519               -0.13235325               -0.09259300                0.42763206               -0.04650190                0.39782417               -0.37378158
               6.05318429                5.07227519               44.09357061                0.15139659               -0.01193583                0.14217033               -0.01302904               -0.20273666                1.49282985               -1.87763039
               7.05381238                4.79040135               43.95685212                0.00010000                0.10187032                0.19216701               -0.47667768               -1.23683055                7.26935210               -1.74367410
               8.05522170                4.49081158               43.91655162                0.00010000                0.21669221                0.35053528               -0.82521467               -2.17890140               11.61987234               -0.12938417
               9.05814622                4.19441376               43.86415946                0.00010000                0.39935456                0.24748860               -1.20877982               -2.25446116               10.81307584                0.91028565
              10.06320879                3.89836907               43.80603133                0.00010000                0.53448786                0.14325617               -1.46603407               -2.30119993               10.44175002                1.78160819
              11.06883598                3.60213398               43.74529699                0.00010000                0.55567871                0.01716388               -1.53227181               -2.10935528                9.81318468                2.16311420
              12.07432236                3.30797613               43.67494819                0.05111538                0.50119271               -0.03151928               -1.60938690               -1.11893800                7.74817112                1.31289249
              13.07885983                3.02519118               43.57659163                0.34391267                0.49741477               -0.25063752               -0.95932703               -0.23445668                3.08247003                2.93479603
              14.08427066                2.74605369               43.41879780                0.81055145                0.54108228               -0.09083853               -1.12882365                0.07946644                0.10791564                0.99366882
               4.33200351                6.62611930               44.34810974                1.00000000               -0.12672350               -0.30122418                0.68002757               -0.04108422                0.09584513                0.99363551
               5.33073628                6.35105237               44.17988946                0.53515117               -0.08983547               -0.00241199                0.21829499               -0.06595623                0.42678510               -0.75297333
               6.33020680                6.07443188               44.01836354                0.07208576               -0.01264434                0.28591281               -0.21251921               -0.40063605                3.15306681               -2.38196719
               7.33048339                5.79188887               43.90449026                0.00010000                0.02557521                0.05785285               -0.26850548               -1.50471770               10.37435071                0.98101203
               8.33071831                5.49435969               43.88600161                0.00010000                0.11117380                0.34855949               -0.82819692               -2.25389713               14.51069604                0.82943141
               9.33270687                5.19726222               43.85172303                0.00010000                0.30813010                0.30348914               -1.23837714               -2.30499063               13.58221037                1.50002225
              10.33688091                4.89960118               43.81211282                0.00010000                0.52162743                0.15298494               -1.55974487               -2.39481387               13.10919704                2.25841419
              11.34313942                4.60190087               43.76657442                0.00010000                0.70236989               -0.01862255               -1.81275051               -2.20609757               12.33721204                2.82074946
              12.35092831                4.30723146               43.71140708                0.05599149                0.70439240               -0.17409195               -1.96374949               -1.37507107               10.53282832                3.31627837
              13.35722726                4.02162402               43.63336207                0.32893460                0.62033253               -0.25055529               -1.05944875               -0.36845821                4.56820386                3.07697703
              14.36333496                3.74364430               43.46415907                0.80807009                0.61076942               -0.13607757               -1.29629587                0.04039022                0.02309585                0.75987062
               4.60514352                7.62348298               44.28617252                1.00000000               -0.07241394               -0.22322714                0.47686453               -0.03408394                0.02903905                0.79884409
               5.60441938                7.35141108               44.10920992                0.45289459               -0.04042266                0.06008434                0.02355027               -0.04559220                0.31305190               -0.84123959
               6.60433507                7.07799345               43.93794467                0.03644886               -0.03145855                0.38555006               -0.41921756               -0.70741642                6.59539043               -2.69714069
               7.60379021                6.79155841               43.88642392                0.00010000                0.02176676                0.11633668               -0.34445229               -1.68738938               14.09621622                1.56426449
               8.60477041                6.49778277               43.86210451                0.00010000                0.15073538                0.35522403               -0.90786529               -2.15883953               15.92922553                1.25581692
               9.60680492                6.20048354               43.84363398                0.00010000                0.29517249                0.35380933               -1.33059731               -2.39350571               16.25261628                1.84106097
              10.61067386                5.90142877               43.82243581                0.00010000                0.51394155                0.23250908               -1.71980710               -2.53530160               16.00134597                2.68775882
              11.61708375                5.60176153               43.79621873                0.00010000                0.82119694                0.03408361               -2.11952324               -2.46394586               15.31232642                3.71166501
              12.62709779                5.30449430               43.75989802                0.06679060                0.89970421               -0.29229151               -2.50652178               -1.52822145               12.78457684                4.75969216
              13.63507784                5.02018008               43.68499691                0.32905103                0.69700550               -0.01095815               -1.29317338               -0.35243852                5.34823011                2.55537124
              14.64103790                4.74333213               43.50343660                0.81221802                0.59600683                0.13021816               -1.64066367                0.02385496                0.04249950               -0.03412704
               4.87546565                8.62165475               44.22325815                0.99975542               -0.01516827               -0.14342441                0.27675567               -0.03170054                0.00560239                0.73379863
               5.87531397                8.35225406               44.03818933                0.43233321                0.02227477                0.10477660               -0.16723839               -0.00952118                0.13036236               -0.83121903
               6.87591114                8.08214288               43.85557512                0.02005812                0.08161586                0.40242922               -0.61496080               -0.86090080                8.86798367               -2.72765625
               7.87694628                7.79421560               43.84499635                0.00010000                0.13526194                0.36136504               -0.72363492               -1.75445172               17.92691709               -0.02816273
               8.87861638                7.50146418               43.83906662                0.00010000                0.21222361                0.40736098               -1.07154632               -2.05616460               18.57371821                1.06602796
               9.88119076                7.20433840               43.83684953                0.00010000                0.31402530                0.42330476               -1.47094833               -2.31413044               19.03996420                1.82728622
              10.88489689                6.90425137               43.83589120                0.00010000                0.48021070                0.35559621               -1.89699602               -2.55085528               19.21783516                2.82452185
              11.89079497                6.60258254               43.83350567                0.00010000                0.85242194                0.18196246               -2.45128751               -2.69850483               18.83345783                4.33057479
              12.90194533                6.30138563               43.82194279                0.08397604                1.02728421               -0.20568203               -3.29760442               -1.61330343               14.42066892                6.58848062
              13.91134065                6.02140485               43.73049191                0.33326797                0.77813069                0.23107355               -1.55795909               -0.23520156                5.19585998                2.06311993
              14.91750794                5.74624866               43.53544426                0.81424184                0.61672879                0.42381877               -2.02196341                0.03309668                0.06418736               -0.68995680
               5.14331091                9.62061449               44.16013839                0.98261148                0.04299231               -0.06476559                0.07776311               -0.03147313                0.00558750                0.73743111
               6.14374083                9.35350661               43.96741187                0.46366458                0.09223012                0.14529168               -0.35806259                0.00877284               -0.03911449               -0.78521606
               7.14515551                9.08604203               43.77369189                0.00952864                0.28195288                0.36529684               -0.80228639               -0.92166964               10.63188401               -2.40671036
               8.14937989                8.79878571               43.79401578                0.00010000                0.41844017                0.43152486               -0.98133712               -1.75313050               21.44203753               -0.51556774
               9.15352431                8.50592999               43.81084009                0.00010000                0.41776170                0.41081224               -1.27721505               -1.81697454               21.58177934                0.62227240
              10.15773512                8.20894963               43.82802153                0.00010000                0.39441485                0.48857410               -1.64049220               -1.95934733               22.04119183                1.45635173
              11.16141261                7.90854069               43.84835585                0.00010000                0.41221341                0.54155853               -2.07626957               -2.23987841               22.74583092                2.45558039
              12.16597939                7.60540078               43.87478784                0.00010000                0.72984026                0.42089738               -2.65971250               -2.67716315               23.42965700                4.13346493
              13.17600941                7.30038065               43.90514587                0.11205431                0.97656937                0.12332332               -3.97886172               -1.68865879               15.61714508                8.10869459
              14.18551078                7.02480155               43.77108458                0.34055850                0.80014067                0.42137165               -1.79189670               -0.13223295                3.75966003                1.70592494
              15.19201223                6.75180851               43.56203950                0.81223603                0.65014510                0.64013551               -2.36002810                0.03520280                0.07689729               -1.13529476
               5.40905196               10.62035944               44.09738260                0.96474151                0.10099220                0.01306340               -0.12148066               -0.03052820               -0.01347594                0.66327441
               6.41006188               10.35515989               43.89700061                0.51382474                0.15733458                0.18601169               -0.55234724                0.00333933                0.01297419               -0.63791849
               7.41219865               10.08944882               43.69698895                0.00010000                0.59669177                0.34047123               -0.98090623               -0.99671942               12.33364522               -1.50437850
               8.42199572                9.80284610               43.74259661                0.00010000                0.99571559                0.15754429               -1.19422045               -1.33620306               24.51863497               -0.36354061
               9.43211297                9.50968042               43.77920244                0.00010000                0.86986944                0.31055129               -1.47743927               -1.18850417               24.37609522                0.27774383
              10.43939311                9.21410988               43.81415253                0.00010000                0.57676073                0.51495184               -1.82749059               -1.15683187               24.89372294                0.80429968
              11.44364818                8.91508254               43.85420157                0.00010000                0.30093178                0.72912466               -2.25350567               -1.43324803               26.10986984                1.46106469
              12.44541174                8.61100049               43.90739258                0.00010000                0.25616006                0.87263687               -2.79388205               -2.01817842               28.87643374                2.73656614
              13.44877138                8.30385210               43.99708705                0.16206262                0.59281986                0.66020296               -3.34600576               -1.67243551               17.13468193                5.41381156
              14.45726814                8.02983229               43.80815891                0.35464986                0.77133470                0.54697916               -1.95647940               -0.16743827                1.67990928                1.26065842
              15.46419808                7.75905137               43.58438018                0.79917606                0.69299343                0.76922116               -2.62541999                0.02159423                0.01674255               -1.17058509
               5.67309944               11.62087576               44.03281509                0.99281958                0.16187914                0.05163219               -0.31881308                0.03985616                0.35604606                0.57410653
               6.67471824               11.35722684               43.82884138                0.80616420                0.22177333                0.20669516               -0.74669289                0.06442009                0.75000437               -0.50739943
               7.67753491               11.09285146               43.63252726                0.48260933                1.38529952                0.34026388               -1.16960856               -1.23088665               14.11924596               -0.86221468
               8.70242423               10.80193659               43.69547356                0.36938347                2.04777655               -0.09095063               -1.39566819               -0.99267145               26.98830341               -0.29200713
               9.71849044               10.51214102               43.74559358                0.35948084                1.33860703                0.24605954               -1.67919211               -0.49664832               26.66296061                0.06883474
              10.72919637               10.21924867               43.79346533                0.36947244                0.86832999                0.51387863               -2.02508450               -0.47056562               27.20936296                0.37205602
              11.73585704                9.92312318               43.84719986                0.39879138                0.38249460                0.80406480               -2.44411779               -0.59887162               28.73442700                0.76660608
              12.73684626                9.62285351               43.91894690                0.49599154               -0.60640673                1.18530226               -2.91124813               -1.33347195               31.78350312                1.65524349
              13.72372891                9.31358471               44.02536260                0.60884871               -0.49417599                0.97326160               -3.05971493               -1.85986647               19.63612046                2.49335262
              14.72696274                9.03574113               43.83857073                0.69498604                0.51385201                0.59088438               -2.04315302               -0.35012918                2.86696631                0.98920010
              15.73400595                8.76719293               43.60879821                0.89717677                0.70432081                0.81415631               -2.77501280                0.12596742                0.80160086               -0.97017609
               3.05444843                1.71963055               45.64481579                1.00000000               -0.45314452               -0.51346312                1.76466700               -0.10242278               -1.20861017                1.12297622
               4.04991699                1.42439515               45.50241868                1.00000000               -0.38455820               -0.33643431                1.22048021               -0.05698605               -1.65249544                0.19329859
               5.04675727                1.12852462               45.35177807                1.00000000               -0.25754497               -0.16896307                0.65906399               -0.06830671               -1.73704125               -0.20976622
               6.04476609                0.83069930               45.20820477                0.68011046               -0.24573002                0.03530322                0.09375600               -0.54024979               -1.38038678               -0.96153888
               7.04184267                0.52109090               45.06533002                0.73679864                0.08191368                0.04981730               -0.53066305               -0.16597219               -1.04341244                0.19583445
               8.04640436                0.20462075               44.93198578                0.75823676                0.65633722                0.23190851               -1.05091028               -0.18697090               -0.35845105               -0.00444271
               9.05496941               -0.10952948               44.80481264                0.69701254                1.04000868                0.32807706               -1.41511745               -0.02902672                0.56640307               -0.36797251
              10.06720453               -0.41606716               44.69027205                0.74366313                1.03415337                0.28200463               -1.32439241               -0.07601569                0.96713186               -0.13067259
              11.07565248               -0.71236279               44.56814550                1.00000000                0.62768105                0.23562713               -0.99693011               -0.11096696                0.12083640                0.77397704
              12.07975815               -1.00511352               44.43277008                1.00000000                0.41703967                0.33339984               -1.20913393               -0.03877104               -0.60318679                0.08525456
              13.08399327               -1.29695088               44.29588630                1.00000000                0.42351172                0.43174633               -1.50469302               -0.05842643               -0.66481497               -0.64461388
               3.34865960                2.71449592               45.58232515                1.00000000               -0.37595127               -0.49823872                1.55619457               -0.01074292               -0.28137186                1.50328700
               4.34490009                2.42103080               45.43997347                1.00000000               -0.28687404               -0.31038605                1.01380222                0.02774016               -0.45010652                0.28244237
               5.34292212                2.12683499               45.29470685                1.00000000               -0.09098215               -0.13824757                0.45524648               -0.00366413               -0.39324877               -0.39536514
               6.34308045                1.83105233               45.15352599                0.37656701                0.51500473                0.06902441               -0.09028437               -0.66191887                0.90932255               -1.33767096
               7.35322222                1.52158907               45.03391036                0.48191744                0.83821945               -0.03909438               -0.77074105               -0.28270171                1.84499100                0.47368191
               8.35984484                1.20693984               44.91135302                0.52638097                0.59004413                0.29830228               -1.30498889               -0.28417241                1.97938255                0.07640185
               9.36502310                0.89375129               44.79430861                0.41462503                0.40080966                0.50670892               -1.64722658               -0.13047500                3.18452136               -0.87064699
              10.36786103                0.58675289               44.69526256                0.42728717                0.20214440                0.50533577               -1.38343984               -0.17249371                3.80403257               -0.08878930
              11.36906599                0.28999349               44.59149672                1.00000000                0.19017304                0.22963588               -0.77943011               -0.17856201                1.90158608                0.91769369
              12.37166449               -0.00177952               44.45710982                1.00000000                0.30901896                0.31083043               -1.05778440                0.00259287                0.22372248                0.23189261
              13.37524637               -0.29263342               44.32045934                1.00000000                0.35818764                0.41118580               -1.35308217               -0.01065845                0.09759380               -0.72439566
               3.64116380                3.70966577               45.52819159                1.00000000               -0.30310777               -0.46791800                1.35094391               -0.01042650               -0.00936681                1.87966842
               4.63813272                3.41818743               45.37956215                1.00000000               -0.22506712               -0.25256239                0.81391939                0.00937466                0.11504735                0.30726401
               5.63666246                3.12575967               45.23371457                0.79617389               -0.06795478               -0.04519354                0.26039314               -0.05874545                0.38284422               -0.99282310
               6.63677363                2.83207979               45.09026233                0.00010000                1.18193350                0.12306937               -0.29726014               -0.99226493                3.51547633               -1.80132982
               7.66030113                2.52030901               45.00646457                0.00010000                1.58925309                0.01419070               -1.14952231               -2.01534075                5.08259472               -0.82052743
               8.66855869                2.21058680               44.89073614                0.00010000                0.61228685                0.44312808               -1.68505192               -1.86881814                3.43293159                0.07852734
               9.67254686                1.90060470               44.77156575                0.00010000               -0.05231103                0.76565021               -2.12374052               -1.71667057                5.67878401                0.61034619
              10.66751247                1.59403956               44.69928448                0.00010000               -0.59666089                0.78019710               -2.00281544               -1.29421641                7.41255871                0.55832142
              11.66061365                1.29222993               44.61805382                0.31747058               -0.25377761                0.10880958               -0.58247181               -0.68418827                3.82573051                1.58426046
              12.66243691                1.00110309               44.48441770                1.00000000                0.24371241                0.25522445               -0.91620362               -0.05469588                0.77663794                0.70552941
              13.66548789                0.71127284               44.34322491                1.00000000                0.30509793                0.36425609               -1.18102493               -0.01794453                0.36591605               -0.69162666
               3.93140777                4.70513756               45.47391080                1.00000000               -0.24140757               -0.43031711                1.14395067               -0.02389624                0.11861604                1.67954406
               4.92899369                4.41597956               45.31783409                1.00000000               -0.17764588               -0.18022924                0.61626010               -0.00898372                0.24362091                0.08632933
               5.92785485                4.12593111               45.16447860                0.34780867               -0.01539439                0.05606309                0.09423954               -0.13635956                1.10373828               -1.49073196
               6.92868581                3.83351372               45.02540772                0.00010000                0.32767700                0.21351430               -0.46678587               -1.17349981                4.95641601               -2.28693306
               7.93440839                3.52187288               44.94853169                0.00010000                0.67434877                0.31621014               -1.04057653               -2.89781334                8.00670598               -1.36642272
               8.94217278                3.21580240               44.86823161                0.00010000                0.64142702                0.45939807               -1.49922097               -2.88075298                7.86316221                0.49348306
               9.94723693                2.90906430               44.78723767                0.00010000                0.40893448                0.61142536               -1.74863738               -2.84373498                8.04090816                2.29103240
              10.95035147                2.60235683               44.71134180                0.00010000                0.05408783                0.52048104               -1.59958087               -2.50200985                9.13247808                1.70225334
              11.94831869                2.29216968               44.65537047                0.05014944                0.05880993                0.20567677               -0.56832727               -1.10129289                5.66615091                0.41798715
              12.95152767                2.00332497               44.51862518                0.40387568                0.31146468                0.01879909               -0.84209156               -0.07150321                0.89617654                1.75677730
              13.95454798                1.71465170               44.36855307                0.85490573                0.30203131                0.10844856               -1.04234553                0.05392911                0.18279137                0.12689817
               4.21900188                5.70105943               45.41631880                1.00000000               -0.18423860               -0.37923089                0.93002294               -0.04601360                0.24994426                1.31319206
               5.21715949                5.41458284               45.25307740                0.69187537               -0.13003871               -0.08319770                0.41588060               -0.05210474                0.40717598               -0.37793098
               6.21640110                5.12688093               45.09311320                0.14415597                0.01011857                0.17486238               -0.08361749               -0.21960620                1.49689918               -1.86439900
               7.21736186                4.83635007               44.95141871                0.00010000                0.18275388                0.22490228               -0.61815046               -1.32064459                7.33753016               -1.49538873
               8.22005618                4.52663321               44.90755642                0.00010000                0.31951759                0.46099821               -0.98509710               -2.32202179               11.73137429                0.14407597
               9.22375221                4.21977476               44.85123389                0.00010000                0.45307783                0.40115116               -1.39154378               -2.40597466               10.96619064                1.19712944
              10.22911774                3.91283321               44.79066056                0.00010000                0.53073384                0.30839086               -1.61995666               -2.48514198               10.75180242                2.01757714
              11.23436689                3.60444918               44.72976220                0.00010000                0.42509562                0.16390015               -1.57917461               -2.39413697               10.21521466                2.17833885
              12.23761965                3.29634347               44.65957479                0.04051041                0.20789664                0.30948117               -1.46130898               -1.33715206                8.40441451                0.69883642
              13.23852482                3.00147907               44.56775233                0.31473321                0.31466766               -0.25464679               -0.80496746               -0.33841310                3.48847601                2.81185437
              14.24391300                2.71344181               44.40821100                0.78887223                0.53881788               -0.30754939               -1.00405505                0.16302883                0.09858516                0.81481988
               4.50344068                6.69755294               45.35507086                1.00000000               -0.13105740               -0.31069155                0.71539524               -0.04224883                0.08699561                0.98026710
               5.50213011                6.41431560               45.18196814                0.51858839               -0.08725918                0.01191411                0.19579984               -0.06940333                0.43212101               -0.75875921
               6.50169550                6.12942836               45.01586493                0.06401081                0.01952625                0.32736320               -0.29499635               -0.43882369                3.37428953               -2.38054994
               7.50252063                5.83801177               44.90138953                0.00010000                0.14238875                0.08782315               -0.34683964               -1.52799303               10.52887401                1.26789744
               8.50454327                5.53109285               44.87708038                0.00010000                0.26663306                0.42226797               -0.97132741               -2.31389545               14.51119216                1.06044629
               9.50785329                5.22382542               44.83868577                0.00010000                0.41582036                0.39592803               -1.37984371               -2.39308431               13.72992593                1.73498733
              10.51285968                4.91523211               44.79604088                0.00010000                0.55525906                0.24694317               -1.66161226               -2.51446371               13.34956424                2.41672663
              11.51895847                4.60563483               44.74845285                0.00010000                0.58430380                0.10948569               -1.81381858               -2.36374212               12.65996921                2.74839529
              12.52454575                4.29835930               44.69268047                0.04656638                0.43512979                0.06320209               -1.79152439               -1.61694325               11.31001493                2.97657451
              13.52766107                3.99823203               44.62319506                0.30713199                0.46686665               -0.19864995               -0.98533610               -0.49364888                5.13620447                2.88642839
              14.53388309                3.70850072               44.45133839                0.79180662                0.62220183               -0.31831098               -1.30849902                0.06896073                0.02576823                0.33514406
               4.78463157                7.69484560               45.29105674                1.00000000               -0.07355724               -0.22993377                0.50263117               -0.03435361                0.02437091                0.78732818
               5.78389600                7.41482112               45.10930813                0.43856948               -0.03515542                0.07521997               -0.00547938               -0.04388531                0.31305405               -0.83651108
               6.78392847                7.13342819               44.93335992                0.02866365                0.06207575                0.42858277               -0.50486913               -0.74982432                6.86093263               -2.69201590
               7.78513752                6.83810654               44.88228928                0.00010000                0.20180737                0.16601859               -0.49888449               -1.69921063               14.35857915                1.57071737
               8.78796461                6.53507857               44.85243070                0.00010000                0.33068716                0.39780649               -1.03559738               -2.19615845               15.97290765                1.41181894
               9.79175126                6.22769332               44.82975976                0.00010000                0.45272207                0.39692254               -1.45161107               -2.45974537               16.40594601                2.02554480
              10.79701905                5.91777207               44.80481544                0.00010000                0.61068012                0.28275367               -1.80457889               -2.61057283               16.19568912                2.81152851
              11.80396486                5.60663889               44.77502365                0.00010000                0.78322644                0.11376520               -2.11018508               -2.49922463               15.52744794                3.63503127
              12.81268358                5.29760751               44.73585589                0.05699264                0.72727837               -0.13118766               -2.30225114               -1.66501729               13.67240862                4.24472825
              13.81851043                4.99750607               44.67201002                0.31209794                0.60356315                0.06336765               -1.31891620               -0.46604988                6.11543802                2.34247588
              14.82475485                4.70707559               44.48647527                0.79954427                0.62444168                0.07369822               -1.79451414                0.04043903                0.05958554               -0.51354511
               5.06280256                8.69295426               45.22608864                0.99299595               -0.01327523               -0.14896834                0.29269323               -0.03138722                0.00791747                0.72519119
               6.06266981                8.41582000               45.03635647                0.41980481                0.03055167                0.12070983               -0.20221794               -0.00486979                0.12954652               -0.82532405
               7.06341360                8.13800002               44.84901958                0.01273387                0.21081142                0.44272332               -0.70179734               -0.90226036                9.03741748               -2.71405374
               8.06688604                7.84133214               44.83710663                0.00010000                0.38098613                0.39388121               -0.86065622               -1.82219622               18.20214911               -0.08726600
               9.07103332                7.53904898               44.82778092                0.00010000                0.45394224                0.41191388               -1.19403282               -2.12637239               18.76048728                1.16142105
              10.07596488                7.23176387               44.82160385                0.00010000                0.53346672                0.42133357               -1.58225307               -2.38021505               19.22825015                1.96557243
              11.08170265                6.92088719               44.81642606                0.00010000                0.65868298                0.37006039               -1.99062871               -2.61116992               19.37193051                2.93140565
              12.08913854                6.60791014               44.80862111                0.00010000                0.93377868                0.21516903               -2.49222023               -2.69108426               18.84183539                4.29614820
              13.10037823                6.29573555               44.78965167                0.07229047                0.98667251               -0.12479053               -3.10001257               -1.69307826               15.46006292                5.92423034
              14.10887199                5.99949938               44.71445058                0.31912508                0.75873047                0.30547907               -1.66091797               -0.33723744                6.28676775                1.89033187
              15.11555284                5.70997468               44.51415041                0.80362993                0.66808430                0.44904752               -2.26752532                0.04636224                0.08418453               -1.09908504
               5.33827235                9.69186624               45.16094914                0.97751802                0.04804985               -0.06793969                0.08663170               -0.03116727                0.00789050                0.72841096
               6.33875285                9.41723532               44.96362281                0.45261229                0.10493845                0.16167449               -0.40339611                0.01392331               -0.03978616               -0.78058068
               7.34037112                9.14228266               44.76523992                0.00285325                0.44458900                0.40095948               -0.89422151               -0.98844136               10.76950564               -2.38434125
               8.34764463                8.84598416               44.78366380                0.00010000                0.73171526                0.41171160               -1.09435983               -1.86812263               21.71432853               -0.50009689
               9.35500543                8.54331685               44.79754542                0.00010000                0.73320572                0.35806031               -1.38812918               -1.90481229               21.82487421                0.68560564
              10.36230875                8.23611999               44.81108503                0.00010000                0.68219834                0.44006182               -1.74825265               -2.01521454               22.27025843                1.55004859
              11.36864939                7.92517328               44.82696465                0.00010000                0.64930350                0.52293020               -2.19058652               -2.27811920               22.90855629                2.53379203
              12.37529482                7.61094227               44.84719955                0.00010000                0.92916866                0.47052966               -2.82245261               -2.66162608               23.16882871                4.15975440
              13.38723277                7.29511170               44.86339327                0.09628602                1.11158647                0.16738398               -4.14888037               -1.74040165               16.77855487                8.04641898
              14.39752655                7.00361565               44.75240154                0.32777863                0.87493648                0.49094490               -1.95172599               -0.20801394                5.24592998                1.60590243
              15.40473150                6.71605654               44.53702733                0.80254834                0.72049512                0.70744877               -2.66176774                0.04302538                0.09787148               -1.44266892
               5.61144105               10.69159547               45.09615039                0.95900530                0.10908085                0.01279977               -0.12352331               -0.03155842               -0.01335934                0.65369636
               6.61253185               10.41905349               44.89122598                0.50381825                0.17274410                0.20361013               -0.60500742                0.00639664                0.01560965               -0.63378070
               7.61489593               10.14601921               44.68671645                0.00010000                0.79787707                0.37288408               -1.07981666               -1.11685500               12.45844758               -1.48073156
               8.62848940                9.84956637               44.73016892                0.00010000                1.39526574                0.05678552               -1.29803566               -1.46337714               24.78441371               -0.34265647
               9.64280124                9.54621018               44.76393272                0.00010000                1.26573832                0.20698521               -1.58230364               -1.25842912               24.64249323                0.31562534
              10.65380416                9.24056511               44.79534071                0.00010000                0.92583746                0.42731855               -1.93428285               -1.18449747               25.14770376                0.85292488
              11.66131799                8.93134579               44.83089797                0.00010000                0.60817203                0.67901525               -2.39161481               -1.41333041               26.29461270                1.49814191
              12.66596760                8.61732073               44.87786295                0.00010000                0.57894100                0.89406290               -3.06137464               -1.94095126               28.87855539                2.77350245
              13.67289681                8.29908323               44.95860338                0.13979825                0.88996365                0.82355843               -4.29524148               -1.56961134               18.33206354                5.98670195
              14.68376688                8.00931828               44.78762284                0.34316802                0.93173813                0.61211225               -2.15531747               -0.24010037                2.95368066                1.24904811
              15.69153157                7.72412366               44.55648923                0.78979011                0.77646986                0.86208360               -2.96633440                0.02488656                0.02975953               -1.35655318
               5.88272514               11.69212223               45.02956213                0.99002998                0.17319060                0.05267592               -0.33081480                0.04693910                0.34850194                0.56491616
               6.88445705               11.42130752               44.82107414                0.80167409                0.23980012                0.22540312               -0.80995023                0.07342497                0.74682873               -0.50206459
               7.88752115               11.14974034               44.62032121                0.47974800                1.68645324                0.37211316               -1.27869226               -1.44686073               14.23222623               -0.84052052
               8.91818611               10.84711987               44.68100972                0.36935803                2.56584796               -0.24464972               -1.50572025               -1.14451745               27.24791740               -0.29285580
               9.93883810               10.54745655               44.72827510                0.35954911                1.76485374                0.12463693               -1.79160951               -0.51898916               26.93466783                0.07669012
              10.95348319               10.24466636               44.77264673                0.36925673                1.23945321                0.41012531               -2.13934430               -0.46724568               27.48003901                0.38220386
              11.96362717                9.93875358               44.82194687                0.39780229                0.76275840                0.74077923               -2.58962428               -0.56122399               28.95387419                0.76486854
              12.96873836                9.62882353               44.88788042                0.48234318                0.01079091                1.15028000               -3.25466516               -1.08146039               32.03962971                1.67544475
              13.96384299                9.31158287               44.99030239                0.59556522               -0.05271236                1.24996401               -3.99420851               -1.55366390               20.89623737                3.04167798
              14.96768411                9.01585790               44.81707731                0.68973457                0.58877469                0.65396153               -2.26087755               -0.52250940                3.97631383                1.02415639
              15.97561848                8.73329821               44.57933000                0.89243522                0.79343715                0.91745533               -3.13076271                0.15272195                0.84101178               -1.08286809
               3.18737714                1.79441815               46.66310863                1.00000000               -0.48705992               -0.55351888                1.90183660               -0.11483983               -1.22055837                1.12373304
               4.18250654                1.48982015               46.51489870                1.00000000               -0.41540406               -0.34959125                1.27825201               -0.06363064               -1.67449968                0.19488102
               5.17906906                1.18452203               46.35831996                1.00000000               -0.28887324               -0.15715481                0.64873061               -0.07956788               -1.77002997               -0.20863057
               6.17672908                0.87674292               46.20876748                0.68767324               -0.35937036                0.09257517                0.01663386               -0.60531931               -1.42946595               -0.94565786
               7.17188165                0.55555903               46.05969893                0.74674794               -0.08377325                0.13729809               -0.58501578               -0.20266634               -1.08854448                0.17665708
               8.17505361                0.22631310               45.92092321                0.76419009                0.55432900                0.31830050               -1.14058718               -0.22651792               -0.37444033               -0.02028031
               9.18296823               -0.10210870               45.78961090                0.68573081                1.06805593                0.45438396               -1.60828549               -0.04873282                0.74642386               -0.45358919
              10.19641473               -0.42283885               45.67581210                0.69793460                1.21315186                0.40111052               -1.61011851               -0.04217311                1.46585212               -0.29135202
              11.20723127               -0.72879507               45.55819710                1.00000000                0.75311390                0.21214245               -0.97009974               -0.17856151                0.58121888                0.82319687
              12.21147701               -1.02930932               45.42056977                1.00000000                0.43197718                0.33080119               -1.22805394               -0.04586584               -0.52511965                0.09051601
              13.21587081               -1.32850213               45.28054877                1.00000000                0.43938047                0.44600344               -1.57357426               -0.07480160               -0.62871566               -0.60293964
               3.49082675                2.78888296               46.59845723                1.00000000               -0.40084507               -0.53642322                1.67780919               -0.00854136               -0.29295230                1.49969725
               4.48681829                2.48632424               46.45030832                1.00000000               -0.30073740               -0.32279788                1.05548001                0.03466431               -0.47198633                0.28594058
               5.48481200                2.18295049               46.29910972                1.00000000               -0.08304557               -0.12642935                0.42301124                0.00147917               -0.41891726               -0.38661536
               6.48515738                1.87766867               46.15210814                0.40184440                0.51289506                0.12145234               -0.20001727               -0.72773024                0.82479011               -1.32185727
               7.49506990                1.55693201               46.02545843                0.50832501                0.82324571                0.02452516               -0.91343627               -0.33574792                1.70608457                0.40622155
               8.50162230                1.22949610               45.89714367                0.54646747                0.59934885                0.38921438               -1.52722098               -0.33544355                1.96802368                0.01465034
               9.50705688                0.90243514               45.77603933                0.41522759                0.38569434                0.65929937               -2.01916328               -0.17967786                3.59830965               -1.04350629
              10.50933618                0.58117226               45.67973285                0.38302310                0.08120074                0.74983596               -1.83560183               -0.21503251                4.83063749               -0.53816176
              11.50868089                0.27332636               45.58411997                1.00000000                0.07678485                0.19834682               -0.67796331               -0.34226473                2.48922384                0.94277882
              12.51087188               -0.02600131               45.44676062                1.00000000                0.28173578                0.29883382               -1.00499644               -0.00143278                0.23091250                0.23179605
              13.51431561               -0.32404210               45.30697874                1.00000000                0.34437248                0.41781004               -1.35374626               -0.02179924                0.09246275               -0.66477420
               3.79232377                3.78368969               46.54216392                1.00000000               -0.31914608               -0.50044227                1.45009969               -0.01015550               -0.01827687                1.87158105
               4.78913231                3.48336419               46.38780464                1.00000000               -0.22847773               -0.26043327                0.83626980                0.01120598                0.09553250                0.31407091
               5.78775421                3.18199345               46.23607468                0.80249766               -0.04696819               -0.02876386                0.20871761               -0.06497617                0.35518411               -0.96177545
               6.78819294                2.87917196               46.08673974                0.00010000                1.27925239                0.17409086               -0.41560285               -1.11348353                3.33637316               -1.77370388
               7.81333926                2.55604954               45.99392241                0.00010000                1.73243350                0.09983373               -1.35744711               -2.22627493                4.84758644               -0.67488961
               8.82284161                2.23409738               45.87227488                0.00010000                0.71796290                0.60941323               -1.99822525               -2.13418497                3.40703898                0.27228770
               9.82769852                1.91107729               45.74791226                0.00010000               -0.08093733                1.05133800               -2.58890702               -2.03316439                5.98583861                0.81093626
              10.82122287                1.59215787               45.67546149                0.00010000               -1.00694887                1.19763405               -2.98178687               -1.78956283                9.06990735                0.63873390
              11.80755954                1.27517187               45.61302298                0.29265951               -0.62030298                0.06871309               -0.40328017               -1.08837503                4.86129236                1.47512033
              12.80881681                0.97666735               45.47579427                1.00000000                0.19784304                0.22194987               -0.79117559               -0.07274026                0.71462051                0.65973407
              13.81151640                0.67985407               45.33179329                1.00000000                0.26995958                0.35275188               -1.11620128               -0.03357431                0.33543623               -0.62893667
               4.09127463                4.77887412               46.48570426                1.00000000               -0.25359721               -0.45392202                1.21965117               -0.02639061                0.11335729                1.66519502
               5.08873866                4.48111557               46.32401175                1.00000000               -0.17849625               -0.17987748                0.61979912               -0.01154990                0.23826834                0.09299724
               6.08770470                4.18237521               46.16506477                0.34134909                0.00464828                0.08037175                0.02066188               -0.14691717                1.08202174               -1.44703409
               7.08883162                3.88115048               46.02005173                0.00010000                0.39571379                0.26699041               -0.61209314               -1.27598492                4.90786497               -2.21926395
               8.09561898                3.55892869               45.93712261                0.00010000                0.75396113                0.45474341               -1.25459874               -3.13856852                8.00423788               -0.98837516
               9.10391084                3.24168436               45.85195630                0.00010000                0.63570604                0.69023967               -1.76687586               -3.19712513                8.01063372                0.95432514
              10.10833310                2.92346190               45.76825608                0.00010000                0.27697524                0.94200521               -2.07362290               -3.22707121                8.50308404                2.85479038
              11.10945035                2.60512494               45.69439223                0.00010000               -0.29645970                0.82159178               -1.78471756               -3.28790561               10.23082548                2.30091641
              12.10240391                2.27470062               45.65042415                0.03625822               -0.23577369                0.47354952               -0.41056617               -1.49131346                6.37461362               -0.22867516
              13.10473488                1.97843769               45.51101966                0.36036357                0.24333921                0.00955179               -0.66051554               -0.02556682                0.84088534                1.62955649
              14.10727069                1.68301294               45.35883669                0.82209647                0.25358149               -0.01446542               -0.91744454                0.14795637                0.15650516                0.10920570
               4.38731305                5.77461125               46.42587651                1.00000000               -0.19128300               -0.39437127                0.98536625               -0.05074952                0.25002107                1.29655727
               5.38540022                5.47976664               46.25717357                0.67080658               -0.12660461               -0.07345612                0.40070619               -0.05822017                0.41469413               -0.38064386
               6.38478096                5.18360088               46.09189826                0.13590619                0.03597721                0.20994738               -0.16555397               -0.23441820                1.49736060               -1.84397298
               7.38611976                4.88451177               45.94448911                0.00010000                0.26265265                0.26128833               -0.76824867               -1.37213379                7.40960037               -1.17293299
               8.39003401                4.56514440               45.89684968                0.00010000                0.41230667                0.58828220               -1.17027063               -2.42913358               11.87910212                0.48332897
               9.39436590                4.24790218               45.83632859                0.00010000                0.48412562                0.58758616               -1.60630812               -2.53964847               11.18655776                1.59134190
              10.39971652                3.92991739               45.77363220                0.00010000                0.49300707                0.51594660               -1.80350846               -2.67702248               11.20176629                2.39987167
              11.40422604                3.60858971               45.71371350                0.00010000                0.23520002                0.32411953               -1.64814648               -2.75128361               10.85617163                2.31922727
              12.40442052                3.28464286               45.64572201                0.03063779               -0.21164451                0.78906179               -1.33212953               -1.58744157                9.25102902                0.09075865
              13.39999315                2.97685839               45.56049229                0.28512873                0.04522503               -0.16713988               -0.64661709               -0.42597716                3.93986287                2.62217797
              14.40532502                2.67956476               45.39871670                0.76640864                0.53318752               -0.54650174               -0.92870056                0.28528586                0.09936465                0.47069879
               4.67994885                6.77098669               46.36241764                1.00000000               -0.13642295               -0.31997421                0.75751237               -0.04326845                0.07564221                0.96690257
               5.67858462                6.47964645               46.18380546                0.50155989               -0.08388190                0.02629436                0.17052524               -0.07177356                0.43337002               -0.75995613
               6.67827121                6.18657416               46.01246361                0.05544710                0.06304013                0.36988034               -0.39434182               -0.47392897                3.63282172               -2.37272449
               7.67984542                5.88637625               45.89755347                0.00010000                0.26873452                0.13719400               -0.42653663               -1.50542841               10.73901233                1.56702433
               8.68364590                5.57069433               45.86657506                0.00010000                0.42497315                0.50871019               -1.13997027               -2.31080480               14.53845282                1.35225224
               9.68834489                5.25343609               45.82412616                0.00010000                0.52296094                0.50870919               -1.54676001               -2.43701447               13.96645474                2.05375140
              10.69410512                4.93378083               45.77888058                0.00010000                0.56771635                0.36783841               -1.78599609               -2.61107665               13.73862800                2.66276452
              11.69969921                4.61160733               45.73029805                0.00010000                0.41406349                0.28520913               -1.83540869               -2.54663794               13.21024415                2.74678092
              12.70238639                4.29048185               45.67557659                0.03824396                0.07971089                0.38874004               -1.65829238               -1.86866852               12.23693422                2.68855912
              13.70129343                3.97509489               45.61365535                0.28652189                0.25886378               -0.05421558               -0.94167235               -0.58124409                5.73525371                2.62866874
              14.70756367                3.67208290               45.43798908                0.77568918                0.62702355               -0.46577733               -1.42249846                0.09750666                0.04418366               -0.26975075
               4.96912817                7.76821176               46.29622515                1.00000000               -0.07508827               -0.23602581                0.53407299               -0.03494891                0.01971125                0.77733822
               5.96837729                7.48029253               46.10910034                0.42420616               -0.02777961                0.08932244               -0.03767103               -0.04119692                0.31167292               -0.82631456
               6.96857258                7.19099849               45.92784729                0.02059458                0.17568662                0.47038303               -0.60305376               -0.76993786                7.11661902               -2.67599730
               7.97189102                6.88725565               45.87644623                0.00010000                0.40927505                0.23597536               -0.68219517               -1.66486907               14.65264493                1.57183603
               8.97675808                6.57531861               45.84139256                0.00010000                0.53240441                0.44417720               -1.18340042               -2.17481426               16.09909981                1.62156146
               9.98253911                6.25807636               45.81460176                0.00010000                0.62828363                0.44442459               -1.59131666               -2.46393537               16.65395364                2.27353804
              10.98932375                5.93727416               45.78634424                0.00010000                0.70265768                0.34747181               -1.89767152               -2.62846775               16.54042200                2.99061595
              11.99659226                5.61429389               45.75401503                0.00010000                0.71179205                0.23611372               -2.09876533               -2.50748256               15.97940256                3.59068963
              13.00355959                5.29241766               45.71385299                0.04889863                0.50874776                0.09255015               -2.12446159               -1.77945408               14.65846481                3.80146481
              14.00676721                4.97577408               45.65861859                0.29698219                0.48697671                0.18625454               -1.37405390               -0.54423033                6.85302663                2.07542158
              15.01329912                4.67024921               45.46754632                0.78727595                0.65319096                0.08159956               -2.03352594                0.05892891                0.08603389               -1.08745215
               5.25508834                8.76626618               46.22911202                0.98625523               -0.01143826               -0.15454004                0.31438651               -0.03366694                0.01081434                0.71902691
               6.25497396                8.48143290               46.03414497                0.40692971                0.04104967                0.13664749               -0.24239975               -0.00036562                0.13067275               -0.81677842
               7.25590933                8.19598182               45.84153918                0.00513502                0.36269818                0.48299262               -0.80061694               -0.92025437                9.21199122               -2.69044933
               8.26222792                7.89109576               45.82778322                0.00010000                0.67097870                0.42329107               -1.01002522               -1.84670022               18.51736949               -0.09510205
               9.26932891                7.57957788               45.81518597                0.00010000                0.74413517                0.40858474               -1.33620562               -2.14643446               19.02810150                1.30150404
              10.27711062                7.26232458               45.80520447                0.00010000                0.79946649                0.40686931               -1.70607786               -2.38328234               19.51562387                2.15599670
              11.28531824                6.94073027               45.79607862                0.00010000                0.86477201                0.37352300               -2.07780910               -2.59247570               19.66622132                3.07609132
              12.29440607                6.61632960               45.78366127                0.00010000                0.99994409                0.25300715               -2.47991237               -2.60311668               19.11130564                4.22986766
              13.30531712                6.29233286               45.75994254                0.06286895                0.90856025               -0.00301682               -2.83840873               -1.73453416               16.56722267                5.19348769
              14.31257727                5.97881998               45.69727355                0.30717439                0.72374269                0.39866299               -1.77862770               -0.42949308                7.28113845                1.67891809
              15.31979197                5.67371490               45.49009375                0.79348143                0.72147034                0.51835484               -2.55989634                0.06043871                0.10451972               -1.53947477
               5.53812139                9.76512096               46.16187102                0.97200815                0.05329460               -0.07228982                0.09895348               -0.03228594                0.00727515                0.72087631
               6.53865433                9.48302548               45.95934395                0.44109622                0.11916204                0.18000252               -0.45358880                0.01857192               -0.03803642               -0.77326038
               7.54050463                9.20065834               45.75580746                0.00010000                0.63533095                0.43855391               -0.99692637               -1.03943398               10.92872830               -2.35473296
               8.55136095                8.89572147               45.77212858                0.00010000                1.10479689                0.37756459               -1.22106985               -1.94641201               22.04063775               -0.44533212
               9.56260057                8.58349030               45.78307750                0.00010000                1.11800564                0.28426864               -1.51602570               -1.95227946               22.14913469                0.79081863
              10.57372107                8.26621375               45.79305648                0.00010000                1.04343233                0.36410546               -1.86362656               -2.02371836               22.60053196                1.68792587
              11.58346921                7.94474462               45.80454412                0.00010000                0.96031369                0.46664385               -2.28501678               -2.25798770               23.17609253                2.64036191
              12.59292734                7.61935403               45.81833878                0.00010000                1.14546580                0.47300346               -2.89996026               -2.57579641               23.10829649                4.13333426
              13.60637853                7.29235732               45.82216826                0.08346180                1.19339872                0.21720811               -3.94054373               -1.76355273               18.05233301                7.41855380
              14.61679531                6.98374734               45.73205006                0.31742040                0.91697685                0.56587454               -2.11602714               -0.29311887                6.70452827                1.47730551
              15.62471807                6.68061631               45.50880415                0.79348155                0.79227520                0.79513729               -2.98062948                0.05032271                0.11418801               -1.76118704
               5.81863359               10.76482038               46.09491213                0.95306185                0.11744296                0.01148190               -0.12255169               -0.03253886               -0.01194704                0.64389089
               6.81980802               10.48503295               45.88490046                0.49250387                0.18955363                0.22318814               -0.66263797                0.00869555                0.02168301               -0.62674258
               7.82242466               10.20475289               45.67539262                0.00010000                1.03298498                0.40865896               -1.18944500               -1.23233382               12.61084691               -1.45308380
               8.84046772                9.89864705               45.71663590                0.00010000                1.86831914               -0.06617938               -1.41898560               -1.57109551               25.11419730               -0.30181168
               9.85979104                9.58526325               45.74755637                0.00010000                1.74571101                0.07498803               -1.70397047               -1.30470665               24.99684294                0.37980229
              10.87538194                9.26960669               45.77546687                0.00010000                1.36135769                0.30334856               -2.04559665               -1.18978973               25.50926588                0.93156023
              11.88701820                8.95006315               45.80636928                0.00010000                0.99477489                0.57890601               -2.49861005               -1.37927008               26.57520755                1.55635361
              12.89527744                8.62578967               45.84616508                0.00010000                0.93172800                0.84867114               -3.21356869               -1.85150645               28.70501022                2.74210875
              13.90565276                8.29667702               45.91118222                0.12094110                1.15892344                0.93314694               -4.89294004               -1.47869834               19.75657896                6.03730532
              14.91845591                7.99013747               45.76505256                0.33449796                1.07038618                0.67839841               -2.35554116               -0.31966417                4.64705248                1.21967979
              15.92706048                7.68961764               45.52505349                0.78145115                0.86045770                0.96188645               -3.30932239                0.02815490                0.03090496               -1.54871030
               6.09704548               11.76535060               46.02619879                0.98676769                0.18502556                0.05302206               -0.34064075                0.05505269                0.34014079                0.55591806
               7.09889573               11.48748924               45.81264237                0.79616224                0.25991878                0.24562938               -0.87840373                0.08281712                0.74554401               -0.49637876
               8.10224385               11.20883152               45.60695342                0.47671591                2.02664783                0.40786252               -1.40090177               -1.67264901               14.37359485               -0.81757585
               9.13942869               10.89439788               45.66535915                0.36934011                3.16514719               -0.42491655               -1.63615244               -1.29597590               27.57183802               -0.28614523
              10.16554679               10.58499006               45.70976139                0.35966156                2.28483430               -0.02731857               -1.92339715               -0.53028337               27.29719978                0.09621363
              11.18512537               10.27228072               45.75067845                0.36899941                1.70770172                0.26740286               -2.26052402               -0.45902259               27.87205118                0.40465526
              12.19970083                9.95632274               45.79540738                0.39682588                1.20789827                0.62595952               -2.70422226               -0.52940012               29.26631715                0.76544968
              13.20928334                9.63632745               45.85385360                0.46945625                0.63779667                1.05377829               -3.46553490               -0.86453380               32.11585327                1.58660050
              14.21245676                9.31102026               45.94547843                0.58422016                0.40890344                1.43432425               -4.78990880               -1.27020701               22.35159724                3.37104676
              15.21746141                8.99731531               45.79335318                0.68616098                0.69320294                0.71778351               -2.48458301               -0.65776087                5.53840651                1.04616618
              16.22632082                8.69985404               45.54618295                0.88829449                0.88594136                1.02363972               -3.48640164                0.17990724                0.87339230               -1.20627410
               3.32645711                1.87140801               47.68285253                1.00000000               -0.52414501               -0.59734420                2.05257813               -0.12932033               -1.21923308                1.11460086
               4.32121566                1.55747354               47.52798372                1.00000000               -0.44846131               -0.36298570                1.34029146               -0.07255535               -1.67513810                0.19348116
               5.31748789                1.24277248               47.36475269                1.00000000               -0.32089351               -0.14245286                0.63661421               -0.09282771               -1.77038591               -0.20966275
               6.31479779                0.92510484               47.20853745                0.69388086               -0.47859159                0.15380884               -0.06511667               -0.64039721               -1.38540349               -0.92929092
               7.30791605                0.59310504               47.05362971                0.75420535               -0.28971016                0.23849772               -0.62663542               -0.22729816               -0.99335947                0.14988933
               8.30900359                0.25177423               46.90917404                0.77068936                0.35464702                0.41069426               -1.19838999               -0.26607693               -0.30555217               -0.02209078
               9.31500899               -0.09145814               46.77264693                0.67789754                0.94658930                0.60379419               -1.75812828               -0.13638548                0.94386356               -0.50019990
              10.32793537               -0.42973571               46.65806968                0.64103282                1.37550957                0.60759737               -1.96160572                0.03145337                2.11228262               -0.49832990
              11.34251919               -0.74774460               46.54874351                1.00000000                0.94843577                0.17677800               -0.87477438               -0.36710733                1.28053593                0.86071853
              12.34690409               -1.05568489               46.40820900                1.00000000                0.44708871                0.33167855               -1.22468382               -0.05426223               -0.44816974                0.10238751
              13.35146096               -1.36186961               46.26441482                1.00000000                0.45568699                0.46961885               -1.67404284               -0.09863121               -0.60070796               -0.56752157
               3.63909838                2.86543457               47.61588133                1.00000000               -0.42905057               -0.57788211                1.81265153               -0.00610243               -0.29949115                1.48414449
               4.63480787                2.55384368               47.46108307                1.00000000               -0.31772098               -0.33540623                1.10047577                0.04151662               -0.48502654                0.28554889
               5.63274396                2.24134795               47.30316708                1.00000000               -0.07901667               -0.11016887                0.38625042                0.00711951               -0.43472964               -0.37870708
               6.63322754                1.92664293               47.14952565                0.42670374                0.47822098                0.17786403               -0.32115812               -0.75011837                0.77746196               -1.29716201
               7.64230838                1.59549002               47.01564163                0.53573774                0.76984341                0.10209955               -1.04148081               -0.34800479                1.60089583                0.34146014
               8.64862441                1.25588117               46.88080860                0.57146243                0.60458642                0.47228475               -1.72257466               -0.36020886                1.91410740               -0.00931490
               9.65440011                0.91457981               46.75392535                0.42449505                0.38843665                0.80324101               -2.37891401               -0.27364322                3.92841294               -1.11903806
              10.65639314                0.57634027               46.65855052                0.33495395               -0.12887016                1.09452830               -2.51076580               -0.23460547                6.28724714               -1.21981604
              11.65182270                0.25402318               46.57793745                1.00000000               -0.14845827                0.15863806               -0.56887767               -0.68604265                3.44861541                0.94097513
              12.65342398               -0.05236810               46.43700989                1.00000000                0.24183345                0.28618079               -0.92751472               -0.00708429                0.23707014                0.23215559
              13.65665937               -0.35717343               46.29338441                1.00000000                0.32353977                0.43528817               -1.39324011               -0.04365131                0.08083737               -0.60052609
               3.94951683                3.85985037               47.55719358                1.00000000               -0.33842234               -0.53528481                1.56052545               -0.01041748               -0.02517266                1.84872168
               4.94613261                3.55076542               47.39628755                1.00000000               -0.23429010               -0.26865580                0.86187955                0.01547039                0.07973661                0.31722451
               5.94483103                3.24056910               47.23788892                0.80002108               -0.02396259               -0.00905483                0.14880669               -0.06959738                0.33437223               -0.92921908
               6.94565336                2.92866212               47.08195027                0.00010000                1.34433426                0.23680720               -0.55614728               -1.19321735                3.16301748               -1.73830154
               7.97171772                2.59514703               46.97931563                0.00010000                1.85281326                0.18440485               -1.55255094               -2.35809983                4.55695533               -0.48743311
               8.98270962                2.26121992               46.85077164                0.00010000                0.86796585                0.74770142               -2.28413938               -2.39563797                3.27808205                0.57793602
               9.98907703                1.92460668               46.71978761                0.00010000                0.05451342                1.29301791               -2.98361737               -2.43012433                5.87971051                1.22347315
              10.98379989                1.59215486               46.63964874                0.00010000               -1.57851649                1.68914393               -4.15088689               -2.63858793               11.27586807                0.98220528
              11.95750670                1.25542816               46.60998822                0.26696363               -1.29204406                0.04369817               -0.20533993               -1.73776528                6.57338822                1.26597561
              12.95795901                0.95003873               46.46859419                1.00000000                0.13459370                0.17930954               -0.61385125               -0.10415762                0.63007836                0.61283772
              13.96019858                0.64683615               46.32090088                1.00000000                0.22395671                0.35429198               -1.09827709               -0.05102545                0.28873753               -0.57171045
               4.25705993                4.85472887               47.49830382                1.00000000               -0.26613885               -0.47865881                1.30622740               -0.03126347                0.11021936                1.63773738
               5.25439854                4.54847057               47.33023007                0.99976640               -0.18023134               -0.17945800                0.62142883               -0.01315024                0.23296542                0.09662814
               6.25345531                4.24116686               47.16489184                0.33254129                0.01933593                0.10167620               -0.04875624               -0.14448770                1.05937666               -1.39241505
               7.25478526                3.93137907               47.01316586                0.00010000                0.45666365                0.33637755               -0.78621917               -1.35198236                4.87425780               -2.15221723
               8.26258858                3.59917812               46.92343971                0.00010000                0.82333659                0.58501572               -1.48516184               -3.32314212                8.00487265               -0.53083006
               9.27125200                3.27083520               46.83289409                0.00010000                0.61370520                0.91059098               -2.05223118               -3.53733624                8.15245640                1.56231162
              10.27486268                2.94044016               46.74576521                0.00010000                0.07739550                1.27997276               -2.44343077               -3.70104665                9.09870367                3.63793974
              11.27279991                2.61012315               46.67564745                0.00010000               -0.78395764                1.13865214               -1.98564917               -4.49712015               11.65700624                3.47928281
              12.25918353                2.25489714               46.64715914                0.02286470               -0.64335352                0.87890215               -0.29677643               -2.02751609                7.39918311               -0.93375795
              13.25993284                1.95121809               46.50541487                0.31531080                0.14302437                0.06241059               -0.45093579                0.06918257                0.85258687                1.45789784
              14.26204402                1.64991241               46.35020418                0.78734524                0.21111832               -0.15663786               -0.83207826                0.33207709                0.13024361                0.01229332
               4.56140817                5.85027719               47.43602613                1.00000000               -0.19765522               -0.40932579                1.05186134               -0.05419546                0.24637662                1.27339355
               5.55943162                5.54717626               47.26109152                0.64938657               -0.11877006               -0.06404254                0.37717785               -0.06607862                0.41753185               -0.38104632
               6.55903277                5.24260263               47.08980212                0.12707950                0.05854150                0.24289955               -0.25995367               -0.23189879                1.49142140               -1.80036923
               7.56060245                4.93538967               46.93605374                0.00010000                0.33829878                0.30080304               -0.93044503               -1.36755568                7.49795544               -0.80245310
               8.56579875                4.60684735               46.88415100                0.00010000                0.50491989                0.72084478               -1.37984977               -2.49034324               12.05269068                0.90731532
               9.57070085                4.27943174               46.81910772                0.00010000                0.49847029                0.78960422               -1.85256406               -2.65081671               11.47683603                2.11146930
              10.57576815                3.95020614               46.75459039                0.00010000                0.43498304                0.76676011               -2.03248134               -2.89530894               11.80731556                2.96773495
              11.57940051                3.61492790               46.69679927                0.00010000                0.00466434                0.50728879               -1.78195553               -3.17662476               11.76708518                2.59615181
              12.57586144                3.27300620               46.63293220                0.02173793               -0.75365591                1.45511782               -1.28603217               -1.84486798               10.36705766               -0.50233995
              13.56432739                2.95128694               46.55481999                0.25686276               -0.32049874                0.07305075               -0.49571985               -0.46410007                4.52994024                2.36591858
              14.56945147                2.64370339               46.38963699                0.74447363                0.51240738               -0.78181647               -0.94718005                0.44440921                0.13930952               -0.07877443
               4.86217790                6.84654236               47.37022110                1.00000000               -0.14263595               -0.32896005                0.80638840               -0.04190177                0.06273526                0.95322142
               5.86075154                6.54718972               47.18537865                0.48544565               -0.07869904                0.03895322                0.14434394               -0.07209062                0.42889842               -0.75457376
               6.86060392                6.24602485               47.00797810                0.04675611                0.12189471                0.41150263               -0.50272207               -0.49562035                3.93515688               -2.35037672
               7.86318943                5.93739513               46.89285879                0.00010000                0.40678645                0.19619187               -0.52305606               -1.41935722               10.98310980                1.88023964
               8.86873964                5.61359501               46.85428098                0.00010000                0.58437186                0.60257724               -1.32974983               -2.23877560               14.58560186                1.70850386
               9.87487687                5.28662728               46.80775057                0.00010000                0.63603505                0.63270139               -1.74429564               -2.43209187               14.29490922                2.46995365
              10.88146035                4.95577537               46.76032096                0.00010000                0.57952390                0.50901030               -1.94935182               -2.68561445               14.28911931                3.02068861
              11.88646735                4.62026892               46.71174467                0.00010000                0.22333950                0.50807817               -1.91117436               -2.75661109               14.00740165                2.85309733
              12.88592714                4.28399950               46.65951462                0.03143437               -0.32568499                0.81323247               -1.60438832               -2.11009725               13.37389121                2.48600349
              13.87995365                3.95267910               46.60436162                0.26835815                0.00860797                0.20546830               -0.94176627               -0.60865843                6.42836751                2.31472585
              14.88609929                3.63427608               46.42288842                0.76039847                0.61456483               -0.52407556               -1.65825676                0.11812842                0.08038317               -1.01417674
               5.15927542                7.84369799               47.30173820                1.00000000               -0.07680994               -0.24267151                0.57147137               -0.03551451                0.01579992                0.76801242
               6.15850732                7.54795532               47.10855471                0.41014199               -0.01802343                0.10255538               -0.07321709               -0.03803704                0.31031826               -0.81034768
               7.15891495                7.25083268               46.92129885                0.01245676                0.30689123                0.51030071               -0.71047129               -0.76152792                7.35887094               -2.64019243
               8.16464514                6.93931351               46.86864538                0.00010000                0.64380686                0.31763073               -0.88391568               -1.57682904               14.97960204                1.56690126
               9.17179109                6.61889889               46.82876269                0.00010000                0.76167566                0.48995514               -1.35524302               -2.08966399               16.31201708                1.88084321
              10.17987866                6.29208577               46.79793343                0.00010000                0.83115702                0.49009006               -1.75645242               -2.40023538               17.00235169                2.58861805
              11.18841423                5.96038635               46.76686201                0.00010000                0.80827498                0.42168837               -2.01453836               -2.59431842               17.04883549                3.24074088
              12.19604416                5.62508947               46.73304834                0.00010000                0.64175442                0.39574046               -2.11681235               -2.50410495               16.67636964                3.62262101
              13.20124931                5.28927085               46.69336666                0.04276871                0.29167417                0.36452672               -2.01361007               -1.87549510               15.77831497                3.48294733
              14.20187764                4.95539630               46.64452895                0.28451078                0.36853772                0.34835859               -1.45009871               -0.58295331                7.59965759                1.77940498
              15.20862007                4.63322188               46.44580475                0.77566692                0.67424302                0.18256353               -2.33214601                0.07773473                0.11517846               -1.66464969
               5.45295295                8.84168893               47.23237637                0.97944306               -0.00968407               -0.16071705                0.34044776               -0.03498052                0.01401555                0.71320189
               6.45285611                8.54924082               47.03150847                0.39401281                0.05311106                0.15296502               -0.28663449                0.00451536                0.13408940               -0.80265320
               7.45401517                8.25623086               46.83300724                0.00010000                0.53652662                0.52509390               -0.91084394               -0.91234863                9.39654032               -2.65270781
               8.46358664                7.94374775               46.81690612                0.00010000                1.00794674                0.44556690               -1.17226801               -1.81472738               18.87256344               -0.04980048
               9.47417410                7.62339411               46.80105681                0.00010000                1.08990336                0.39319646               -1.50252213               -2.10247625               19.37323302                1.48217050
              10.48538471                7.29642908               46.78748229                0.00010000                1.11980891                0.37651672               -1.85026475               -2.31054307               19.90783194                2.39590580
              11.49657028                6.96420913               46.77486987                0.00010000                1.10580167                0.36517593               -2.16869358               -2.48853179               20.12085032                3.26286969
              12.50750074                6.62818373               46.75902287                0.00010000                1.07700566                0.30078360               -2.44755165               -2.45633263               19.65024024                4.17306855
              13.51811039                6.29129003               46.73288350                0.05614727                0.84214070                0.14861187               -2.60023440               -1.76093110               17.74000289                4.58313547
              14.52434355                5.95964627               46.67887803                0.29794147                0.69462206                0.49932263               -1.89159993               -0.51295465                8.18098294                1.45292235
              15.53200284                5.63792736               46.46295248                0.78394557                0.76592826                0.63255891               -2.85392044                0.07245907                0.11718991               -1.93299322
               5.74347201                9.84048365               47.16292821                0.96687425                0.05836794               -0.07717036                0.11420566               -0.03327829                0.00641802                0.71362306
               6.74405569                9.55101462               46.95455103                0.42863077                0.13445212                0.19896964               -0.50635883                0.02399145               -0.03217312               -0.76094345
               7.74616105                9.26133456               46.74530139                0.00010000                0.85658261                0.47903552               -1.11008854               -1.07137545               11.11054977               -2.31528351
               8.76118734                8.94822485               46.75924240                0.00010000                1.54495856                0.32759109               -1.36663880               -1.97743923               22.41749036               -0.35641838
               9.77706022                8.62676282               46.76722491                0.00010000                1.58327159                0.18641164               -1.66808542               -1.94378612               22.55030567                0.93400885
              10.79285277                8.29961610               46.77381250                0.00010000                1.49143600                0.25726324               -1.99522557               -1.96405453               23.03373793                1.86593045
              11.80688894                7.96768986               46.78126431                0.00010000                1.34919145                0.37002338               -2.36627118               -2.14786584               23.57289232                2.77802242
              12.81983660                7.63110514               46.78920035                0.00010000                1.38396025                0.42321779               -2.87917390               -2.38463267               23.34762383                4.07679035
              13.83456815                7.29224309               46.78458240                0.07421597                1.25723112                0.26145661               -3.53120753               -1.73459291               19.36204214                6.51054603
              14.84498122                6.96538276               46.71008099                0.31000907                0.94694693                0.63812433               -2.25942489               -0.39384622                7.98077439                1.33409069
              15.85350709                6.64587306               46.47741474                0.78511071                0.85258626                0.89216460               -3.26394489                0.05627918                0.11919870               -2.03796548
               6.03122544               10.84014552               47.09369936                0.94641501                0.12595870                0.00918075               -0.11839823               -0.03409040               -0.01018936                0.63444590
               7.03248503               10.55322022               46.87797322                0.47991590                0.20759967                0.24407562               -0.72450069                0.01118343                0.03234443               -0.61637975
               8.03537743               10.26581157               46.66292755                0.00010000                1.30622823                0.44663317               -1.30942989               -1.34027186               12.79046771               -1.42144793
               9.05860959                9.95029957               46.70178921                0.00010000                2.42648449               -0.21371942               -1.56253424               -1.65308298               25.50118876               -0.24340114
              10.08390712                9.62712235               46.72985331                0.00010000                2.32834899               -0.08960161               -1.85120827               -1.31613205               25.43291691                0.46752331
              11.10517657                9.30157435               46.75442878                0.00010000                1.91084044                0.13601082               -2.17155961               -1.15436492               25.97830487                1.03758601
              12.12212393                8.97160960               46.78092577                0.00010000                1.50391439                0.41482534               -2.57816541               -1.30184234               26.97532455                1.64024837
              13.13525486                8.63664809               46.81359157                0.00010000                1.35084926                0.70366844               -3.23078094               -1.69713323               28.55391756                2.68551766
              14.14914092                8.29651917               46.86074458                0.10674208                1.37909009                0.90841509               -4.82383050               -1.37160616               21.26568015                5.57818690
              15.16283666                7.97240876               46.74051202                0.32934829                1.15034490                0.73986093               -2.53165236               -0.39910143                6.45744867                1.17419435
              16.17214781                7.65577065               46.49030278                0.77407694                0.93111538                1.05203696               -3.59415730                0.03217358                0.01426521               -1.71728906
               6.31664081               11.84066726               47.02274932                0.98326702                0.19724998                0.05217463               -0.34806059                0.06442339                0.33177775                0.54715509
               7.31861331               11.55589613               46.80350606                0.78971239                0.28177287                0.26759160               -0.95159537                0.09282571                0.74616182               -0.48844965
               8.32227626               11.27026722               46.59230318                0.47368684                2.41008007                0.44556504               -1.53373263               -1.90740073               14.54041215               -0.79475924
               9.36681491               10.94395046               46.64828667                0.36929157                3.85932700               -0.63491109               -1.79144972               -1.44429013               27.95248102               -0.27078602
              10.39946280               10.62497079               46.68980716                0.35973787                2.92316565               -0.21515582               -2.08214270               -0.52513887               27.74225337                0.12792982
              11.42527822               10.30233632               46.72743624                0.36878346                2.31577782                0.07619717               -2.39729105               -0.43905600               28.37940077                0.44133750
              12.44577836                9.97598637               46.76786243                0.39581590                1.78530768                0.43767693               -2.79365893               -0.49244795               29.70653682                0.77815470
              13.46098437                9.64517851               46.81856972                0.45811331                1.27984961                0.85304197               -3.50177203               -0.70579750               32.11929838                1.45989989
              14.47137535                9.31041139               46.89450421                0.57565302                0.83816713                1.38922262               -5.01761119               -1.02648305               23.90447242                3.28771460
              15.47774772                8.98017998               46.76738565                0.68454830                0.80257170                0.77712149               -2.69306586               -0.68377425                7.35272034                1.04776639
              16.48742679                8.66691380               46.50960196                0.88484290                0.96790697                1.11431510               -3.78233056                0.20127938                0.88758814               -1.32394003
               3.47273009                1.95065255               48.70416019                1.00000000               -0.56264709               -0.64277565                2.21160647               -0.14581188               -1.20144221                1.09419213
               4.46710362                1.62749107               48.54170453                1.00000000               -0.48112388               -0.37596882                1.40361756               -0.08478750               -1.64929434                0.18842213
               5.46310761                1.30350000               48.37105224                1.00000000               -0.34798181               -0.12598903                0.62097567               -0.10879764               -1.72990167               -0.21245658
               6.46014398                0.97618070               48.20746515                0.69652500               -0.58648710                0.21319040               -0.15409668               -0.63954298               -1.23246897               -0.91472928
               7.45137787                0.63453297               48.04716622                0.75625902               -0.51093179                0.35423234               -0.67650930               -0.23622779               -0.73125951                0.10989757
               8.44992535                0.28260216               47.89695541                0.77376169                0.07859934                0.51100443               -1.25343101               -0.29058710               -0.09989865               -0.02084178
               9.45294986               -0.07466953               47.75444833                0.67401088                0.63192266                0.75832333               -1.87500744               -0.32512883                1.17985086               -0.48086108
              10.46256380               -0.43376713               47.63657999                0.58555469                1.48764068                0.89640060               -2.32190231                0.08556964                3.01610245               -0.67644948
              11.48270267               -0.76996858               47.54070161                1.00000000                1.21392511                0.08697349               -0.70046388               -0.90569494                2.19393910                0.83544674
              12.48684230               -1.08486335               47.39607609                1.00000000                0.43711714                0.31199596               -1.16052631               -0.05875688               -0.40099273                0.14341042
              13.49144501               -1.39779175               47.24706791                1.00000000                0.46027111                0.52530721               -1.86922929               -0.11901194               -0.56959328               -0.52937516
               3.79443345                2.94422480               48.63471026                1.00000000               -0.46014291               -0.62054591                1.95575460               -0.00422663               -0.30046909                1.45455339
               4.78983202                2.62373139               48.47231783                1.00000000               -0.33793130               -0.34646983                1.14657700                0.04716954               -0.48642245                0.28119118
               5.78767483                2.30224011               48.30683473                1.00000000               -0.07999783               -0.09078492                0.34516186                0.01262664               -0.43436816               -0.37354077
               6.78823207                1.97831260               48.14568497                0.44720186                0.40650186                0.22925113               -0.45065281               -0.71411051                0.79136501               -1.27069348
               7.79580486                1.63807530               48.00462881                0.55936652                0.66943319                0.19849092               -1.15664295               -0.31606346                1.56846322                0.27283815
               8.80162073                1.28771220               47.86269217                0.59518444                0.60391741                0.54842285               -1.88557329               -0.35778355                1.83318571                0.00001973
               9.80788321                0.93291370               47.72846105                0.44146042                0.47241462                0.91882119               -2.68198747               -0.45247750                4.00658551               -1.02223640
              10.81106902                0.57519688               47.62951754                0.30025276               -0.43446888                1.42360885               -3.28185600               -0.40183645                8.03529313               -1.84293858
              11.79919383                0.23090115               47.57274242                0.85463079               -0.54513507                0.06191358               -0.57130290               -1.47805433                4.95590088                1.00592838
              12.80016632               -0.08174339               47.42821032                1.00000000                0.19947335                0.26912364               -0.83616825                0.01117838                0.27715610                0.29118897
              13.80318330               -0.39253868               47.27911394                1.00000000                0.30169796                0.46959253               -1.50103568               -0.01789158                0.05763757               -0.54200955
               4.11363238                3.93824164               48.57337443                1.00000000               -0.36006810               -0.57142377                1.67897300               -0.00834295               -0.02800845                1.81119362
               5.11003170                3.62056168               48.40504223                1.00000000               -0.24267247               -0.27436117                0.88818529                0.02102938                0.06579371                0.31148694
               6.10877893                3.30168430               48.23905082                0.80244888               -0.00025579                0.01868008                0.08117336               -0.07571671                0.31498696               -0.88926736
               7.11002658                2.98076572               48.07561680                0.00010000                1.34390348                0.28450366               -0.72023407               -1.18223350                3.01840138               -1.70210987
               8.13565700                2.63850279               47.96287140                0.00010000                1.89523444                0.27007074               -1.71875382               -2.35058824                4.23438822               -0.27870240
               9.14793127                2.29357061               47.82659210                0.00010000                1.03793140                0.84411562               -2.52126078               -2.58910763                3.03133380                0.98690291
              10.15641563                1.94370689               47.68823991                0.00010000                0.43041735                1.42521091               -3.29973316               -2.95974799                5.23659264                1.90967878
              11.15653962                1.59470505               47.59244375                0.00010000               -2.31668875                2.11815912               -4.85028595               -4.11548419               13.43314146                2.00117164
              12.11008185                1.23126969               47.60891618                0.23967523               -2.30169568                0.10901604               -0.11552067               -2.63798084                9.07826709                1.09046186
              13.11050571                0.92051912               47.46351725                1.00000000                0.12979573                0.15566180               -0.42912727               -0.05471691                0.60320863                0.59336711
              14.11267777                0.61160010               47.30982775                1.00000000                0.21720624                0.35306921               -1.13030072               -0.03622026                0.18868385               -0.51437160
               4.42962651                4.93279632               48.51182880                1.00000000               -0.28165634               -0.50399002                1.39934630               -0.03134538                0.10326225                1.60165131
               5.42680995                4.61824416               48.33644032                0.96168383               -0.18350296               -0.17822686                0.62756738               -0.01197242                0.23942594                0.08566727
               6.42595645                4.30261371               48.16408965                0.32236665                0.04794791                0.14114689               -0.11332738               -0.16866281                1.03293895               -1.34881384
               7.42776890                3.98400267               48.00432734                0.00010000                0.50158766                0.40020278               -0.98113773               -1.37167981                4.85077645               -2.06895196
               8.43598820                3.64347671               47.90741938                0.00010000                0.84327870                0.69733273               -1.71104462               -3.35156608                8.01617874               -0.01314554
               9.44463448                3.30459451               47.81091167                0.00010000                0.57828056                1.08522310               -2.34066779               -3.82634158                8.24831348                2.31264179
              10.44755381                2.96141792               47.71938746                0.00010000               -0.17189689                1.55047243               -2.82174934               -4.26393972                9.75875222                4.69991504
              11.44119654                2.61756006               47.65467925                0.00010000               -1.34668354                1.48552322               -2.30097076               -6.18250692               13.44064488                5.30516909
              12.42062014                2.23308147               47.64448862                0.01044570               -1.12274818                1.54854449               -0.38733380               -2.62655559                8.87149896               -1.60148761
              13.41874158                1.92136985               47.50200094                0.27238425               -0.01615964                0.23554466               -0.22104325                0.24113437                1.06275921                1.21945867
              14.42029695                1.61452270               47.34219513                0.75402888                0.15553744               -0.31475343               -0.77632872                0.60525778                0.14083578               -0.18477074
               4.74210979                5.92816184               48.44691374                1.00000000               -0.21349284               -0.42286400                1.12609832               -0.05337172                0.22891381                1.24149264
               5.73997486                5.61699714               48.26471713                0.62836353               -0.12313139               -0.05761902                0.35550160               -0.05294744                0.42467022               -0.38147384
               6.73964716                5.30450724               48.08669919                0.11774557                0.08775609                0.27280895               -0.37022461               -0.23448059                1.50654508               -1.77680079
               7.74172999                4.98876978               47.92588021                0.00010000                0.41933375                0.36933670               -1.11287076               -1.33109780                7.61827221               -0.37207564
               8.74803384                4.65244945               47.86925268                0.00010000                0.58666242                0.83880033               -1.60197133               -2.45083720               12.25157843                1.41058108
               9.75346323                4.31527508               47.79927731                0.00010000                0.50687232                0.97074715               -2.11826472               -2.70822489               11.81379899                2.76923898
              10.75817129                3.97471634               47.73298257                0.00010000                0.38813463                1.02525329               -2.31363795               -3.12599841               12.54615364                3.76434513
              11.76122593                3.62441552               47.67807439                0.00010000               -0.22151641                0.74300698               -2.02576561               -3.65093579               12.93345417                3.07952485
              12.75374096                3.26224058               47.62000137                0.01396749               -1.36693805                2.33429965               -1.41905774               -2.12791845               11.85703550               -0.95429221
              13.73388717                2.92523002               47.55057789                0.23261985               -0.76318720                0.51552998               -0.38891355               -0.45950743                5.38250953                2.05424878
              14.73847721                2.60530503               47.37977310                0.72478225                0.45900482               -0.94455481               -1.08441041                0.59853939                0.21540094               -0.84283077
               5.05088846                6.92433904               48.37854541                1.00000000               -0.14828703               -0.33725443                0.86132358               -0.03965796                0.05394213                0.93290782
               6.04940559                6.61709178               48.18669234                0.46951169               -0.06971303                0.04793055                0.11642262               -0.06105061                0.42595852               -0.73948694
               7.04949420                6.30806989               48.00240917                0.03800717                0.18995723                0.43291299               -0.61005174               -0.48451047                4.27204427               -2.31232982
               8.05320474                5.99138941               47.88709235                0.00010000                0.54859769                0.28882852               -0.64119523               -1.27639714               11.24764036                2.20948633
               9.06046616                5.66025272               47.83998006                0.00010000                0.74991739                0.68550963               -1.53986237               -2.08517122               14.64770048                2.12465261
              10.06820309                5.32400946               47.78924024                0.00010000                0.77136246                0.74209633               -1.97012493               -2.36530707               14.70629763                2.98440721
              11.07589341                4.98192299               47.73989354                0.00010000                0.62252491                0.64118626               -2.15901256               -2.72874985               14.98525989                3.51545127
              12.08065359                4.63242020               47.69207456                0.00010000                0.06769328                0.75263014               -2.06671791               -2.98832213               15.03949355                3.12869301
              13.07724727                4.27976747               47.64348882                0.02601596               -0.70833024                1.32335762               -1.66224855               -2.34177148               14.77016773                2.43932408
              14.06648698                3.93168045               47.59482003                0.25355785               -0.25647774                0.58078756               -0.99202998               -0.58503778                7.27663989                1.96121257
              15.07211772                3.59563161               47.40482395                0.74642148                0.56307379               -0.42064341               -1.97552150                0.12380946                0.13063030               -1.78077694
               5.35581115                7.92141675               48.30765457                1.00000000               -0.07881476               -0.24994185                0.61321997               -0.03530061                0.01182643                0.75767109
               6.35502301                7.61795575               48.10763599                0.39651466               -0.00759115                0.11458649               -0.11145017               -0.03159843                0.31090809               -0.78953901
               7.35565933                7.31316550               47.91363786                0.00426760                0.44981038                0.54276155               -0.82476618               -0.72305611                7.59165950               -2.58387930
               8.36401921                6.99454635               47.85876792                0.00010000                0.90255182                0.40566555               -1.09479790               -1.42904893               15.33567971                1.55365334
               9.37371037                6.66615964               47.81428770                0.00010000                1.02338067                0.52531773               -1.55190471               -1.93390507               16.60535488                2.17864610
              10.38448683                6.33011700               47.77947271                0.00010000                1.07375887                0.51770825               -1.94986587               -2.26842310               17.44735792                2.96416520
              11.39518554                5.98754007               47.74605347                0.00010000                0.95640879                0.48311880               -2.16628390               -2.51738101               17.71411288                3.57357179
              12.40361500                5.63946812               47.71167878                0.00010000                0.62298701                0.56093820               -2.18694143               -2.50443348               17.60149420                3.77077657
              13.40764528                5.28870773               47.67358079                0.03870161                0.13536347                0.65061804               -1.98844232               -1.98038031               17.06423049                3.32576085
              14.40632227                4.93684577               47.62961662                0.27494959                0.27029002                0.53229670               -1.52994266               -0.60873061                8.39530168                1.49603019
              15.41305108                4.59689216               47.42090340                0.76480936                0.67288129                0.39067175               -2.62739290                0.09809602                0.14077405               -2.11740157
               5.65710444                8.91934021               48.23592097                0.97241084               -0.00795682               -0.16731547                0.37006133               -0.03602145                0.01741122                0.70763734
               6.65702488                8.61938351               48.02841228                0.38144861                0.06690228                0.16930544               -0.33404621                0.00998020                0.14008306               -0.78281586
               7.65844249                8.31892512               47.82332230                0.00010000                0.73023719                0.56334323               -1.02772099               -0.87579363                9.59315927               -2.59714637
               8.67162962                7.99950272               47.80433786                0.00010000                1.38874552                0.45818351               -1.34976276               -1.71990091               19.26380841                0.03946148
               9.68621740                7.67075907               47.78513552                0.00010000                1.49122900                0.36071693               -1.69475464               -1.99064401               19.78765025                1.69130000
              10.70145420                7.33436362               47.76819917                0.00010000                1.49886363                0.32344341               -2.02013346               -2.16520589               20.40320096                2.67294890
              11.71619467                6.99158536               47.75270475                0.00010000                1.39715251                0.33545573               -2.27534302               -2.31854943               20.73712540                3.49205774
              12.72939725                6.64363897               47.73471023                0.00010000                1.20336723                0.34265069               -2.42973512               -2.29294025               20.43559613                4.17826293
              13.74026202                6.29277983               47.70793785                0.05229120                0.83653460                0.29997131               -2.42635496               -1.81095719               18.98498929                4.18316112
              14.74612794                5.94232638               47.65944155                0.29156432                0.68624202                0.59746969               -1.97495610               -0.60393026                9.01191074                1.24617764
              15.75398686                5.60344504               47.43301534                0.77485942                0.78589158                0.78072711               -3.08706044                0.08103887                0.11949705               -2.19412748
               5.95500411                9.91807044               48.16415514                0.96136188                0.06335850               -0.08260047                0.13294683               -0.03397653                0.00582241                0.70718093
               6.95563770                9.62134186               47.94921677                0.41603888                0.15100706                0.21834062               -0.56214307                0.02818827               -0.02283938               -0.74351171
               7.95802425                9.32443236               47.73360569                0.00010000                1.10747731                0.51985146               -1.23186592               -1.08281543               11.31336971               -2.26337467
               8.97778724                9.00371002               47.74479581                0.00010000                2.05061660                0.26160203               -1.53434485               -1.95611377               22.83659410               -0.24301462
               9.99903658                8.67337398               47.74971580                0.00010000                2.12845900                0.06361972               -1.84850824               -1.87658625               23.01776051                1.10316550
              11.02035642                8.33658587               47.75315197                0.00010000                2.02513138                0.11855213               -2.14951725               -1.83517071               23.56435250                2.06949033
              12.03953921                7.99424918               47.75721869                0.00010000                1.81026547                0.23423182               -2.44343579               -1.95487580               24.12090497                2.93970352
              13.05656173                7.64632113               47.76075531                0.00010000                1.65997576                0.32458411               -2.78370970               -2.12011495               23.89452037                4.02663962
              14.07273873                7.29470716               47.75154411                0.06880993                1.35083616                0.27695566               -3.08798131               -1.68710344               20.66037336                5.70312417
              15.08357845                6.94879516               47.68686157                0.30579183                0.98479076                0.69951581               -2.35075025               -0.51408607                9.02846319                1.19772011
              16.09243454                6.61250670               47.44352525                0.77729644                0.88560875                0.98197998               -3.45168912                0.06002366                0.11088736               -2.21390533
               6.24988207               10.91768820               48.09254417                0.93958450                0.13446483                0.00616716               -0.11077082               -0.03561561               -0.00780150                0.62544634
               7.25122672               10.62375033               47.87041045                0.46618353                0.22679791                0.26563561               -0.78974676                0.01306823                0.04701738               -0.60324380
               8.25441803               10.32932215               47.64920402                0.00010000                1.61695062                0.48763570               -1.43824182               -1.43841674               12.99375453               -1.38406799
               9.28356573               10.00473476               47.68538521                0.00010000                3.06958967               -0.38613848               -1.73118863               -1.70517974               25.93367125               -0.17214076
              10.31580982                9.67203147               47.71053220                0.00010000                3.01549273               -0.28665021               -2.02863722               -1.28971949               25.93562621                0.57078313
              11.34387558                9.33673466               47.73203568                0.00010000                2.57760381               -0.07466699               -2.31873055               -1.07298875               26.54343943                1.15999260
              12.36736190                8.99627000               47.75480597                0.00010000                2.13306947                0.18816663               -2.63870975               -1.17225708               27.50863144                1.74060496
              13.38653697                8.65013065               47.78154947                0.00010000                1.83420111                0.46240069               -3.11226790               -1.47426326               28.67021571                2.63504598
              14.40404592                8.29831894               47.81470561                0.09801917                1.57548523                0.72740671               -4.16280219               -1.24111990               22.69526959                4.94489676
              15.41804668                7.95631670               47.71441951                0.32798277                1.18591672                0.78640963               -2.64676642               -0.46973463                8.01016229                1.11814418
              16.42776425                7.62308464               47.45317034                0.76765310                0.97175750                1.11350881               -3.75758717                0.03706563               -0.01720318               -1.82225395
               6.54216754               11.91819378               48.01923758                0.97909091                0.20975663                0.05055849               -0.35243956                0.07462651                0.32273567                0.53852209
               7.54426511               11.62665457               47.79361046                0.78254683                0.30519708                0.29042478               -1.02870138                0.10340393                0.74976859               -0.47977330
               8.54827148               11.33418508               47.57627877                0.47066608                2.83546105                0.48629275               -1.67566359               -2.14802068               14.72911798               -0.76893331
               9.60097433               10.99598725               47.62953016                0.36924038                4.64854033               -0.87475137               -1.97214244               -1.58634513               28.37665526               -0.24693805
              10.64124229               10.66764097               47.66811853                0.35981515                3.68418944               -0.43904940               -2.26976719               -0.50148873               28.25387555                0.17036058
              11.67465812               10.33509253               47.70273263                0.36852394                3.07278984               -0.16421332               -2.55257525               -0.40316964               28.98256649                0.49016284
              12.70269809                9.99801251               47.73953420                0.39481610                2.51847027                0.17425152               -2.86093340               -0.44255021               30.28518877                0.80594898
              13.72502752                9.65556915               47.78381816                0.44857627                1.95160973                0.54384972               -3.37151042               -0.58880600               32.27867606                1.36012059
              14.74173028                9.30925529               47.84512620                0.57039032                1.21952701                1.09363514               -4.51293146               -0.78385325               25.38874838                2.94047725
              15.74941806                8.96452335               47.73949186                0.68513963                0.89548434                0.82066582               -2.84830792               -0.58678217                9.00881327                1.02382035
              16.75963997                8.63477688               47.47053634                0.88204349                1.02219045                1.16922372               -3.95637936                0.21292380                0.87707555               -1.40579582
               3.62733958                2.03219172               49.72708466                1.00000000               -0.60018599               -0.68803221                2.37181101               -0.16420701               -1.16570203                1.06205813
               4.62133772                1.70001538               49.55605607                1.00000000               -0.51051747               -0.38855705                1.46425185               -0.09994391               -1.59406154                0.18080059
               5.61712923                1.36695838               49.37717220                1.00000000               -0.36516468               -0.10798157                0.59853463               -0.12621660               -1.64498159               -0.21509351
               6.61403443                1.03037061               49.20545551                0.69578376               -0.66643131                0.27068030               -0.25630045               -0.60639590               -0.97104751               -0.90059450
               7.60380061                0.68037781               49.04009952                0.75120307               -0.71554607                0.48637982               -0.76330491               -0.23735393               -0.28854073                0.05951868
               8.59972351                0.31988386               48.88410542                0.76737113               -0.24095873                0.63610181               -1.35630363               -0.30069330                0.30542214               -0.03119733
               9.59898143               -0.04910080               48.73514678                0.66223176                0.11403181                0.94443016               -2.02208203               -0.57868090                1.57621709               -0.41559071
              10.60200414               -0.42913980               48.61163164                0.53609642                1.39602135                1.27575340               -2.66728478               -0.21947496                4.34838128               -0.65210670
              11.62690186               -0.79511729               48.53473423                0.74116646                1.52568945                0.10444623               -0.96364679               -1.86265891                2.88710466                0.95301934
              12.63251793               -1.11708514               48.38499847                1.00000000                0.55917983                0.30996552               -1.28766693               -0.06382950               -0.38729300                0.13290280
              13.63808546               -1.43654917               48.22703023                1.00000000                0.55675234                0.57757115               -2.11714700               -0.15446002               -0.67015807               -0.43358145
               3.95787385                3.02531139               49.65499643                1.00000000               -0.49188935               -0.66180109                2.10059282               -0.00408383               -0.29387238                1.41128178
               4.95295495                2.69612981               49.48401461                1.00000000               -0.35921965               -0.35713592                1.19096364                0.05007709               -0.47294750                0.27269006
               5.95068945                2.36587856               49.31007031                1.00000000               -0.08471005               -0.07147700                0.29923439                0.01872830               -0.41187614               -0.36928951
               6.95126075                2.03307741               49.14051259                0.46329274                0.29904942                0.28034722               -0.58850779               -0.62352864                0.88599458               -1.24565037
               7.95667044                1.68524161               48.99250877                0.57412482                0.50975647                0.32023046               -1.27464612               -0.26014791                1.66503051                0.19767598
               8.96145588                1.32624488               48.84309713                0.60718575                0.55180052                0.64273108               -2.04127991               -0.33269172                1.80722635                0.02333998
               9.96770645                0.96034350               48.70028560                0.44675454                0.56808771                1.04873282               -2.95607326               -0.68256708                3.87029777               -0.77860336
              10.97281764                0.58361773               48.59291340                0.26955197               -0.77292574                1.80781925               -3.99470440               -1.23170087                9.74040294               -1.72623567
              11.95224794                0.20592718               48.56651139                0.56390285               -1.01110283                0.03042408               -1.19321919               -2.82532652                7.23401499                1.57165056
              12.95259558               -0.11398548               48.42028652                1.00000000                0.18784757                0.26002904               -0.80190393               -0.00534776                0.52315948                0.34743572
              13.95600489               -0.43077346               48.26336370                1.00000000                0.34093099                0.50083475               -1.64745884               -0.01550816                0.02980387               -0.45274790
               4.28562107                4.01895569               49.59077304                1.00000000               -0.38489741               -0.60444004                1.80060089               -0.00688857               -0.02868232                1.75613065
               5.28177210                3.69287266               49.41405125                1.00000000               -0.25324363               -0.28103999                0.91344249                0.02722041                0.05576222                0.30294681
               6.28055620                3.36552884               49.23951239                0.81021190                0.02143546                0.03318240                0.01230942               -0.06787500                0.29619599               -0.83789668
               7.28220081                3.03597755               49.06754559                0.00010000                1.24369921                0.33296035               -0.89376525               -1.07680531                2.92730195               -1.65194394
               8.30543018                2.68678242               48.94494055                0.00010000                1.78834885                0.36461535               -1.85042545               -2.17908456                3.96177955               -0.07893763
               9.31796778                2.33273848               48.80034642                0.00010000                1.12635251                0.90789732               -2.71191383               -2.60571332                2.73442756                1.44655971
              10.32795723                1.97187385               48.65379295                0.00010000                0.69093326                1.46761527               -3.58689597               -3.35790952                4.50171449                2.84265213
              11.33178645                1.60701658               48.54264302                0.00010000               -2.99793453                2.34890774               -5.02956415               -6.13443270               15.25115711                3.95151067
              12.26799854                1.20549120               48.60767780                0.20905315               -3.13374189                0.29275142               -0.13445597               -4.09286330               12.06184000                1.33765356
              13.26911161                0.88811545               48.46001164                1.00000000                0.16763519                0.12660507               -0.30515328               -0.05688677                0.81550072                0.59398924
              14.27135125                0.57346753               48.29829487                1.00000000                0.22396355                0.35225550               -1.15667852               -0.04141818                0.10700189               -0.42918253
               4.60990214                5.01322259               49.52629075                1.00000000               -0.29759186               -0.52826285                1.49522967               -0.03342856                0.10748397                1.55329446
               5.60692622                4.69050901               49.34278142                0.93145764               -0.18375366               -0.17889480                0.63617025               -0.01564542                0.25858214                0.06839581
               6.60622707                4.36654221               49.16262529                0.31125104                0.07724212                0.16091258               -0.19127878               -0.16640018                0.99617031               -1.31085228
               7.60847106                4.03973662               48.99354311                0.00010000                0.50503795                0.46027999               -1.16613795               -1.28973497                4.82903066               -1.94214218
               8.61632782                3.69253392               48.88921882                0.00010000                0.78895602                0.78579314               -1.91644837               -3.16653780                8.04937301                0.51936225
               9.62425018                3.34440282               48.78608073                0.00010000                0.49711670                1.18747371               -2.60738978               -3.87794780                8.31502058                3.14220138
              10.62627016                2.98969580               48.68933022                0.00010000               -0.38692711                1.65565538               -3.16615959               -4.69350106               10.37772098                6.03938356
              11.61651164                2.63059589               48.62962803                0.00010000               -1.84891734                1.60532490               -2.72612979               -7.93246259               15.49403672                7.54249945
              12.58929181                2.21178221               48.63941247                0.00010000               -1.65150632                2.47144829               -1.02071983               -3.47745814               11.03628097               -1.76409036
              13.58348151                1.88854662               48.50099401                0.23592623               -0.24097235                0.57186927               -0.00323766                0.37918436                1.60717416                0.86374731
              14.58447236                1.57627165               48.33467760                0.72573191                0.09908504               -0.46247855               -0.69662893                0.97339395                0.16276163               -0.52712745
               4.93037966                6.00839044               49.45854809                1.00000000               -0.22400908               -0.43814587                1.20095887               -0.05652948                0.21344803                1.20379411
               5.92813957                5.68929477               49.26820155                0.60381719               -0.11895378               -0.05139499                0.34128452               -0.05813110                0.42985216               -0.38964788
               6.92800059                5.36874709               49.08239763                0.10741901                0.11374128                0.31486839               -0.48146088               -0.23469473                1.53581382               -1.76877812
               7.93041440                5.04518315               48.91379632                0.00010000                0.47163167                0.44802672               -1.30250583               -1.20742599                7.77536110                0.13144678
               8.93743322                4.70249828               48.85211158                0.00010000                0.64162705                0.92595650               -1.82101518               -2.27386300               12.48595997                1.95254083
               9.94324694                4.35648795               48.77674243                0.00010000                0.52304621                1.08586011               -2.38145501               -2.63360816               12.17824446                3.52836787
              10.94789415                4.00498696               48.70831763                0.00010000                0.39019282                1.16588450               -2.61811333               -3.26519024               13.35925776                4.76395921
              11.95105080                3.63912308               48.65628396                0.00010000               -0.36977496                0.93212502               -2.37831793               -4.14582515               14.24640530                3.89936614
              12.94049865                3.25492016               48.60455105                0.00701055               -1.94224730                3.37121756               -1.75982788               -2.51385192               13.75705541               -0.98289419
              13.91220585                2.89955283               48.54704172                0.21247365               -1.25647926                1.21590021               -0.41175168               -0.50162021                6.60614456                1.68346478
              14.91536906                2.56421796               48.36794878                0.70675316                0.31632117               -0.93707031               -1.30489544                0.67809696                0.30291697               -1.77803349
               5.24696289                7.00445968               49.38744758                1.00000000               -0.15559424               -0.34572939                0.92033969               -0.03938456                0.04524766                0.90812199
               6.24540695                6.68948111               49.18770710                0.45218273               -0.06590519                0.05749142                0.08642022               -0.05087412                0.42870910               -0.72228202
               7.24564479                6.37283958               48.99577706                0.02874864                0.25821999                0.47474390               -0.72598524               -0.45841675                4.64576441               -2.26139967
               8.25057135                6.04869715               48.88003489                0.00010000                0.69504882                0.39789560               -0.78213919               -1.07460151               11.54129588                2.56025974
               9.25954576                5.71105305               48.82348373                0.00010000                0.92589974                0.74090335               -1.76465381               -1.84084775               14.73423614                2.57235601
              10.26908934                5.36612003               48.76834808                0.00010000                0.93927312                0.79610948               -2.21228092               -2.21132244               15.18910783                3.56422899
              11.27833122                5.01301349               48.71714071                0.00010000                0.72862978                0.70298052               -2.40399867               -2.71426846               15.78880541                4.13837764
              12.28366194                4.64923839               48.67041032                0.00010000                0.01269000                0.93731211               -2.29346403               -3.21555098               16.25320942                3.61699170
              13.27858502                4.27920656               48.62626965                0.02180584               -0.97553106                1.82084393               -1.82937461               -2.61381623               16.43061183                2.64636805
              14.26415132                3.91286463               48.58452102                0.24147909               -0.49404851                1.05712751               -1.10581823               -0.57105464                8.31032601                1.62632120
              15.26870405                3.55753025               48.38337799                0.73300073                0.45527383               -0.07677484               -2.30744510                0.14120834                0.21643328               -2.41038717
               5.55954910                8.00147585               49.31400260                1.00000000               -0.08069113               -0.25592835                0.65567203               -0.03534192                0.00906022                0.74514894
               6.55874219                7.69044459               49.10632571                0.38247003                0.00335555                0.12613099               -0.15048221               -0.01921937                0.31483407               -0.76305837
               7.55961621                7.37824197               48.90480353                0.00010000                0.59833539                0.57402657               -0.94500850               -0.64977724                7.81962809               -2.51503353
               8.57070890                7.05314106               48.84674942                0.00010000                1.17885908                0.49059686               -1.31277022               -1.22236907               15.71956003                1.52724095
               9.58319339                6.71731635               48.79772460                0.00010000                1.31755727                0.53694853               -1.77058420               -1.71054425               16.97262879                2.49408653
              10.59706004                6.37241014               48.75893611                0.00010000                1.36485095                0.50443876               -2.16918786               -2.07398106               17.97960717                3.37412250
              11.61049041                6.01904657               48.72353633                0.00010000                1.17433357                0.49357852               -2.35388022               -2.40351567               18.51162108                3.97662331
              12.62054672                5.65786932               48.68930951                0.00010000                0.70528363                0.67170364               -2.31482141               -2.51959537               18.71153446                4.04720525
              13.62459609                5.29133704               48.65359781                0.03638033                0.09571761                0.88916912               -2.04990197               -2.13400538               18.51711288                3.34704577
              14.62246107                4.92069538               48.61393009                0.26767082                0.21329501                0.72301258               -1.60494062               -0.66508091                9.26121026                1.28138977
              15.62886199                4.56268246               48.39325689                0.75412964                0.64009190                0.69463526               -2.85598880                0.12576516                0.17089226               -2.33851925
               5.86831856                8.99934111               49.23977760                0.96541196               -0.00621164               -0.17358866                0.40223537               -0.03793333                0.02072136                0.70178761
               6.86825644                8.69200373               49.02482755                0.36820600                0.08171065                0.18508109               -0.38363663                0.01925799                0.15115196               -0.75700138
               7.86995277                8.38432011               48.81245282                0.00010000                0.93965690                0.59716886               -1.15175267               -0.81307225                9.80172484               -2.52758389
               8.88704958                8.05850909               48.78991087                0.00010000                1.80565127                0.45880705               -1.54332825               -1.57139366               19.68170879                0.15554574
               9.90606580                7.72179202               48.76716172                0.00010000                1.94149591                0.30565512               -1.91251591               -1.82172063               20.26196903                1.90858700
              10.92587950                7.37620880               48.74707962                0.00010000                1.93679661                0.23796292               -2.21843769               -1.96650354               20.99336689                2.96350032
              11.94480173                7.02288507               48.72936301                0.00010000                1.75500312                0.26680732               -2.40938346               -2.11615224               21.49900771                3.75362798
              12.96097956                6.66267246               48.71042816                0.00010000                1.41385654                0.34646859               -2.45036121               -2.15201245               21.42046319                4.27787862
              13.97307886                6.29698994               48.68435640                0.05101386                0.92623592                0.41003860               -2.32689429               -1.91371573               20.29989183                4.01821412
              14.97950428                5.92732488               48.63937890                0.28758952                0.70831710                0.68319097               -2.01337315               -0.72293527                9.80034705                1.09561234
              15.98724520                5.57142295               48.40121127                0.76587886                0.77409228                0.93787460               -3.20997991                0.08658140                0.11820217               -2.26443555
               6.17346519                9.99800408               49.16558715                0.95551153                0.06831605               -0.08845548                0.15535650               -0.03487171                0.00525600                0.70198176
               7.17414835                9.69414622               48.94330817                0.40306522                0.16921094                0.23789581               -0.62105755                0.03451724               -0.00811359               -0.72137910
               8.17684941                9.39018534               48.72066407                0.00010000                1.38303820                0.55685125               -1.36027055               -1.07520110               11.53345109               -2.20109515
               9.20180912                9.06231720               48.72855551                0.00010000                2.61049307                0.18066576               -1.72471436               -1.89253182               23.28433369               -0.11828661
              10.22905927                8.72342945               48.73025474                0.00010000                2.74139052               -0.08283727               -2.05867244               -1.76222119               23.53927506                1.27941073
              11.25663693                8.37716940               48.73082216                0.00010000                2.63222183               -0.05076283               -2.33141781               -1.65773194               24.18453568                2.27676864
              12.28170371                8.02438272               48.73239559                0.00010000                2.33823334                0.06105644               -2.53057953               -1.71948291               24.82954394                3.11445857
              13.30340159                7.66479870               48.73352615                0.00010000                1.99828243                0.18068447               -2.66547795               -1.85324697               24.71400307                4.03511283
              14.32166936                7.29953781               48.72282277                0.06726472                1.50838782                0.24225345               -2.68367867               -1.66710465               21.92181861                5.24540473
              15.33356935                6.93435920               48.66306599                0.30449455                1.03640539                0.74082339               -2.36907414               -0.65134811                9.85977784                1.09130442
              16.34239746                6.58143995               48.40838096                0.76979742                0.88281153                1.04457624               -3.50312429                0.06091945                0.09511677               -2.25024010
               6.47533684               10.99757200               49.09148394                0.93252578                0.14286770                0.00233987               -0.09945300               -0.03680691               -0.00506160                0.61717642
               7.47676552               10.69676165               48.86217829                0.45118924                0.24704594                0.28772105               -0.85796629                0.01521380                0.06772004               -0.58714764
               8.48027776               10.39545713               48.63416271                0.00010000                1.95946571                0.52768606               -1.57423445               -1.52748613               13.21631892               -1.34172411
               9.51595483               10.06212240               48.66716544                0.00010000                3.78457073               -0.57976993               -1.92451423               -1.73113653               26.39603388               -0.09461107
              10.55596918                9.72013527               48.68928057                0.00010000                3.79083802               -0.51120565               -2.23712208               -1.23251443               26.48927436                0.67780332
              11.59177159                9.37519354               48.70805417                0.00010000                3.34068000               -0.32118577               -2.49100572               -0.95760614               27.19342047                1.28340857
              12.62278278                9.02410619               48.72815157                0.00010000                2.84939664               -0.08669167               -2.69333410               -1.01072493               28.19847784                1.84500446
              13.64875953                8.66628615               48.75134621                0.00010000                2.36967434                0.15224159               -2.89559058               -1.23534438               29.20562197                2.62152501
              14.67017626                8.30183501               48.77748854                0.09495750                1.79078257                0.44209716               -3.23310357               -1.11687735               23.96644288                4.50460034
              15.68457518                7.94214134               48.68757669                0.33025422                1.20629137                0.80762375               -2.67200303               -0.52880175                9.09070153                1.06022605
              16.69430209                7.59231448               48.41515104                0.76201701                0.97269117                1.13129653               -3.76343899                0.04140716               -0.05298428               -1.83678979
               6.77434976               11.99805087               49.01570052                0.97470564                0.22177373                0.04788744               -0.35267692                0.08626779                0.31356252                0.52983488
               7.77656749               11.69990064               48.78293203                0.77410762                0.32945867                0.31389907               -1.10777985                0.11460693                0.75677272               -0.46915089
               8.78093893               11.40073906               48.55878990                0.46772930                3.29703757                0.52819318               -1.82681430               -2.39282478               14.93591816               -0.74316154
               9.84250825               11.05072181               48.60884382                0.36912050                5.51994568               -1.14005982               -2.17517672               -1.72134511               28.83242222               -0.21468196
              10.89133784               10.71320534               48.64441181                0.35988031                4.55028180               -0.69299321               -2.48400314               -0.46193929               28.81790498                0.21994082
              11.93351388               10.37074569               48.67638474                0.36830360                3.95293791               -0.44478571               -2.72552936               -0.35359409               29.66769501                0.54629606
              12.97039660               10.02264889               48.71064376                0.39383946                3.37260047               -0.14573088               -2.91037400               -0.38372537               31.01834011                0.84766382
              14.00096589                9.66784353               48.75113952                0.44104917                2.65400068                0.15573775               -3.11661610               -0.49282014               32.81519019                1.31382560
              15.02347662                9.30837976               48.80424558                0.56861720                1.57739769                0.65447479               -3.52234289               -0.53655744               26.67924804                2.65700573
              16.03251384                8.95051168               48.71041950                0.68791494                0.97013636                0.83703307               -2.91160628               -0.42182716               10.15629287                0.97683463
              17.04287934                8.60406588               48.43047438                0.87978874                1.03654980                1.17514042               -3.97005926                0.21314577                0.84274940               -1.42850019
               3.79147322                2.11607018               50.75159641                1.00000000               -0.63383727               -0.73081290                2.52443032               -0.18337465               -1.11332223                1.02035909
               4.78513485                1.77519001               50.57098957                1.00000000               -0.53323401               -0.40000060                1.51742055               -0.11697971               -1.51172119                0.17140478
               5.78080854                1.43340190               50.38302293                1.00000000               -0.36695682               -0.08877718                0.56474747               -0.14368974               -1.52091048               -0.21627008
               6.77779571                1.08805465               50.20233914                0.69203194               -0.69256932                0.32548633               -0.37883119               -0.55307386               -0.62246794               -0.88463932
               7.76695715                0.73090485               50.03190013                0.73935247               -0.84045880                0.62829401               -0.92556886               -0.24661575                0.31660314                0.01334546
               8.76098653                0.36399478               49.86982933                0.74794450               -0.50045855                0.79432160               -1.58395818               -0.30800166                0.95661436               -0.05601348
               9.75694798               -0.01325898               49.71400669                0.62988977               -0.55212796                1.19544508               -2.34184421               -0.81588689                2.35701214               -0.35284582
              10.74994397               -0.40937279               49.58323429                0.45493511                0.50649738                1.90335757               -3.18809846               -1.08944569                6.38997419               -0.28535007
              11.76707793               -0.81446252               49.52142867                0.39952652                1.84282338                0.38531124               -2.23452773               -2.22812152                2.96045389                2.05277766
              12.78680044               -1.15278139               49.37032276                1.00000000                1.34502023                0.29735460               -1.54789817               -0.53571391                0.24767404                0.26134136
              13.79397833               -1.47913032               49.20472497                1.00000000                0.71778916                0.62720440               -2.31883602               -0.27022376               -0.43102251               -0.34314960
               4.13051964                3.10876205               50.67672211                1.00000000               -0.52204515               -0.70001236                2.23935865               -0.00574968               -0.27893847                1.35683737
               5.12529919                2.77119001               50.49613711                1.00000000               -0.37901586               -0.36681042                1.22984463                0.05124176               -0.44361493                0.26227351
               6.12293932                2.43251413               50.31281942                1.00000000               -0.08928443               -0.05152569                0.24733013                0.02597427               -0.36670913               -0.36274706
               7.12351350                2.09130952               50.13391482                0.47364244                0.17908051                0.33208375               -0.73607143               -0.49887959                1.06401222               -1.22109612
               8.12652093                1.73718779               49.97913589                0.57795485                0.32374670                0.46545717               -1.43026804               -0.21184554                1.93593250                0.12472203
               9.12998843                1.37193800               49.82186658                0.59979715                0.44759835                0.77617148               -2.25746062               -0.28557109                1.94886360                0.03074175
              10.13547290                0.99869547               49.66933959                0.42187091                0.48314267                1.23871464               -3.29618551               -0.75359345                3.78119107               -0.51473359
              11.13965128                0.60966078               49.54962345                0.18599788               -0.94859419                2.31967131               -4.74935891               -2.57854714               11.34913102               -0.92076053
              12.11650101                0.18939059               49.54887804                0.25470186               -1.29370411               -0.02078968               -4.05003775               -4.62982648               11.05839101                4.77674824
              13.11377720               -0.14980785               49.41217224                1.00000000                0.05620042                0.22364082               -0.84379827               -0.64253279                1.46689863                0.44240880
              14.11762502               -0.47285827               49.24616476                1.00000000                0.38478192                0.54164305               -1.76119968               -0.09139146                0.03449475               -0.34643849
               4.46650231                4.10206993               50.60938645                1.00000000               -0.40947113               -0.63374428                1.91907485               -0.00785264               -0.02294772                1.68657963
               5.46240760                3.76785380               50.42331108                1.00000000               -0.26468984               -0.28641116                0.93553958                0.03246576                0.05651552                0.29098367
               6.46120851                3.43237139               50.23929701                0.81889126                0.03684302                0.04986487               -0.05671014               -0.04893119                0.28440965               -0.78271332
               7.46314446                3.09469633               50.05774149                0.00010000                1.04416237                0.37997917               -1.06124794               -0.89574530                2.91674644               -1.58789600
               8.48209176                2.74021399               49.92586289                0.00010000                1.53114858                0.47525721               -1.97037245               -1.86305062                3.86155799                0.08516353
               9.49376743                2.37951821               49.77235382                0.00010000                1.10307813                0.95522706               -2.91160811               -2.39318114                2.55580789                1.87914134
              10.50415332                2.01151531               49.61650199                0.00010000                0.69552373                1.44927201               -3.93004441               -3.32047685                4.04703125                3.83780436
              11.50767791                1.63702064               49.49185246                0.00010000               -3.51016470                2.25541647               -5.36913011               -8.25249386               17.79601974                6.33986270
              12.43395003                1.18512169               49.60622706                0.17565989               -3.57396252                0.57679144               -0.59025622               -6.59252178               15.37955163                3.51408138
              13.43619865                0.85169142               49.45741418                1.00000000                0.21506659                0.07112837               -0.27149402               -0.57882136                1.13584060                0.53880758
              14.43825136                0.53170254               49.28669418                1.00000000                0.20527061                0.35922582               -1.12744656               -0.07088974                0.03699075               -0.31507324
               4.79879484                5.09608716               50.54173340                1.00000000               -0.31477957               -0.54945202                1.59229255               -0.03406187                0.11212278                1.49078364
               5.79564704                4.76546178               50.34916373                0.90399009               -0.18383334               -0.17876497                0.63824381               -0.01304797                0.27840538                0.04911374
               6.79511817                4.43351143               50.16026407                0.29927825                0.10544725                0.18042584               -0.28379449               -0.14962637                0.96009627               -1.25315855
               7.79775599                4.09890910               49.98100459                0.00010000                0.46599319                0.51053000               -1.33667298               -1.12198488                4.84600867               -1.79365060
               8.80443804                3.74669293               49.86909041                0.00010000                0.65337508                0.85106817               -2.10083550               -2.75756937                8.14995674                1.00393358
               9.81082349                3.39104254               49.75876388                0.00010000                0.35614494                1.20284407               -2.84195877               -3.59786903                8.44274392                3.95136659
              10.81156093                3.02768091               49.65606427                0.00010000               -0.49142298                1.53348627               -3.46097343               -4.73059170               11.04198955                7.42712956
              11.80099503                2.65476911               49.60015665                0.00010000               -2.07905730                1.22999596               -3.15119186               -9.22558882               17.28590901                9.96683701
              12.76997979                2.20092642               49.62407423                0.00010000               -2.26875540                3.53019111               -2.20070731               -4.94900568               13.99037482               -0.75998428
              13.75561992                1.85161472               49.50193619                0.20051019               -0.68973988                1.18404393                0.15009675               -0.00932561                2.78698862                0.26869642
              14.75618499                1.53432624               49.32826255                0.69392004                0.05650691               -0.53292868               -0.56408523                1.49465546                0.17245115               -1.08358129
               5.12707183                6.09108089               50.47093291                1.00000000               -0.23494590               -0.45200957                1.27683339               -0.05626222                0.19652210                1.15893354
               6.12472237                5.76427850               50.27154282                0.57716200               -0.11515822               -0.04698975                0.32594330               -0.05488693                0.43107532               -0.39704703
               7.12476867                5.43597990               50.07706997                0.09594321                0.14004410                0.34622841               -0.58488668               -0.22040217                1.55782382               -1.73670535
               8.12752326                5.10490693               49.89983010                0.00010000                0.50191330                0.53662057               -1.48564240               -1.00882740                7.96414148                0.67527833
               9.13480693                4.75723535               49.83283238                0.00010000                0.66494086                0.96969417               -2.02990459               -1.94660893               12.77887537                2.47203577
              10.14082207                4.40357509               49.75164821                0.00010000                0.55039887                1.10289093               -2.62480207               -2.37727720               12.59699006                4.28451820
              11.14581491                4.04218504               49.68062030                0.00010000                0.45492705                1.08954633               -2.90409000               -3.19540979               14.19680992                5.83274656
              12.14992061                3.66162055               49.63050803                0.00010000               -0.38453023                0.84826834               -2.76301070               -4.54328614               15.60170370                4.97978222
              13.13812431                3.25572551               49.58480481                0.00010000               -2.36541452                4.13608196               -2.12486084               -3.22396155               15.96823758               -0.28778150
              14.10261232                2.87537230               49.54234285                0.19260521               -1.77014394                2.28518855               -0.71016725               -0.73581526                8.24124044                1.33300314
              15.10272143                2.52104397               49.35367519                0.68788966                0.01091050               -0.61052473               -1.64549543                0.69453870                0.51790652               -2.80663169
               5.45127437                7.08704697               50.39695220                1.00000000               -0.16240772               -0.35455914                0.98093295               -0.03878254                0.03444134                0.88044818
               6.44965029                6.76452199               50.18842074                0.43270487               -0.05963307                0.06478170                0.05627362               -0.04072921                0.42821050               -0.70223196
               7.45008170                6.44043600               49.98788947                0.01873242                0.33368505                0.51045834               -0.85129853               -0.40104816                5.05464263               -2.20541306
               8.45632399                6.10964151               49.87144957                0.00010000                0.83779945                0.51541286               -0.96136186               -0.81915483               11.88447188                2.91780099
               9.46683769                5.76608682               49.80468699                0.00010000                1.10021371                0.75640141               -1.99537158               -1.51859195               14.86545420                2.99995408
              10.47832826                5.41310036               49.74499462                0.00010000                1.13847908                0.76464073               -2.45827849               -1.95849062               15.74194460                4.13486121
              11.48960728                5.04947184               49.69181357                0.00010000                0.91302841                0.63325953               -2.66155010               -2.60681128               16.67436363                4.80258797
              12.49658883                4.67173448               49.64620528                0.00010000                0.10707668                0.93869113               -2.54951787               -3.39800885               17.58914042                4.25658366
              13.49174881                4.28364806               49.60690133                0.01772904               -1.05018367                2.09181954               -2.08153156               -2.95866671               18.28698939                3.09052294
              14.47558516                3.89731849               49.57270366                0.22970370               -0.65081879                1.61216869               -1.31893984               -0.61286225                9.49946542                1.41738749
              15.47873243                3.52211575               49.35867505                0.71906469                0.31472743                0.56222616               -2.64185601                0.23442057                0.39566393               -2.77759838
               5.77134615                8.08398971               50.32076801                0.99237840               -0.08273848               -0.26277795                0.70083073               -0.03432701                0.01281267                0.73210244
               6.77051877                7.76557414               50.10462635                0.36766045                0.01410162                0.13695176               -0.19051711               -0.00391167                0.32344305               -0.73344315
               7.77162818                7.44618907               49.89473769                0.00010000                0.74852870                0.60384508               -1.07445025               -0.55234961                8.04553005               -2.43900723
               8.78548934                7.11521518               49.83251252                0.00010000                1.46740339                0.55830168               -1.53610883               -0.97973908               16.12983080                1.47997196
               9.80097625                6.77236338               49.77887602                0.00010000                1.63889510                0.51569277               -2.00844377               -1.44484736               17.40939140                2.79135336
              10.81826724                6.41886791               49.73608895                0.00010000                1.70341558                0.43236132               -2.41034408               -1.83605903               18.58986731                3.76523993
              11.83504456                6.05485023               49.69897586                0.00010000                1.47584846                0.41634100               -2.57269857               -2.26272584               19.41175396                4.39273353
              12.84778421                5.68039438               49.66538235                0.00010000                0.91611997                0.66227083               -2.49450490               -2.55320130               19.94699501                4.39796132
              13.85336696                5.29756190               49.63258275                0.03488404                0.20515920                1.01355445               -2.18603754               -2.36091984               20.10003085                3.50845579
              14.85188739                4.90761568               49.59751780                0.26104193                0.22241848                0.88921197               -1.68672030               -0.77892820               10.19306458                1.18152850
              15.85781533                4.53228849               49.36378362                0.74287674                0.59279366                1.04582574               -2.99363790                0.16496786                0.22273230               -2.28210841
               6.08741896                9.08179141               50.24396568                0.95837410               -0.00462735               -0.17929882                0.43877952               -0.03698704                0.02615965                0.69918347
               7.08737269                8.76726102               50.02073955                0.35511830                0.09873509                0.19947015               -0.43634651                0.03006114                0.16634883               -0.72838059
               8.08939367                8.45251290               49.80028725                0.00010000                1.15911032                0.62557487               -1.28321604               -0.73178620               10.02051461               -2.45071131
               9.11055490                8.12080754               49.77347130                0.00010000                2.24471799                0.44372638               -1.75272834               -1.38591608               20.12003898                0.27701916
              10.13428803                7.77640067               49.74688521                0.00010000                2.42826715                0.22399797               -2.15474180               -1.62403875               20.78561723                2.10456264
              11.15912024                7.42174758               49.72383042                0.00010000                2.42691308                0.11393980               -2.44812490               -1.74814865               21.66477349                3.23019785
              12.18282629                7.05779866               49.70451708                0.00010000                2.18464458                0.14497846               -2.58182938               -1.91930779               22.37857275                4.01535768
              13.20281313                6.68497990               49.68570301                0.00010000                1.72414125                0.28554804               -2.52558084               -2.06245483               22.54718601                4.45904081
              14.21730911                6.30391915               49.66139997                0.05158274                1.12334365                0.44606053               -2.30261821               -2.08044309               21.66922556                4.06997394
              15.22528000                5.91510273               49.61917409                0.28498789                0.76885238                0.74038953               -2.01165648               -0.87792322               10.56462286                1.01867723
              16.23268616                5.54303226               49.36881574                0.75661750                0.74061553                1.06368210               -3.21114178                0.08753315                0.12437011               -2.14343760
               6.39966719               10.08040373               50.16726227                0.94986294                0.07313140               -0.09365307                0.18073766               -0.03536022                0.00431714                0.69860547
               7.40039850                9.76956354               49.93679562                0.38931019                0.18893740                0.25612442               -0.68168489                0.04132467                0.01260387               -0.69547713
               8.40344594                9.45870057               49.70640028                0.00010000                1.67423702                0.59244685               -1.49553762               -1.05551214               11.76671033               -2.13168351
               9.43388324                9.12408971               49.71030152                0.00010000                3.20547500                0.08733395               -1.93667415               -1.80217873               23.74864826                0.00144379
              10.46755544                8.77684334               49.70854235                0.00010000                3.40115202               -0.24851029               -2.29915476               -1.62622277               24.10229673                1.43905775
              11.50190628                8.42114670               49.70652361                0.00010000                3.29353271               -0.24536653               -2.54710152               -1.46703982               24.88391549                2.46089521
              12.53342609                8.05774980               49.70660710                0.00010000                2.92541670               -0.14383670               -2.64870977               -1.49141232               25.68911020                3.28641940
              13.56041462                7.68610534               49.70744575                0.00010000                2.41045868               -0.00160550               -2.57954858               -1.63836848               25.75995825                4.13479361
              14.58163526                7.30648311               49.69787054                0.06882991                1.74006009                0.15344914               -2.34896679               -1.69233404               23.13340500                5.21148007
              15.59521582                6.92242347               49.63948008                0.30537595                1.10358345                0.75324889               -2.31650650               -0.80013886               10.50414634                1.02332197
              16.60370693                6.55356213               49.37346276                0.76222333                0.84911140                1.06115831               -3.41630452                0.05735178                0.08197783               -2.15178654
               6.70839214               11.07991835               50.09055511                0.92475903                0.15102063               -0.00232116               -0.08446954               -0.03805472               -0.00181054                0.60979135
               7.70990234               10.77238351               49.85325112                0.43533577                0.26825563                0.31002615               -0.92818117                0.01780814                0.09478230               -0.56802571
               8.71375725               10.46436183               49.61771933                0.00010000                2.32331018                0.56834451               -1.71838375               -1.60985846               13.45387363               -1.29773431
               9.75636855               10.12255422               49.64689493                0.00010000                4.54746647               -0.78764356               -2.14040287               -1.74068736               26.87504292               -0.01883793
              10.80470658                9.77143047               49.66578976                0.00010000                4.62522207               -0.75330198               -2.47675401               -1.16049681               27.08071380                0.77487548
              11.84887299                9.41684025               49.68221557                0.00010000                4.16664120               -0.58946985               -2.69397403               -0.83173788               27.92121644                1.39163190
              12.88803940                9.05492192               49.70093929                0.00010000                3.62197278               -0.38841921               -2.76472206               -0.85042217               29.06326821                1.94393379
              13.92131245                8.68494779               49.72363765                0.00010000                2.95524485               -0.19231426               -2.66128842               -1.03094507               30.19418706                2.67422665
              14.94714430                8.30698813               49.75004354                0.09680329                2.04428799                0.11991022               -2.30154626               -1.01900407               25.08101797                4.43090044
              15.96219820                7.93016771               49.66097945                0.33561756                1.22057800                0.79754804               -2.60379431               -0.58167000                9.66847354                1.00490831
              16.97155586                7.56425543               49.37790156                0.75672500                0.93576565                1.09990327               -3.61780364                0.04268498               -0.08098438               -1.76199217
               7.01397577               12.08035731               50.01218404                0.97005293                0.23354075                0.04389563               -0.34867295                0.09903930                0.30488716                0.52215065
               8.01631118               11.77576406               49.77145487                0.76548692                0.35511404                0.33805530               -1.18881236                0.12639136                0.76729888               -0.45647885
               9.02107806               11.47006746               49.53974248                0.46489920                3.78448413                0.57056249               -1.98302266               -2.63928068               15.15832733               -0.72022152
              10.09200086               11.10833684               49.58602662                0.36899583                6.44907082               -1.42173818               -2.39716153               -1.85127615               29.31174894               -0.17551424
              11.15005947               10.76177730               49.61843847                0.35997847                5.48896025               -0.96531627               -2.72240039               -0.41368766               29.42593442                0.27167494
              12.20178007               10.40935730               49.64822204                0.36805597                4.91253200               -0.74829470               -2.91817078               -0.29908654               30.43195764                0.60383283
              13.24831011               10.04998141               49.68132672                0.39279357                4.29747168               -0.49405101               -2.95946589               -0.32784184               31.93000049                0.90024645
              14.28772950                9.68225905               49.72148584                0.43549862                3.38625743               -0.26887346               -2.81600892               -0.41329892               33.83257920                1.33346567
              15.31603526                9.30888132               49.77467935                0.57001995                1.92928112                0.18931820               -2.41072707               -0.30513528               27.75521120                2.61750447
              16.32631513                8.93837443               49.68125974                0.69251803                1.01749675                0.82067187               -2.86375048               -0.25436376               10.67534134                0.91436477
              17.33638520                8.57556020               49.39113516                0.87789286                1.00700698                1.13047714               -3.82037069                0.20151057                0.79302832               -1.38575273
               3.96628682                2.20234749               51.77757326                1.00000000               -0.66100448               -0.76893870                2.66081534               -0.20208086               -1.04916020                0.97256420
               4.95967678                1.85314840               51.58640448                1.00000000               -0.54626845               -0.40946317                1.55867650               -0.13451601               -1.41077949                0.16134273
               5.95536145                1.50304001               51.38846715                1.00000000               -0.34844483               -0.06904640                0.51659931               -0.15948597               -1.37393364               -0.21448349
               6.95270788                1.14952647               51.19787889                0.68617984               -0.63594868                0.37266678               -0.52467298               -0.49167697               -0.24244439               -0.86512945
               7.94264248                0.78617319               51.02158815                0.72331639               -0.79793242                0.76001017               -1.19598853               -0.26238236                0.98037197               -0.01096870
               8.93674923                0.41468911               50.85242626                0.71837617               -0.49628788                0.96461208               -2.00321192               -0.30181242                1.71552555               -0.08762930
               9.93271672                0.03317649               50.68830990                0.57674710               -0.71837931                1.43770418               -2.97871790               -0.83004329                3.36383143               -0.30525910
              10.92238164               -0.36762512               50.54786967                0.33587660               -1.68471235                2.42094698               -4.31245033               -2.31883067                8.97006069                0.12539712
              11.89902247               -0.80896046               50.49004368                0.12922770                1.58967359                2.56242109               -3.72076802               -0.21215878                6.16713497                2.50126389
              12.95417512               -1.19555728               50.35404051                1.00000000                3.08190493                0.33285500               -1.62244075               -2.81939285                1.73910604                0.30632004
              13.96066057               -1.52629174               50.18065351                1.00000000                0.64854553                0.66203012               -2.41802956               -0.26852801               -0.18786273               -0.24947585
               4.31346510                3.19465810               51.69978360                1.00000000               -0.54797419               -0.73357426                2.36406050               -0.00913081               -0.25666457                1.29560753
               5.30798535                2.84905377               51.50861150                1.00000000               -0.39437684               -0.37413458                1.25954704                0.05032610               -0.40073183                0.25031776
               6.30557756                2.50234955               51.31501692                1.00000000               -0.08804167               -0.03050489                0.18817077                0.03259448               -0.30457253               -0.35452340
               7.30622452                2.15325314               51.12579116                0.47926175                0.09298881                0.38016978               -0.89189916               -0.36571404                1.29464479               -1.19313263
               8.30743734                1.79377329               50.96390341                0.57297828                0.20024685                0.61789925               -1.66349106               -0.17556845                2.34086192                0.07136415
               9.31022946                1.42433523               50.79794792                0.57575550                0.40680326                0.93674483               -2.59889480               -0.22620779                2.25380303                0.00281078
              10.31557340                1.04755353               50.63436189                0.36880205                0.50161754                1.43643880               -3.78761654               -0.55341923                3.80843042               -0.37314527
              11.32026181                0.65658435               50.49792623                0.06184127               -0.23532173                2.54528799               -5.65826685               -2.76448220               11.61107258               -0.22253607
              12.31086697                0.21666375               50.48551064                0.00010000               -1.78074903                0.47685454               -7.89333340               -6.89038488               15.58900468               10.21169175
              13.28464683               -0.19222873               50.40341056                1.00000000               -1.10786097                0.23424656               -0.92584994               -3.95745015                4.65437685                0.43575757
              14.28870975               -0.51967144               50.22813971                1.00000000                0.40629186                0.56800055               -1.80664026               -0.10074575                0.01425685               -0.23294499
               4.65731286                4.18767600               51.62915454                1.00000000               -0.43210101               -0.65831503                2.02847177               -0.01008733               -0.01155091                1.60795360
               5.65299185                3.84566571               51.43276205                1.00000000               -0.27494427               -0.28971143                0.95087435                0.03661043                0.06803994                0.27526227
               6.65181398                3.50242991               51.23837818                0.82400439                0.04890019                0.06782630               -0.12812953               -0.02626365                0.28820289               -0.73150912
               7.65396986                3.15712986               51.04632063                0.00010000                0.81175209                0.42609328               -1.21789617               -0.67791820                2.99000324               -1.51771420
               8.66804902                2.79853117               50.90553310                0.00010000                1.22374909                0.59349027               -2.13393983               -1.47877659                3.98103292                0.21040544
               9.67844484                2.43342400               50.74211426                0.00010000                1.06750975                0.99002698               -3.17754981               -2.03620834                2.57050661                2.23696775
              10.68939921                2.06190526               50.57519206                0.00010000                0.97684679                1.32832776               -4.40186708               -2.99997926                3.81719285                4.71150452
              11.69798177                1.68328064               50.43526042                0.00010000               -3.96856783                1.73463584               -5.64054230               -9.36852865               20.52268711                8.66707173
              12.61002786                1.20057663               50.59587268                0.14365821               -4.33102349                0.06705088               -3.23245699              -10.88500950               18.94722695                7.32670070
              13.61136130                0.80912765               50.45458176                0.92414342                0.17516038                0.06103056               -0.32501380               -3.25611128                1.91137059                0.45575007
              14.61353106                0.48506827               50.27574594                1.00000000                0.21697608                0.36452281               -1.12369361               -0.07799145                0.05265405               -0.20819565
               4.99728393                5.18149180               51.55813660                1.00000000               -0.33202783               -0.56628517                1.68493726               -0.03435397                0.11911639                1.41909651
               5.99396365                4.84325954               51.35554630                0.87585907               -0.18478985               -0.17844490                0.63666293               -0.00767778                0.30202301                0.02553560
               6.99358813                4.50370607               51.15694940                0.28632372                0.13006222                0.19788365               -0.37926532               -0.12143650                0.93913421               -1.19788044
               7.99656490                4.16177500               50.96680965                0.00010000                0.39897655                0.55569360               -1.50045280               -0.90490071                4.92101008               -1.63800801
               9.00156766                3.80564310               50.84720211                0.00010000                0.47831529                0.89056251               -2.27990639               -2.22478169                8.35720198                1.39416565
              10.00613120                3.44413577               50.72924156                0.00010000                0.20747570                1.12617849               -3.06765721               -3.12845168                8.71383419                4.65837126
              11.00571718                3.07412008               50.62011075                0.00010000               -0.59556700                1.19936661               -3.69242066               -4.46436946               11.84471046                8.70984436
              11.99421986                2.69127707               50.56660420                0.00010000               -1.91987064                0.46947282               -3.61784814               -9.75983591               18.74631492               12.26080836
              12.96731977                2.21800477               50.59539832                0.00010000               -2.95934499                3.28803977               -3.12564405               -7.21422360               17.39373621                0.62498277
              13.93503296                1.80899188               50.50399594                0.15846516               -1.60255487                2.31588868                0.23982187               -1.67933877                4.71702021               -0.65821001
              14.93526867                1.48761902               50.32339590                0.65797089                0.02357058               -0.36977246               -0.48534786                2.33928698                0.23698443               -1.99082543
               5.33309030                6.17635030               51.48408476                1.00000000               -0.24662725               -0.46291310                1.35267222               -0.05381282                0.18014358                1.10744560
               6.33062402                5.84209681               51.27472042                0.55083518               -0.11102542               -0.04533018                0.30805314               -0.04462355                0.43589875               -0.40654860
               7.33086979                5.50638759               51.07069989                0.08376058                0.16553977                0.36787602               -0.69165625               -0.18662004                1.59313473               -1.70406971
               8.33393482                5.16824374               50.88408348                0.00010000                0.51614161                0.62978750               -1.65594296               -0.75733980                8.19334394                1.21988423
               9.34119262                4.81634242               50.81151348                0.00010000                0.67319986                0.96826989               -2.23718873               -1.52770200               13.15522139                2.90868330
              10.34739882                4.45594757               50.72424639                0.00010000                0.58889523                1.01203688               -2.85027168               -1.98896905               13.11416286                4.92916720
              11.35297052                4.08589259               50.65023583                0.00010000                0.57507744                0.82948059               -3.16653235               -2.91934078               15.11145238                6.76441643
              12.35890037                3.69267010               50.60102374                0.00010000               -0.24709765                0.41093366               -3.09233833               -4.67090213               17.08192840                5.98006825
              13.34802857                3.26633743               50.56205383                0.00010000               -2.53700429                3.76171502               -2.43039245               -4.33590042               18.28819324                0.79870670
              14.30816028                2.85544542               50.53283837                0.16944209               -2.24830251                3.85227738               -1.44981903               -1.06653310               10.16949109                0.98724843
              15.30306252                2.47767282               50.33503887                0.66754188               -0.50977580                0.21254142               -2.29908230                0.69303477                1.12959174               -3.87244059
               5.66471465                7.17223354               51.40706623                1.00000000               -0.16807502               -0.36229395                1.04133931               -0.03814058                0.02414003                0.85043258
               6.66303390                6.84235294               51.18883257                0.41298754               -0.05029171                0.06800548                0.02584825               -0.02762978                0.42681800               -0.68162109
               7.66370881                6.51106359               50.97875109                0.00834367                0.42146845                0.53382277               -0.97683284               -0.31056635                5.46813963               -2.14910504
               8.67146326                6.17437075               50.86080765                0.00010000                0.98004888                0.62375181               -1.19877721               -0.54113647               12.26477296                3.24870101
               9.68330979                5.82500849               50.78357630                0.00010000                1.26691937                0.73013869               -2.22930831               -1.16910405               15.07085195                3.35200385
              10.69680165                5.46437650               50.71918251                0.00010000                1.36490259                0.64657871               -2.70882711               -1.64700373               16.37589526                4.60069569
              11.71060784                5.09070969               50.66390971                0.00010000                1.17776663                0.41525677               -2.92255137               -2.42095978               17.64866700                5.35844764
              12.72035698                4.69949574               50.61941996                0.00010000                0.36092951                0.68303638               -2.81431321               -3.52456302               19.00264619                4.83379382
              13.71782643                4.29323907               50.58463902                0.01282826               -0.89950390                2.03350453               -2.39484049               -3.35128174               20.21477628                3.48101117
              14.70236691                3.88603743               50.55814222                0.21560775               -0.65759347                2.12050503               -1.68786550               -0.72040060               10.76684429                1.39723519
              15.70467456                3.49186985               50.33054087                0.70388064                0.23076552                1.46133862               -2.99599417                0.46936596                0.68692404               -2.81144498
               5.99208868                8.16910442               51.32801922                0.98244176               -0.08473082               -0.27015071                0.74977103               -0.03578097                0.01749911                0.72098102
               6.99124137                7.84345692               51.10251537                0.35235658                0.02759834                0.14569548               -0.23257996                0.00937904                0.33117485               -0.70366934
               7.99264065                7.51706404               50.88331452                0.00010000                0.89629084                0.62898515               -1.21120157               -0.44078239                8.27293422               -2.36001333
               9.00916719                7.18071877               50.81602724                0.00010000                1.75820692                0.59448577               -1.76124634               -0.73648552               16.56494313                1.40878035
              10.02780479                6.83094520               50.75755572                0.00010000                1.97951751                0.46042231               -2.26641823               -1.18651973               17.90510753                3.02290261
              11.04875754                6.46887915               50.71072923                0.00010000                2.08136536                0.30007952               -2.67525655               -1.60030133               19.26945986                4.06766128
              12.06943209                6.09419773               50.67208236                0.00010000                1.85610931                0.24256434               -2.82645093               -2.13277847               20.38887711                4.72492037
              13.08587973                5.70633082               50.63941942                0.00010000                1.25145778                0.51470710               -2.72781675               -2.62533977               21.25442234                4.69934952
              14.09446125                5.30700752               50.60987706                0.03325257                0.46208822                0.99312809               -2.39659036               -2.66547203               21.75848404                3.70903785
              15.09512149                4.89785552               50.58019569                0.25315711                0.31618736                0.98493582               -1.80734280               -0.95469344               11.16403055                1.19819734
              16.10078500                4.50689960               50.33338414                0.73072479                0.56635056                1.35026042               -3.05839696                0.19314428                0.30143923               -1.98192097
               6.31529402                9.16683052               51.24855319                0.95124704               -0.00321645               -0.18588302                0.47839657               -0.03656016                0.02701536                0.69850945
               7.31526185                8.84526685               51.01610062                0.34144170                0.11686476                0.21340871               -0.49061314                0.04169087                0.18558208               -0.69768792
               8.31763131                8.52364330               50.78678850                0.00010000                1.37952718                0.65277725               -1.42149042               -0.64846578               10.24716692               -2.36757942
               9.34285240                8.18626047               50.75485630                0.00010000                2.68938526                0.41018391               -1.97705982               -1.19767692               20.56821395                0.37804176
              10.37141902                7.83421694               50.72406688                0.00010000                2.93453474                0.11804284               -2.42238392               -1.44020242               21.34589959                2.24487176
              11.40154309                7.47037809               50.69811713                0.00010000                2.95407874               -0.04384947               -2.71600920               -1.55815096               22.39801015                3.42547174
              12.43050059                7.09556098               50.67772643                0.00010000                2.67486521               -0.02544131               -2.80700696               -1.77282643               23.34206070                4.22262452
              13.45504040                6.70978988               50.65991655                0.00010000                2.12458477                0.16145500               -2.67357963               -2.05008756               23.75983239                4.66456434
              14.47299229                6.31310163               50.63830403                0.05284384                1.41702816                0.40581589               -2.36601262               -2.31059340               23.07464879                4.27368990
              15.48338096                5.90573614               50.59914577                0.28216167                0.87285051                0.75823781               -1.99530798               -1.06440102               11.32095280                1.00284504
              16.49044930                5.51887506               50.33698844                0.74658627                0.70683398                1.12094021               -3.12031574                0.07822435                0.14501348               -1.89015093
               6.63448483               10.16538676               51.16920190                0.94392797                0.07775911               -0.09922382                0.20823610               -0.03543733                0.00501215                0.69567002
               7.63526242                9.84772510               50.92967447                0.37513492                0.20964437                0.27375177               -0.74270626                0.04839561                0.03988398               -0.66513333
               8.63867772                9.53011959               50.69075332                0.00010000                1.96887953                0.62584729               -1.63883209               -1.03612652               12.00708218               -2.06006205
               9.67464001                9.18892245               50.68982202                0.00010000                3.81026983               -0.01199620               -2.16891258               -1.71403344               24.21636318                0.09962911
              10.71488311                8.83330605               50.68427165                0.00010000                4.08052349               -0.42401401               -2.57232699               -1.50382509               24.69288022                1.55599292
              11.75625048                8.46800216               50.67988012                0.00010000                3.98403335               -0.45251695               -2.80655250               -1.30569230               25.64575978                2.59221517
              12.79456378                8.09368890               50.67942140                0.00010000                3.55434215               -0.36478648               -2.82313749               -1.31583876               26.67198113                3.42970901
              13.82733732                7.70955992               50.68193518                0.00010000                2.88696705               -0.20296446               -2.57328198               -1.50332249               26.97804164                4.31217254
              14.85230312                7.31512384               50.67584343                0.07229599                2.03613627                0.02712868               -2.12145615               -1.75385539               24.29920611                5.56592635
              15.86806005                6.91302028               50.61673586                0.30696992                1.18842679                0.73618561               -2.22170995               -0.95498838               11.00574832                0.98115610
              16.87607166                6.52931840               50.34005487                0.75419139                0.80116079                1.02635929               -3.23135481                0.04925614                0.08039345               -1.96568619
               6.94990860               11.16484605               51.08979455                0.91662795                0.15883434               -0.00753751               -0.06608050               -0.03936498                0.00183615                0.60404254
               7.95149694               10.85074189               50.84361466                0.41856973                0.29014170                0.33192381               -0.99917476                0.02034051                0.12738658               -0.54758526
               8.95571143               10.53616024               50.59979504                0.00010000                2.69441611                0.60843749               -1.86832972               -1.69326681               13.70084173               -1.25312692
              10.00538526               10.18602054               50.62435738                0.00010000                5.32756901               -0.99871606               -2.37799209               -1.75081796               27.35845509                0.04632400
              11.06226281                9.82573666               50.63974549                0.00010000                5.48305678               -0.99823160               -2.74985312               -1.09573931               27.69786450                0.84781572
              12.11504640                9.46132776               50.65417469                0.00010000                5.01816211               -0.85963798               -2.93842783               -0.72285522               28.71754707                1.46915365
              13.16262605                9.08826525               50.67285713                0.00010000                4.42463069               -0.69049792               -2.88390234               -0.72140647               30.09387810                2.02765200
              14.20353901                8.70573059               50.69812044                0.00010000                3.59143863               -0.53717249               -2.49629691               -0.88467589               31.58945002                2.79535689
              15.23445483                8.31364421               50.73145761                0.10247380                2.32738089               -0.18328009               -1.51207537               -0.93834592               26.05757273                4.72389483
              16.25008663                7.92045986               50.63550080                0.34281249                1.21916773                0.76090576               -2.47159297               -0.63685755                9.80817358                0.94742194
              17.25883818                7.53940224               50.34279497                0.75127441                0.87515506                1.02826185               -3.36917558                0.04010966               -0.09174575               -1.62789847
               7.26190585               12.16523601               51.00872707                0.96500958                0.24491810                0.03899620               -0.34052641                0.11248211                0.29672884                0.51567486
               8.26435504               11.85436357               50.75915579                0.75581071                0.38139333                0.36216891               -1.27056494                0.13842577                0.78478176               -0.44382709
               9.26953372               11.54228834               50.51912945                0.46223863                4.28460995                0.61280942               -2.14101641               -2.88854328               15.39406641               -0.69578331
              10.35004723               11.16894813               50.56090059                0.36893726                7.40636966               -1.70724139               -2.63643606               -1.98114859               29.80615057               -0.13314797
              11.41766111               10.81334142               50.58996380                0.36004320                6.46087742               -1.23952370               -2.98627937               -0.36710635               30.07302690                0.32000168
              12.47926478               10.45080940               50.61802132                0.36783439                5.90358496               -1.05183577               -3.14025292               -0.25128546               31.27405414                0.65651006
              13.53573281               10.07987894               50.65145444                0.39177994                5.25000330               -0.83863072               -3.03900582               -0.28897028               33.02270598                0.96029136
              14.58426485                9.69881647               50.69481934                0.43160614                4.15370628               -0.69141187               -2.56307757               -0.34845177               35.31050521                1.42059008
              15.61880694                9.31145824               50.75603104                0.57385791                2.26500066               -0.21859715               -1.43273610               -0.09369268               28.62806367                2.82212431
              16.62956486                8.92823839               50.65314449                0.69826872                1.00910675                0.77785397               -2.72280103               -0.13090676               10.62417256                0.84380550
              17.63898907                8.54988364               50.35406696                0.87596406                0.94242120                1.04813950               -3.54804545                0.17961361                0.74334797               -1.29057376
               4.15282757                2.29110079               52.80481272                1.00000000               -0.68022038               -0.80078656                2.77456140               -0.21949940               -0.98010999                0.92292407
               5.14602537                1.93400283               52.60216310                1.00000000               -0.54860582               -0.41640298                1.58556916               -0.15181811               -1.30347516                0.15127444
               6.14185546                1.57601270               52.39335492                1.00000000               -0.30997728               -0.05000727                0.45525887               -0.17249030               -1.22726780               -0.20950284
               7.13982582                1.21492752               52.19184568                0.68015464               -0.49191155                0.40776017               -0.68675567               -0.42848057                0.08913167               -0.84141522
               8.13201723                0.84605494               52.00798036                0.70562950               -0.56252652                0.86151724               -1.56303407               -0.27001449                1.52113872               -0.01029649
               9.12857529                0.47119886               51.82976510                0.68407489               -0.16180150                1.11073441               -2.58161839               -0.27308219                2.25140768               -0.10975059
              10.12878120                0.08853185               51.65443233                0.51589163               -0.04819441                1.58185495               -3.85162053               -0.62064051                3.76365195               -0.28772545
              11.12761141               -0.30697796               51.49698528                0.21317323               -2.22657052                2.47972759               -5.64971587               -2.88389280               10.93193504                0.30390438
              12.08424979               -0.75537116               51.44701331                0.00010000                0.16806604                4.31665917               -5.17756091               -3.06615734               11.35333268               -0.65429210
              13.13097273               -1.24539509               51.33787394                1.00000000                2.63726436                0.37611375               -1.67108493               -7.85975868                3.48144569                0.29059411
              14.13699507               -1.57909222               51.15636438                1.00000000                0.60223463                0.64826265               -2.40841601               -0.22403511               -0.11983695               -0.24787330
               4.50773054                3.28309292               52.72400332                1.00000000               -0.56793069               -0.76123917                2.46867241               -0.01397726               -0.23000725                1.23273916
               5.50205123                2.92983880               52.52132805                1.00000000               -0.40311658               -0.37892869                1.27774964                0.04695429               -0.35030633                0.23752698
               6.49966821                2.57551263               52.31658283                1.00000000               -0.07656682               -0.01019896                0.12192895                0.03624244               -0.23620261               -0.34503206
               7.50051990                2.21900512               52.11607683                0.48380257                0.07566008                0.41980214               -1.04980365               -0.24393646                1.51634052               -1.15810794
               8.50118141                1.85467011               51.94586607                0.56280491                0.20430599                0.75342297               -1.97412696               -0.13986752                2.74177137                0.04529052
               9.50460602                1.48230620               51.76988868                0.54358307                0.52408962                1.08825339               -3.04754802               -0.16881986                2.54594409               -0.04328708
              10.51166320                1.10435040               51.59358726                0.30822960                0.80589843                1.57323417               -4.37688693               -0.29585313                3.69707296               -0.38720883
              11.52072399                0.71781931               51.43645811                0.00010000                0.55667859                2.43310307               -6.26686918               -2.33576757               10.62060054                0.38887239
              12.52279677                0.28779543               51.39101137                0.00010000               -2.82441571               -1.14304082               -6.62032140              -12.50649133               18.39835162                9.77035668
              13.46423567               -0.24163395               51.39365524                1.00000000               -2.71724572                0.28080637               -1.02146593               -9.84124731                9.30304089                0.41869174
              14.46845186               -0.57260960               51.21003196                1.00000000                0.42161889                0.56873308               -1.81714324               -0.09851364                0.01400336               -0.21533824
               4.85905628                4.27587600               52.64995588                1.00000000               -0.45115261               -0.67770249                2.12336783               -0.01381379                0.00426723                1.52645113
               5.85454475                3.92642425               52.44232856                1.00000000               -0.28211474               -0.29123374                0.95846010                0.03780902                0.08903897                0.25623133
               6.85341398                3.57580872               52.23673442                0.82353763                0.06224272                0.08597432               -0.20128356               -0.00656965                0.30883351               -0.68853306
               7.85578961                3.22332356               52.03338357                0.00010000                0.62524039                0.46904882               -1.36669799               -0.46408671                3.10178389               -1.44820183
               8.86591879                2.86112340               51.88318409                0.00010000                0.98645012                0.69628746               -2.36408233               -1.11954396                4.22504463                0.32096979
               9.87551861                2.49296393               51.70880282                0.00010000                1.07161168                0.98858163               -3.50979130               -1.67706749                2.67285820                2.52558776
              10.88735102                2.11999654               51.52846465                0.00010000                1.09662091                1.12418121               -4.87359600               -2.59252627                4.00327089                5.45065021
              11.89745103                1.74168410               51.37904162                0.00010000               -4.68889015                0.82013206               -5.42176127              -10.91593693               21.10822298               10.52421637
              12.79357322                1.22176802               51.54157792                0.11534141               -5.14491096               -2.02752509               -5.45669811              -16.18985332               23.60062675               10.30518680
              13.79455281                0.76022104               51.45091391                0.81043631                0.17014382                0.09139316               -0.40662690               -6.58792543                4.87264192                0.45916594
              14.79697610                0.43228244               51.26422031                1.00000000                0.24232903                0.39131988               -1.20318358               -0.11021508                0.09035148               -0.17562161
               5.20635777                5.26953887               52.57543214                1.00000000               -0.34830676               -0.57879199                1.76828914               -0.03511945                0.13005987                1.34349556
               6.20287470                4.92401412               52.36189699                0.84590226               -0.18601292               -0.17814988                0.63196395               -0.00131470                0.33112094               -0.00348727
               7.20263751                4.57723211               52.15267877                0.27205638                0.15243910                0.21440506               -0.47502094               -0.08868519                0.93720686               -1.15371593
               8.20592348                4.22838610               51.95099553                0.00010000                0.32563278                0.59915227               -1.66205812               -0.69246564                5.05304410               -1.48664401
               9.20915016                3.86859586               51.82349228                0.00010000                0.31340257                0.89557162               -2.47563408               -1.72392989                8.66308501                1.69469537
              10.21219153                3.50207784               51.69741073                0.00010000                0.09711715                0.96267790               -3.30833034               -2.64487284                9.15848713                5.23548109
              11.21109251                3.12683403               51.58221586                0.00010000               -0.57788854                0.68389369               -3.89501055               -4.19701516               12.72949986                9.85732400
              12.20063376                2.73422196               51.52779969                0.00010000               -1.53148702               -0.66389718               -4.02119809               -9.86494721               20.42375306               13.67778585
              13.18046277                2.24724493               51.56156135                0.00010000               -3.93355073                3.03454618               -4.21274841               -9.77638584               20.73143532                2.31319142
              14.12196275                1.76019391               51.50673263                0.11757872               -2.91690001                4.03749763                0.29724480               -3.67819156                6.97674616               -2.07262576
              15.12212477                1.43521680               51.31855559                0.62913815                0.01620192                0.20838733               -0.52598691                3.69909699                0.31048923               -3.40285067
               5.54940339                6.26430016               52.49798636                1.00000000               -0.25781710               -0.47088539                1.42333311               -0.05055477                0.16528005                1.05094058
               6.54682522                5.92286126               52.27770388                0.52730036               -0.10675417               -0.04597521                0.28870894               -0.02881258                0.44636773               -0.41987672
               7.54726831                5.58009682               52.06323685                0.07138557                0.18756621                0.38035770               -0.80215465               -0.13613687                1.65506088               -1.68048352
               8.55057654                5.23530661               51.86671124                0.00010000                0.52400733                0.71428349               -1.81283150               -0.50956119                8.46866391                1.71332168
               9.55774845                4.87903483               51.78808861                0.00010000                0.69032234                0.92443947               -2.45526338               -1.11797025               13.61425212                3.23195383
              10.56438299                4.51221749               51.69464277                0.00010000                0.67590758                0.82767958               -3.08164030               -1.60195976               13.74344282                5.40221469
              11.57126660                4.13367441               51.61728966                0.00010000                0.76790962                0.39801156               -3.42603977               -2.62803371               16.17267539                7.37443483
              12.57974118                3.72840616               51.56866126                0.00010000                0.04034708               -0.21036348               -3.41752511               -4.79683907               18.69531120                6.63088420
              13.57207354                3.28245895               51.53619696                0.00010000               -2.33620383                2.91000634               -2.71689805               -5.52879271               20.41774579                1.36473125
              14.53301710                2.84097099               51.51334647                0.14449980               -2.55806391                5.88559826               -2.72429671               -1.14756577               12.08527113                0.03226312
              15.52091227                2.43645018               51.30769354                0.64909714               -1.21048376                1.61623911               -3.20546730                0.82536126                2.15936036               -5.07054655
               5.88822449                7.26012116               52.41777899                1.00000000               -0.17226975               -0.36888943                1.09811778               -0.03763211                0.01657587                0.81704376
               6.88650179                6.92309462               52.18893770                0.39498430               -0.03775345                0.06857253               -0.00497318               -0.01300775                0.42618147               -0.66134901
               7.88746942                6.58483927               51.96835281                0.00010000                0.51462262                0.54272894               -1.09946112               -0.20580825                5.85422340               -2.09790008
               8.89679424                6.24267177               51.84747402                0.00010000                1.12052293                0.70177675               -1.48657584               -0.28920786               12.66170511                3.51189759
               9.90987988                5.88708465               51.76010082                0.00010000                1.43592585                0.66480094               -2.47259288               -0.87061875               15.36766254                3.59065021
              10.92551276                5.51863143               51.69081808                0.00010000                1.62316424                0.45345127               -2.97712490               -1.37717890               17.08966149                4.88623422
              11.94234316                5.13479426               51.63336254                0.00010000                1.51998420                0.09287524               -3.21124265               -2.28757150               18.70793901                5.67603920
              12.95591244                4.73001469               51.58991902                0.00010000                0.74894555                0.27393124               -3.11962864               -3.70062141               20.46246436                5.11063071
              13.95732207                4.30544505               51.55900452                0.00613551               -0.54461261                1.78093504               -2.81684165               -3.82109905               22.07853135                3.54498843
              14.94502019                3.87790588               51.53894635                0.19836129               -0.48242318                2.48025378               -2.30095881               -0.96298236               11.99332000                1.55835251
              15.94767361                3.46754158               51.29875516                0.68858346                0.26534179                2.48761609               -3.36925315                0.79131794                1.04471053               -2.54809617
               6.22270384                8.25692238               52.33576343                0.97307444               -0.08568780               -0.27711240                0.79592889               -0.03697109                0.02125450                0.70963085
               7.22184696                7.92423271               52.09997475                0.33795869                0.04355766                0.15267692               -0.27493068                0.01881259                0.33734684               -0.67241943
               8.22357499                7.59095140               51.87051366                0.00010000                1.03500185                0.64416224               -1.34617281               -0.33893319                8.49882366               -2.27971655
               9.24254700                7.24934214               51.79728759                0.00010000                2.04007110                0.59509146               -1.98781757               -0.53869985               17.01220862                1.31542629
              10.26437641                6.89233085               51.73354765                0.00010000                2.32914040                0.37487656               -2.54725566               -0.99951566               18.43826261                3.14633934
              11.28912981                6.52128651               51.68258382                0.00010000                2.48777515                0.12373453               -2.97493309               -1.44454003               19.99962823                4.21999051
              12.31413192                6.13553191               51.64244685                0.00010000                2.29740749                0.00589237               -3.13469377               -2.09384065               21.41256739                4.87973603
              13.33507796                5.73388478               51.61082601                0.00010000                1.68142263                0.28703653               -3.04248219               -2.79672693               22.58404477                4.82425752
              14.34776037                5.31807765               51.58465095                0.03010748                0.82914872                0.89907606               -2.71069927               -3.05289627               23.43768213                3.81114841
              15.35166093                4.89057607               51.56137095                0.24240055                0.48534256                1.03567910               -2.01593715               -1.19403391               12.15263922                1.32266279
              16.35746722                4.48620251               51.30261568                0.71747017                0.58062908                1.55084634               -3.10005448                0.17401820                0.40921917               -1.55019373
               6.55286441                9.25457892               52.25353361                0.94423764               -0.00153865               -0.19233037                0.51570549               -0.03715328                0.02527924                0.69863107
               7.55284902                8.92614816               52.01092728                0.32822041                0.13584573                0.22570613               -0.54199299                0.04707009                0.20398213               -0.66417091
               8.55558132                8.59772251               51.77185744                0.00010000                1.58958868                0.67706960               -1.56378180               -0.58547617               10.47462133               -2.28318299
               9.58464079                8.25457360               51.73393010                0.00010000                3.11819367                0.36195362               -2.21486079               -1.04975731               21.01480143                0.43405332
              10.61794519                7.89458218               51.69843753                0.00010000                3.43900521               -0.00231288               -2.71936021               -1.32444743               21.92205618                2.29764390
              11.65342090                7.52110612               51.66951023                0.00010000                3.49614435               -0.21765333               -3.03366444               -1.45640783               23.16541829                3.50415354
              12.68786808                7.13491211               51.64837694                0.00010000                3.20056385               -0.21593204               -3.10611240               -1.73359823               24.35138067                4.31844799
              13.71743217                6.73575542               51.63223142                0.00010000                2.58523892                0.01300544               -2.92195870               -2.15050341               25.00905846                4.82266413
              14.73957286                6.32342658               51.61407971                0.05353083                1.77912399                0.32852068               -2.55086361               -2.60388062               24.50993012                4.54987688
              15.75301465                5.89861946               51.57926793                0.27748717                1.01641206                0.75577468               -2.00287134               -1.27048238               12.09425137                1.02729504
              16.75990110                5.49855851               51.30640943                0.73549581                0.68864467                1.11196883               -2.99281503                0.05438268                0.18243096               -1.58897385
               6.87882229               10.25307577               52.17142699                0.93782316                0.08224749               -0.10524385                0.23715443               -0.03668278                0.00591249                0.69461964
               7.87964477                9.92874683               51.92194149                0.36107865                0.23088683                0.29011682               -0.80275398                0.05087962                0.06874032               -0.63289251
               8.88344003                9.60449279               51.67362363                0.00010000                2.25237053                0.66003263               -1.78626259               -1.03577841               12.24624951               -1.98593829
               9.92469218                9.25658121               51.66692327                0.00010000                4.39574558               -0.10857304               -2.42118174               -1.66308955               24.67332717                0.15988100
              10.97135494                8.89228459               51.65709581                0.00010000                4.74897750               -0.59437804               -2.88323836               -1.43731970               25.29107905                1.60570640
              12.01967173                8.51693345               51.65039256                0.00010000                4.67278575               -0.65119972               -3.12407433               -1.21899640               26.44498883                2.64220144
              13.06481066                8.13121327               51.65014435                0.00010000                4.19408440               -0.57350929               -3.08057988               -1.23427149               27.73922689                3.51368037
              14.10355342                7.73414489               51.65598011                0.00010000                3.40040277               -0.38923228               -2.68582043               -1.47482122               28.31043735                4.52521864
              15.13281871                7.32464806               51.65544141                0.07631973                2.37829666               -0.10740761               -2.05465229               -1.85553926               25.43411521                6.22955632
              16.15111935                6.90569156               51.59504588                0.30768450                1.29290343                0.70440291               -2.12769326               -1.10982543               11.42167829                0.94364706
              17.15867678                6.50844188               51.30883567                0.74516741                0.75574305                0.95634288               -3.00812325                0.03660772                0.09173989               -1.75325071
               7.20078863               11.25247404               52.08923350                0.90828521                0.16609592               -0.01350000               -0.04482894               -0.04082371                0.00541315                0.60070771
               8.20244959               10.93195049               51.83326763                0.40085702                0.31213686                0.35292245               -1.06930807                0.02043946                0.16504372               -0.52708808
               9.20703137               10.61092316               51.58035274                0.00010000                3.05688046                0.64950855               -2.02237065               -1.78869052               13.94979493               -1.20774250
              10.26358720               10.25240213               51.59933508                0.00010000                6.09076006               -1.19968759               -2.63734096               -1.78155975               27.83034365                0.09186890
              11.32884657                9.88269462               51.61079270                0.00010000                6.32625458               -1.22719455               -3.06272203               -1.06378358               28.32481949                0.88361723
              12.39011229                9.50808213               51.62344701                0.00010000                5.85623194               -1.10696088               -3.24107951               -0.65769584               29.56496422                1.50150392
              13.44597121                9.12344192               51.64326124                0.00010000                5.21943369               -0.96103296               -3.08392087               -0.64778961               31.25737126                2.08439603
              14.49450096                8.72797077               51.67371172                0.00010000                4.24720968               -0.84359101               -2.45857373               -0.81769514               33.30911082                2.96501668
              15.53091540                8.32127842               51.71980203                0.11031873                2.62616792               -0.42355574               -0.95923593               -0.89052883               26.91623252                5.30378233
              16.54702432                7.91270752               51.61154759                0.34998878                1.21086074                0.71358015               -2.32720489               -0.69748756                9.61299789                0.88066698
              17.55513262                7.51768537               51.31051805                0.74479411                0.81082933                0.93814251               -3.08686615                0.03430585               -0.08362321               -1.47474122
               7.51905291               12.25280577               52.00537352                0.95974482                0.25515210                0.03317290               -0.32789560                0.12637912                0.28949322                0.51110074
               8.52160443               11.93580528               51.74604357                0.74551538                0.40808328                0.38547848               -1.35059390                0.14934406                0.80993210               -0.43167094
               9.52721458               11.61748296               51.49692215                0.45967197                4.78425454                0.65597985               -2.30440060               -3.14256974               15.64137253               -0.67427301
              10.61728952               11.23258746               51.53329790                0.36878347                8.35923507               -1.98146727               -2.89245493               -2.11688038               30.30618417               -0.09028920
              11.69439928               10.86774070               51.55871288                0.36015441                7.42404960               -1.49539196               -3.28289274               -0.33439065               30.75044623                0.35918698
              12.76577052               10.49479423               51.58541698                0.36759155                6.87834700               -1.32878975               -3.40990409               -0.22158187               32.18516373                0.69800422
              13.83196622               10.11199261               51.62054660                0.39073626                6.17962466               -1.14493045               -3.18508775               -0.27655675               34.27346390                1.02271029
              14.88936301                9.71727307               51.67022429                0.42898573                4.91525832               -1.06977012               -2.42156761               -0.30457897               37.15548133                1.56859454
              15.93027138                9.31617695               51.74602462                0.57917609                2.56998235               -0.51014788               -0.74618813                0.07010330               29.31798919                3.17437736
              16.94076266                8.91996317               51.62680372                0.70406021                0.95679097                0.72556460               -2.54407400               -0.07477724               10.15152710                0.77203436
              17.94940720                8.52720473               51.32017425                0.87340288                0.86445486                0.95193664               -3.22621940                0.15161558                0.70758082               -1.16876038
               4.35198386                2.38242475               53.83306449                1.00000000               -0.69187869               -0.82550379                2.86242088               -0.23491038               -0.91260466                0.87530393
               5.34506507                2.01784400               53.61811587                1.00000000               -0.54251718               -0.42051520                1.59821189               -0.16806589               -1.20100092                0.14219369
               6.34113351                1.65239413               53.39757233                1.00000000               -0.25999958               -0.03247219                0.38634234               -0.18328638               -1.10016524               -0.20133147
               7.33986508                1.28423586               53.18414378                0.67508129               -0.29938372                0.43172312               -0.84905356               -0.36961391                0.31000422               -0.81457029
               8.33514584                0.91019583               52.99032746                0.68668544               -0.22698354                0.92795386               -1.95828351               -0.26793858                1.80299211                0.00770974
               9.33532541                0.53224693               52.80079389                0.64909433                0.28118668                1.21848316               -3.17937334               -0.24401047                2.35984900               -0.12069471
              10.34076957                0.14911213               52.61127748                0.45618065                0.65569786                1.66649080               -4.64411176               -0.41939541                3.45785735               -0.30443045
              11.34843936               -0.24049269               52.43487535                0.09991037               -2.77845506                2.27981534               -6.30580992               -4.27669217               11.15789213                0.28037632
              12.28520047               -0.71004241               52.38649246                0.00010000               -1.69932004                2.75486875               -7.31478890               -9.39712604               13.34425571               -5.39285324
              13.31445296               -1.30130801               52.32061881                0.94523908                1.80412398                0.44131421               -2.03987584              -12.70368764                5.90220754                0.25880995
              14.32128295               -1.63858435               52.13248519                1.00000000                0.68299869                0.67502226               -2.68658172               -0.23229065               -0.01496892               -0.46627736
               4.71421551                3.37416972               53.74915705                1.00000000               -0.58157865               -0.78242734                2.54993840               -0.01963736               -0.20190919                1.17289618
               5.70839972                3.01363885               53.53416649                1.00000000               -0.40553945               -0.38113007                1.28437609                0.04143629               -0.29873290                0.22540229
               6.70610472                2.65206941               53.31745549                1.00000000               -0.05658148                0.00845925                0.05211127                0.03581861               -0.17210062               -0.33368209
               7.70726809                2.28855309               53.10479509                0.48666082                0.11780998                0.45056372               -1.20107209               -0.14516319                1.67674462               -1.11567990
               8.70846092                1.91947537               52.92442087                0.54830007                0.30795306                0.85642652               -2.30735073               -0.10682553                3.01037610                0.05025437
               9.71342715                1.54443176               52.73699696                0.51017756                0.72422544                1.20833877               -3.51165754               -0.12011480                2.68138393               -0.08855654
              10.72294543                1.16577703               52.54682415                0.25271766                1.09112782                1.65887710               -4.89783018               -0.18350165                3.56431862               -0.46215252
              11.73524971                0.78230546               52.37258884                0.00010000               -0.06542795                2.14580421               -6.25717043               -4.48385789               12.33497073                0.89416347
              12.72163687                0.31750628               52.35310421                0.00010000               -4.17813250               -2.69135994               -2.29965234              -17.71163472               20.57958107                2.00336578
              13.65168706               -0.29689486               52.38298124                1.00000000               -3.27002395                0.32707951               -1.17423757              -13.88108091               11.03574918                0.42810893
              14.65623639               -0.63183413               52.19179684                1.00000000                0.45493301                0.58082786               -1.92057714               -0.12180958                0.05084572               -0.34328253
               5.07265285                4.36677621               53.67162190                1.00000000               -0.46587470               -0.69192390                2.19979623               -0.01848443                0.02312378                1.44736862
               6.06799410                4.01022140               53.45193125                1.00000000               -0.28586032               -0.29121831                0.95846896                0.03634189                0.11648132                0.23651466
               7.06693564                3.65256332               53.23435251                0.81856572                0.07808791                0.10299570               -0.27403240                0.00773736                0.34043683               -0.65375081
               8.06955586                3.29324713               53.01898667                0.00010000                0.50975086                0.50806822               -1.51087891               -0.28473949                3.20616594               -1.38387153
               9.07713066                2.92732436               52.85825146                0.00010000                0.85327917                0.75785610               -2.62012089               -0.84400944                4.44874392                0.44336247
              10.08662144                2.55641370               52.67191844                0.00010000                1.10475885                0.92868394               -3.86373783               -1.39422346                2.79783648                2.77891478
              11.09922583                2.18228967               52.47772014                0.00010000                1.02057590                0.83322600               -5.23460274               -2.35087558                4.66042502                6.06754875
              12.10703296                1.80242339               52.32682519                0.00010000               -4.45288662               -0.35461607               -4.95175103              -12.90297746               22.14676240               11.46642145
              13.01016810                1.23613039               52.48673872                0.09084849               -6.04306030               -2.39283592               -5.73895931              -20.79055732               28.40896527                8.38273039
              13.98617175                0.70523358               52.44644923                0.72306684               -1.07214073                0.10008311               -0.44185035               -9.86058039                7.83031101                0.51016139
              14.98872529                0.37303221               52.25168226                1.00000000                0.25535342                0.39614514               -1.23836524               -0.14033107                0.11262091               -0.24388153
               5.42695544                5.36033124               53.59350238                1.00000000               -0.36159902               -0.58769722                1.83798699               -0.03627561                0.14542919                1.26762563
               6.42333945                5.00781448               53.36818558                0.82011552               -0.18608546               -0.17814177                0.62353528                0.00524387                0.36351241               -0.03537515
               7.42323373                4.65412932               53.14744898                0.25724907                0.17364067                0.22702773               -0.56712369               -0.05360086                0.94839182               -1.12359688
               8.42681226                4.29871445               52.93356848                0.00010000                0.25902150                0.63922716               -1.82080393               -0.52981792                5.22063103               -1.34396782
               9.42841416                3.93463249               52.79768943                0.00010000                0.18825553                0.85243026               -2.69596644               -1.36467736                9.02725131                1.93609408
              10.43057737                3.56300544               52.66307495                0.00010000                0.07520327                0.70854084               -3.57513084               -2.28728774                9.72594771                5.70600607
              11.42991822                3.18244155               52.54221054                0.00010000               -0.36139692               -0.00275314               -4.10233009               -4.23062936               13.76472570               10.72749375
              12.42334943                2.77521314               52.48618023                0.00010000               -1.34513470               -1.96274718               -4.26161094              -10.29628332               21.51496318               14.07351027
              13.40301553                2.26964956               52.51114335                0.00010000               -5.28878974                3.00292437               -5.22309277              -13.42880861               24.02734905                2.75325772
              14.31757364                1.70510680               52.50994084                0.08507604               -4.25915033                5.93216889                0.33544429               -5.06817113               10.10461853               -4.26673971
              15.31783252                1.37608877               52.31287616                0.61122854                0.02588850                1.15150583               -0.60175903                5.53971259                0.32960571               -5.34359709
               5.77696085                6.35502226               53.51255142                1.00000000               -0.26599588               -0.47669502                1.48356682               -0.04770530                0.15341995                0.99131487
               6.77430089                6.00665856               53.28049460                0.50841247               -0.09986002               -0.04796951                0.26949973               -0.01370668                0.45794332               -0.43673594
               7.77496365                5.65710387               53.05465680                0.05930345                0.20777229                0.38497261               -0.90487579               -0.08018267                1.74038384               -1.66431265
               8.77845634                5.30603168               52.84782685                0.00010000                0.52912386                0.76589490               -1.95117484               -0.32969079                8.77692348                2.12368684
               9.78554613                4.94437296               52.76240822                0.00010000                0.73051415                0.83649820               -2.68405857               -0.82711681               14.11945810                3.44675352
              10.79306662                4.57058452               52.66261358                0.00010000                0.84297089                0.55773515               -3.33752429               -1.36912844               14.45966888                5.68588176
              11.80240554                4.18223461               52.58171503                0.00010000                1.04163327               -0.16841321               -3.70671437               -2.58343043               17.28802737                7.63015428
              12.81389929                3.76316845               52.53267324                0.00010000                0.46463646               -0.78347712               -3.79457789               -5.27154329               20.39545810                6.74267460
              13.81169827                3.29618888               52.50771587                0.00010000               -1.77650832                2.30176471               -3.15956496               -6.59686485               21.93005507                1.80483853
              14.77836912                2.82387696               52.47835244                0.12122276               -2.70713428                8.20366028               -4.21324061               -0.76087684               13.38500455               -2.20670185
              15.75755559                2.39606232               52.27092952                0.63595417               -2.08135310                3.49485069               -4.00580523                1.62446718                3.41856382               -7.04876200
               6.12272873                7.35079734               53.42902859                1.00000000               -0.17450286               -0.37399237                1.14488867               -0.03771037                0.01138327                0.78041070
               7.12098371                7.00685509               53.18873311                0.37976538               -0.02358865                0.06801966               -0.03486277               -0.00156841                0.42643934               -0.64189782
               8.12225696                6.66182878               52.95676187                0.00010000                0.59828249                0.54306054               -1.21023968               -0.12410518                6.18563985               -2.04777159
               9.13294936                6.31403235               52.83107613                0.00010000                1.25310093                0.72697719               -1.78975284               -0.12726453               13.05136986                3.68267066
              10.14731898                5.95136245               52.73412444                0.00010000                1.61919026                0.55811566               -2.72801981               -0.70722652               15.74452929                3.69967155
              11.16533316                5.57416014               52.65964001                0.00010000                1.91733530                0.20011421               -3.27513708               -1.27524359               17.84186889                4.96522923
              12.18566569                5.17907329               52.59968485                0.00010000                1.93155658               -0.27282790               -3.55785864               -2.37904200               19.80034547                5.69536201
              13.20396429                4.75954360               52.55702739                0.00010000                1.23520179               -0.13324379               -3.52682994               -4.09655989               21.85463103                5.02296604
              14.21036972                4.31568486               52.52830219                0.00010000               -0.07408155                1.59832068               -3.40449508               -4.46959548               23.69821403                3.10571271
              15.20248266                3.86918000               52.51212304                0.17854851               -0.22092874                3.00551197               -3.27182858               -1.39293242               13.10645699                1.94448459
              16.20595115                3.44598579               52.26315581                0.67431899                0.34684859                3.60895687               -3.83264553                1.12679450                1.50688270               -2.30834145
               6.46409114                8.34754242               53.34393780                0.96319223               -0.08530532               -0.28288732                0.83459268               -0.03816974                0.02549896                0.69866138
               7.46323808                8.00801896               53.09701675                0.32529189                0.06065732                0.15807991               -0.31508678                0.02283173                0.34122873               -0.64021808
               8.46530428                7.66796508               52.85639106                0.00010000                1.15696437                0.65204428               -1.47242579               -0.27918854                8.71529059               -2.20016234
               9.48637737                7.32057122               52.77627089                0.00010000                2.29847619                0.56367509               -2.21573931               -0.44054136               17.44908006                1.19901814
              10.51127381                6.95553528               52.70661061                0.00010000                2.67367690                0.26296048               -2.85011876               -0.95116938               18.97634441                3.13670827
              11.53985091                6.57458680               52.65123057                0.00010000                2.90837197               -0.07538598               -3.32034299               -1.45891724               20.74176178                4.18664067
              12.56944125                6.17677805               52.60938848                0.00010000                2.77528060               -0.24204278               -3.52354694               -2.24709446               22.42791241                4.80922298
              13.59535652                5.76050357               52.57856977                0.00010000                2.16143563                0.07727366               -3.48126053               -3.15341245               23.87610076                4.70529352
              14.61266996                5.32815529               52.55566307                0.02462965                1.24265088                0.88119239               -3.18988103               -3.53658584               25.08484692                3.76137041
              15.62020954                4.88398720               52.53987694                0.22798002                0.69049754                1.17135522               -2.38056116               -1.47301111               13.15479837                1.61316198
              16.62647991                4.46824146               52.27138305                0.70360354                0.62703710                1.74449032               -3.19968393                0.11861476                0.57132833               -1.09723887
               6.80101226                9.34513959               53.25886730                0.93671174                0.00054130               -0.19815730                0.55049576               -0.03814386                0.02421858                0.70208258
               7.80101767                9.01001669               53.00526076                0.31590979                0.15543327                0.23539745               -0.59011888                0.04662828                0.21932191               -0.63035091
               8.80412093                8.67486966               52.75551286                0.00010000                1.77753314                0.69702191               -1.70200299               -0.56970938               10.68992308               -2.19764046
               9.83656834                8.32530585               52.71055909                0.00010000                3.50795417                0.30719331               -2.46415126               -0.99954963               21.43811520                0.42532494
              10.87428001                7.95662166               52.66967968                0.00010000                3.91718543               -0.12351321               -3.04885098               -1.33459215               22.48426090                2.23857511
              11.91491204                7.57265242               52.63744384                0.00010000                4.02635090               -0.38386967               -3.41323517               -1.50692134               23.92687599                3.43384130
              12.95480703                7.17423243               52.61560418                0.00010000                3.73033758               -0.38499165               -3.50440558               -1.86219116               25.35920221                4.26326969
              13.98951880                6.76108907               52.60147737                0.00010000                3.06736757               -0.09597888               -3.31039497               -2.40156222               26.24607409                4.88652595
              15.01615438                6.33330870               52.58728676                0.05226548                2.17087390                0.29186743               -2.90165741               -2.96161382               25.98904129                4.83337249
              16.03293627                5.89260711               52.55908835                0.26938313                1.18302737                0.78131795               -2.07914825               -1.47716452               12.92312033                1.10457168
              17.03981493                5.48087559               52.27713214                0.72299278                0.68786516                1.09516523               -2.88980273                0.01919720                0.24150540               -1.28306728
               7.13357407               10.34357927               53.17394499                0.93110181                0.08665131               -0.11129583                0.26678076               -0.03841977                0.00698224                0.69802555
               8.13444058               10.01272690               52.91361939                0.34733162                0.25234322                0.30406806               -0.86066712                0.04935761                0.09804091               -0.60267948
               9.13862093                9.68190552               52.65502807                0.00010000                2.50969006                0.69186063               -1.93212504               -1.07464348               12.47184362               -1.91385980
              10.18463438                9.32671509               52.64139839                0.00010000                4.93072334               -0.19112825               -2.69306305               -1.69283360               25.09621015                0.16841346
              11.23723540                8.95306501               52.62660688                0.00010000                5.37336647               -0.74148665               -3.23765814               -1.47192051               25.86856456                1.56713437
              12.29210171                8.56690941               52.61739864                0.00010000                5.32626880               -0.81595027               -3.51617428               -1.25108496               27.24541334                2.58630173
              13.34376077                8.16907821               52.61780980                0.00010000                4.80736490               -0.73407568               -3.45025018               -1.28118337               28.84667290                3.51165505
              14.38824901                7.75858400               52.62821877                0.00010000                3.90794370               -0.51511631               -2.95164197               -1.57119672               29.70069260                4.73996638
              15.42191965                7.33399264               52.63475039                0.07949879                2.74251756               -0.20860298               -2.20542587               -2.00906068               26.57641074                7.12495928
              16.44309936                6.89961356               52.57418199                0.30566477                1.42036177                0.68541261               -2.07832257               -1.25767903               11.82674067                0.90402378
              17.45032688                6.49014476               52.27989240                0.73443503                0.72275238                0.88466232               -2.80135325                0.02361403                0.11548926               -1.55030207
               7.46194860               11.34291368               53.08889797                0.89901531                0.17299784               -0.02006422               -0.02097594               -0.04248511                0.00941683                0.60153879
               8.46367857               11.01609805               52.82222850                0.38315946                0.33456389                0.37256860               -1.13830919                0.01788308                0.20545235               -0.50912318
               9.46863987               10.68870688               52.55934762                0.00010000                3.39367999                0.68792628               -2.17559353               -1.90644266               14.19015304               -1.16816216
              10.53155217               10.32148329               52.57161056                0.00010000                6.80037008               -1.37491866               -2.92005573               -1.85845703               28.27008063                0.11119158
              11.60464728                9.94179193               52.57849105                0.00010000                7.11624844               -1.41901084               -3.42447612               -1.09171565               28.93563095                0.87016888
              12.67387714                9.55633342               52.58935310                0.00010000                6.64307493               -1.30399350               -3.62348669               -0.66041913               30.43337778                1.47516065
              13.73750877                9.15955092               52.61117871                0.00010000                5.96516452               -1.16578974               -3.39982520               -0.64563293               32.51461531                2.10074009
              14.79318043                8.75078675               52.64894897                0.00010000                4.87174137               -1.07103871               -2.58462278               -0.83834149               35.26940468                3.16795902
              15.83494360                8.32913664               52.71227289                0.11883579                2.92250700               -0.57460197               -0.67676472               -0.89018711               27.72615160                6.08108641
              16.85163057                7.90631536               52.58895670                0.35527118                1.21405988                0.67766340               -2.22521677               -0.76106910                9.20950812                0.80005720
              17.85922480                7.49856884               52.28105764                0.73623630                0.75942260                0.85256361               -2.82831713                0.02898545               -0.06128263               -1.33412058
               7.78635561               12.34317799               53.00216915                0.95431969                0.26494268                0.02643105               -0.31108902                0.14073098                0.28499793                0.51040575
               8.78900504               12.02017828               52.73214391                0.73496283                0.43756118                0.40802266               -1.42950645                0.15694978                0.84029586               -0.42190826
               9.79510684               11.69566405               52.47304144                0.45714915                5.26875730                0.69571718               -2.46445543               -3.40138168               15.89157620               -0.66131735
              10.89438019               11.29921671               52.50305149                0.36868054                9.27220598               -2.22665759               -3.16905586               -2.26616127               30.79823401               -0.04919187
              11.98055096               10.92468479               52.52430595                0.36015770                8.33770740               -1.71071335               -3.62414306               -0.32899038               31.43785778                0.38347264
              13.06113434               10.54082954               52.54982324                0.36735810                7.79219140               -1.55038758               -3.75262122               -0.22039952               33.14270971                0.72180762
              14.13639479               10.14576242               52.58775269                0.38977501                7.03810599               -1.37885013               -3.43755253               -0.29471470               35.65293632                1.07995604
              15.20189645                9.73716322               52.64638799                0.42720917                5.60962528               -1.36235236               -2.43182937               -0.29148858               39.25371181                1.76733449
              16.24858729                9.32250060               52.74110728                0.58533256                2.82746632               -0.66360404               -0.39697322                0.16454931               29.91584247                3.55921042
              17.25844578                8.91316683               52.60226301                0.70903940                0.89061704                0.68514680               -2.39667382               -0.08370753                9.44400298                0.70072885
              18.26639963                8.50719604               52.28954257                0.86964100                0.79538509                0.86271960               -2.92116177                0.12040413                0.69032985               -1.04933166
               4.56447273                2.47642175               54.86206113                1.00000000               -0.69752133               -0.84283120                2.92355663               -0.24755768               -0.85026565                0.83203856
               5.55749752                2.10474544               54.63412734                1.00000000               -0.53242441               -0.42139820                1.59835318               -0.18203974               -1.10903037                0.13476356
               6.55382424                1.73221973               54.40108177                1.00000000               -0.21133728               -0.01609361                0.31734059               -0.19326183               -0.99883681               -0.18979709
               7.55327077                1.35733349               54.17486461                0.66824291               -0.11986415                0.45151387               -0.99655726               -0.32800652                0.41458962               -0.78623249
               8.55142696                0.97802232               53.96881469                0.66568282                0.07757413                0.97288897               -2.30528423               -0.27172310                1.83841467                0.03425439
               9.55482225                0.59637882               53.76617763                0.61428213                0.62149608                1.30317070               -3.67111986               -0.23280359                2.17900334               -0.13249574
              10.56385688                0.21134992               53.56155010                0.39929577                1.03660106                1.73147837               -5.17235988               -0.30873022                3.04733161               -0.37310120
              11.57555427               -0.17679742               53.37086909                0.00010000               -4.92327203                2.05501584               -6.37055282              -11.83117590                9.94984729                0.08151954
              12.46539144               -0.79645173               53.30071754                0.00010000               -3.62650652                2.40682186               -6.86311309              -13.54686038               14.91423404               -2.74974169
              13.50302414               -1.36494374               53.29707642                0.85852541                2.37857467                0.60415574               -3.08382145              -11.20607920                9.17267942                0.29089137
              14.51296293               -1.70704107               53.10263275                1.00000000                0.99387886                0.83687505               -3.76372883               -0.32226932                0.08671322               -0.71613980
               4.93367346                3.46799344               54.77500209                1.00000000               -0.58953331               -0.79718539                2.60690538               -0.02483190               -0.17444500                1.11874694
               5.92777813                3.10053146               54.54701557                1.00000000               -0.40379303               -0.38049890                1.28073995                0.03558003               -0.25000491                0.21512256
               6.92559760                2.73205880               54.31762506                1.00000000               -0.03443587                0.02602412               -0.01575673                0.03301085               -0.11719190               -0.31969404
               7.92708941                2.36184862               54.09205539                0.48053783                0.17947300                0.47696254               -1.33968572               -0.07821867                1.76747094               -1.07016137
               8.92918706                1.98775121               53.89971906                0.52950843                0.43705039                0.93498869               -2.61862182               -0.09515749                3.13337775                0.08521151
               9.93583042                1.60941053               53.69965553                0.47799492                0.90853171                1.30427079               -3.92657541               -0.09510524                2.70302277               -0.13238615
              10.94735769                1.22866470               53.49563065                0.20343588                1.26564596                1.73056010               -5.30170678               -0.19309474                3.66657361               -0.59684705
              11.96114334                0.84375274               53.31131470                0.00010000               -1.16808486                1.71092762               -6.01058451              -12.26173942               15.64981518                1.35937611
              12.92399600                0.22761649               53.34501832                0.00010000               -5.74426577                1.39176088               -2.85959680              -21.29589362               23.62149001                0.06993245
              13.84625802               -0.35890218               53.37017049                0.94845258               -3.60792151                0.42042060               -1.54884869              -12.15487374               11.13229957                0.51306819
              14.85183757               -0.69867232               53.17162041                1.00000000                0.55795452                0.66832795               -2.30011154               -0.18703820                0.13437906               -0.45911441
               5.29890005                4.46047804               54.69395181                1.00000000               -0.47562889               -0.70157907                2.25551568               -0.02293316                0.04397226                1.37395239
               6.29414376                4.09713546               54.46149794                1.00000000               -0.28663779               -0.28940951                0.95159995                0.03411927                0.14741617                0.21731169
               7.29316729                3.73274021               54.23125377                0.81354730                0.09351113                0.11985469               -0.34247856                0.01810544                0.37453218               -0.62472845
               8.29601398                3.36687274               54.00316599                0.00010000                0.43973069                0.54089714               -1.64543002               -0.15059382                3.28944000               -1.32782344
               9.30196191                2.99672209               53.83078167                0.00010000                0.79963373                0.77048872               -2.89955760               -0.67034208                4.62143523                0.58469025
              10.31200666                2.62246423               53.63152807                0.00010000                1.18454306                0.80461441               -4.22693159               -1.22010102                2.92537096                3.01804911
              11.32565277                2.24596112               53.42377259                0.00010000                0.96805195                0.43621533               -5.57792743               -2.45595279                5.81210280                6.60784114
              12.33136770                1.85742114               53.28000660                0.00010000               -4.17621378               -1.69543152               -4.08869543              -15.68603767               23.19243365               11.42692606
              13.24212849                1.23138349               53.42679874                0.06895553               -7.25761090                2.68582205               -5.82360428              -25.03516607               31.57040657                4.86523321
              14.18621548                0.64346467               53.44207690                0.65043026               -2.66830268                0.09290471               -0.45286474              -12.44968573               11.06568499                0.51148143
              15.18876244                0.30632549               53.23945301                1.00000000                0.25469610                0.38849597               -1.29704298               -0.16348479                0.21395924               -0.44884665
               5.65989996                5.45396186               54.61219188                1.00000000               -0.37016133               -0.59388960                1.89106800               -0.03758935                0.16325250                1.19403535
               6.65619834                5.09474327               54.37436769                0.79887341               -0.18387598               -0.17782307                0.61068801                0.01144894                0.39645875               -0.06824070
               7.65622244                4.73445589               54.14133629                0.24275520                0.19486557                0.23787331               -0.64607064               -0.02501317                0.96225718               -1.10072367
               8.66009565                4.37266657               53.91457945                0.00010000                0.19831423                0.66999773               -1.95861543               -0.44726477                5.38983064               -1.19894427
               9.66018872                4.00316098               53.76957295                0.00010000                0.10468595                0.74063994               -2.92109373               -1.18873911                9.38979509                2.14264393
              10.66218937                3.62550281               53.62590812                0.00010000                0.15465080                0.34529150               -3.86011666               -2.17545413               10.36519917                6.10862261
              11.66328174                3.23738901               53.50016925                0.00010000               -0.00945796               -0.85789680               -4.28377058               -4.71719901               14.88924385               11.32648091
              12.66200021                2.80984411               53.44256747                0.00010000               -1.30162977               -3.25043203               -4.37501141              -11.28871327               22.34808843               13.65296485
              13.63724914                2.28133293               53.45709949                0.00010000               -6.98389534                3.50066962               -5.20090769              -17.20106217               27.44126755                2.70081692
              14.52232231                1.64295591               53.51344151                0.06198745               -5.72014538                7.55950407                0.36735153               -6.04736352               13.48050634               -7.27790866
              15.52284623                1.30909760               53.30652041                0.60334539                0.05239270                1.94349038               -0.77670071                7.38251548                0.36157745               -7.76084586
               6.01658544                6.44860025               54.52765769                1.00000000               -0.27067307               -0.48094272                1.53213583               -0.04496701                0.14344472                0.92931315
               7.01387871                6.09357900               54.28309388                0.49304434               -0.09208528               -0.05043819                0.24898192               -0.00018087                0.47018001               -0.45464989
               8.01474373                5.73749768               54.04513933                0.04761738                0.22424427                0.38468394               -0.98507110               -0.03447784                1.84166763               -1.64443703
               9.01836359                5.38027269               53.82768774                0.00010000                0.53035732                0.76072842               -2.04946872               -0.27996864                9.08249881                2.45016865
              10.02535088                5.01153489               53.73440743                0.00010000                0.79529795                0.68573527               -2.90745357               -0.74423794               14.61620469                3.57530301
              11.03426955                4.62937006               53.62789229                0.00010000                1.08083058                0.19081076               -3.60560429               -1.40656798               15.20081011                5.81118169
              12.04696749                4.22880318               53.54315537                0.00010000                1.36899777               -0.81804798               -4.01095559               -2.96383064               18.36338474                7.56893519
              13.06164951                3.79241250               53.49276970                0.00010000                0.90139802               -1.26333175               -4.17217565               -6.25093917               21.92673445                6.35545955
              14.06499545                3.30139688               53.47300566                0.00010000               -1.20729842                1.91395859               -3.78885497               -7.94080948               22.70893403                1.62358960
              15.03750354                2.79465475               53.42908166                0.10188846               -3.04330407               10.61575771               -5.23126098               -0.31140915               13.94700816               -5.66861410
              16.00412937                2.34519530               53.22757744                0.62922608               -3.33741693                5.59118160               -4.68253799                2.69902943                4.71745234              -10.30194236
               6.36904311                7.44434300               54.44067676                0.99577182               -0.17458163               -0.37716770                1.17930510               -0.03732629                0.01250642                0.74219461
               7.36729730                7.09373451               54.18824045                0.36777148               -0.01019610                0.06608464               -0.06145894                0.00730622                0.42948505               -0.62363240
               8.36883919                6.74214957               53.94414802                0.00010000                0.65808862                0.53497399               -1.30093328               -0.09852183                6.45228853               -1.99632451
               9.38045907                6.38788114               53.81167897                0.00010000                1.36836992                0.67834305               -2.06757311               -0.11642100               13.41688005                3.75276663
              10.39620659                6.01687569               53.70554042                0.00010000                1.81653273                0.39874444               -2.98344260               -0.74846804               16.16619942                3.67933979
              11.41678972                5.62931903               53.62531534                0.00010000                2.23780519               -0.10772838               -3.59705872               -1.44650116               18.57422865                4.84570823
              12.44096269                5.22102805               53.56220537                0.00010000                2.37990043               -0.65030663               -3.96244808               -2.81790416               20.83203364                5.42262777
              13.46438773                4.78457748               53.51938242                0.00010000                1.76140014               -0.44359149               -4.06006108               -4.83700369               23.06388891                4.56558224
              14.47619070                4.31961210               53.49091462                0.00010000                0.39539883                1.64618001               -4.16047390               -5.30758643               24.84197736                2.31147401
              15.47229571                3.85527106               53.47350978                0.15703942               -0.02224816                4.06096271               -4.67071999               -1.85787419               14.04165067                2.31852449
              16.47574573                3.42092123               53.22210225                0.66187255                0.34500243                5.25430518               -4.59584641                1.65262751                2.23780675               -2.51492601
               6.71705591                8.44105690               54.35245529                0.95221045               -0.08376397               -0.28648159                0.86769059               -0.03968328                0.03297539                0.69284332
               7.71621827                8.09490070               54.09367302                0.31472997                0.07853796                0.16019950               -0.35215651                0.02164278                0.34274833               -0.61010796
               8.71862667                7.74819716               53.84106514                0.00010000                1.25453922                0.64915654               -1.58141124               -0.29094403                8.91166173               -2.12495541
               9.74130905                7.39383955               53.75297280                0.00010000                2.51584797                0.50357288               -2.43914154               -0.49550830               17.85158913                1.05157146
              10.76894363                7.01950978               53.67654528                0.00010000                2.99390596                0.12408641               -3.16460555               -1.10424922               19.48451415                2.98455195
              11.80118717                6.62721550               53.61617696                0.00010000                3.32036671               -0.28520778               -3.70873910               -1.72342704               21.44189527                3.95503138
              12.83535096                6.21579705               53.57197591                0.00010000                3.25691039               -0.46359336               -4.00432664               -2.68094675               23.35979490                4.49771025
              13.86632538                5.78354067               53.54120080                0.00010000                2.63995874               -0.03702721               -4.07562158               -3.75966133               25.03848870                4.33502260
              14.88815013                5.33432048               53.52085333                0.01628966                1.63557737                1.06973053               -3.90711568               -4.10573236               26.64705171                3.52705408
              15.89903693                4.87587401               53.51375972                0.20915964                0.88657253                1.55673914               -3.02695469               -1.73515541               14.20436440                2.18342663
              16.90588159                4.45028140               53.23862200                0.68904550                0.68446593                2.17332864               -3.48285095                0.08563410                0.86089941               -0.61942887
               7.06056185                9.43861337               54.26454353                0.92870421                0.00280392               -0.20256460                0.58471236               -0.03962619                0.02263388                0.71271657
               8.06058989                9.09693850               53.99912491                0.30505371                0.17598014                0.24123995               -0.63590181                0.04117856                0.23048906               -0.60089895
               9.06408145                8.75513270               53.73781738                0.00010000                1.93231958                0.70918374               -1.83066040               -0.62573315               10.88232499               -2.11941471
              10.09923628                8.39795259               53.68464708                0.00010000                3.83321035                0.25292264               -2.71879696               -1.10233828               21.81423941                0.33872505
              11.14074566                8.01935742               53.63746051                0.00010000                4.33988164               -0.23469347               -3.40719538               -1.52776814               22.99609428                2.04979448
              12.18603391                7.62361487               53.60124553                0.00010000                4.51364645               -0.52326376               -3.85874992               -1.77056672               24.62988006                3.19196933
              13.23101859                7.21175618               53.57828883                0.00010000                4.23185800               -0.49626039               -4.02180953               -2.21024613               26.29878022                4.03106301
              14.27067107                6.78383693               53.56602352                0.00010000                3.53620597               -0.10340235               -3.88449618               -2.82240819               27.41354954                4.82902101
              15.30174271                6.34100671               53.55604657                0.04862443                2.54803037                0.39203157               -3.47205629               -3.35987565               27.52913631                5.08346215
              16.32163168                5.88640585               53.53768497                0.25651111                1.34504588                0.90148389               -2.28416309               -1.65718446               13.85429011                1.29141213
              17.32864363                5.46438780               53.24861337                0.70874857                0.70119449                1.16144682               -2.87606486               -0.01759643                0.34074133               -0.94352239
               7.39961313               10.43700561               54.17676260                0.92402631                0.09093767               -0.11663595                0.29703155               -0.04030867                0.00795715                0.70724870
               8.40052251               10.09972549               53.90472815                0.33402499                0.27423856                0.31525091               -0.91658472                0.04471606                0.12644246               -0.57882841
               9.40509791                9.76238083               53.63498113                0.00010000                2.72575282                0.72069244               -2.07451571               -1.17282886               12.67194866               -1.84977882
              10.45503757                9.39889801               53.61306201                0.00010000                5.38140388               -0.24898661               -2.98118767               -1.84779094               25.45882294                0.11128469
              11.51272598                9.01481591               53.59234264                0.00010000                5.91697533               -0.84792427               -3.63753189               -1.65383945               26.38723415                1.42158208
              12.57337707                8.61675022               53.58006908                0.00010000                5.90989974               -0.92270695               -3.99594254               -1.44429022               27.99463725                2.40103679
              13.63092398                8.20587184               53.58113935                0.00010000                5.36248040               -0.81211721               -3.96307168               -1.48142777               29.93570005                3.39698398
              14.68062668                7.78147262               53.59694727                0.00010000                4.37298644               -0.53380962               -3.41262870               -1.77934642               31.08287206                4.92943517
              15.71838371                7.34216111               53.61133290                0.08117472                3.09427317               -0.22317256               -2.61132474               -2.19404724               27.78011250                8.21195336
              16.74251215                6.89390368               53.55347943                0.29953625                1.55910175                0.71109019               -2.11178103               -1.39263621               12.30124791                0.87466938
              17.74956574                6.47351034               53.25280860                0.72120481                0.70535967                0.84824907               -2.64905340                0.01373801                0.15049010               -1.34957820
               7.73431590               11.43628065               54.08881398                0.89014714                0.17930830               -0.02670461                0.00549506               -0.04420248                0.01249790                0.60734125
               8.73610898               11.10324351               53.81050144                0.36495642                0.35682336                0.39054031               -1.20548080                0.01407243                0.25100322               -0.49754657
               9.74145237               10.76954655               53.53684087                0.00010000                3.68682018                0.72440737               -2.32691911               -2.06150218               14.40995602               -1.13440695
              10.80984539               10.39297286               53.54093397                0.00010000                7.41821445               -1.50881208               -3.22729755               -2.00977451               28.64747666                0.09451103
              11.88981666               10.00239893               53.54230318                0.00010000                7.81233972               -1.55177798               -3.84332876               -1.20767126               29.49229457                0.79544414
              12.96609218                9.60516073               53.55097728                0.00010000                7.34254911               -1.42300682               -4.10806409               -0.75420990               31.27200859                1.37507529
              14.03666764                9.19551384               53.57526473                0.00010000                6.63513477               -1.27140277               -3.87261533               -0.72318850               33.80845295                2.05978786
              15.09879488                8.77316074               53.62201926                0.00010000                5.43815309               -1.18654446               -2.91844179               -0.92573015               37.40939153                3.38426550
              16.14543070                8.33654326               53.70626674                0.12808847                3.18174291               -0.62343644               -0.60548800               -0.91017916               28.55620538                7.01354053
              17.16242973                7.90062765               53.56704326                0.35760257                1.21371910                0.67307262               -2.20751912               -0.82476011                8.68479950                0.70435051
              18.16970508                7.48135279               53.25395171                0.72439964                0.72753476                0.78689510               -2.61788968                0.02695967               -0.03011144               -1.20795324
               8.06480336               12.43647151               53.99915174                0.94868366                0.27347030                0.01908603               -0.28970796                0.15522502                0.28189579                0.51378137
               9.06753806               12.10753630               53.71745344                0.72410327                0.46675767                0.42927864               -1.50521656                0.16278168                0.88359349               -0.41797850
              10.07413851               11.77686898               53.44763304                0.45459690                5.72258142                0.73224342               -2.61946785               -3.67211200               16.13516230               -0.65181369
              11.18198969               11.36872176               53.46991678                0.36854822               10.11230852               -2.42510980               -3.47092909               -2.44000076               31.25160308               -0.01548577
              12.27638469               10.98378035               53.48623002                0.36029462                9.15941396               -1.86185797               -4.02333164               -0.36478091               32.10087184                0.38695498
              13.36517797               10.58829009               53.51036456                0.36712831                8.60377584               -1.68706489               -4.19791554               -0.25824910               34.10067632                0.72050350
              14.44846020               10.18044379               53.55179555                0.38874204                7.79523404               -1.50700493               -3.84515549               -0.34816135               37.11031490                1.12270804
              15.52108265                9.75774173               53.62158770                0.42566077                6.21265052               -1.54190106               -2.64104575               -0.30879241               41.51357647                2.00503495
              16.57271321                9.32969238               53.73808516                0.59246763                3.00623830               -0.68508781               -0.31363044                0.20942164               30.48399987                3.90055537
              17.58120742                8.90736514               53.57887024                0.71267044                0.79707266                0.67374850               -2.33331468               -0.14443876                8.62446559                0.62580718
              18.58865467                8.48924824               53.26175101                0.86379826                0.74472468                0.78954527               -2.65871275                0.08326868                0.68778006               -0.94062274
               4.79084614                2.57318361               55.89153562                1.00000000               -0.69823088               -0.85296291                2.95841855               -0.25672825               -0.79421693                0.79379164
               5.78386383                2.19476281               55.65008293                1.00000000               -0.52133178               -0.41921164                1.58784643               -0.19231688               -1.02820575                0.12880644
               6.78041950                1.81551161               55.40391914                1.00000000               -0.17199384               -0.00080824                0.25377533               -0.20150282               -0.91960350               -0.17579808
               7.78042395                1.43412965               55.16421263                0.65854102                0.00908055                0.47188371               -1.12099190               -0.31201617                0.43705728               -0.75788340
               8.78060111                1.04907217               54.94422178                0.64349427                0.28730545                1.01404366               -2.57237597               -0.28169914                1.73931016                0.05081229
               9.78617006                0.66264121               54.72737149                0.58012149                0.82118174                1.37923859               -4.02457229               -0.23856424                1.93048272               -0.15548426
              10.79702475                0.27348899               54.50783029                0.34434201                1.10494052                1.81286073               -5.51139431               -0.36044001                2.88043078               -0.48086520
              11.80826887               -0.11975354               54.30746429                0.00010000               -6.98734673                2.01090101               -6.35207339              -17.29744272               10.70794538               -0.15528694
              12.65727781               -0.85363881               54.24923020                0.00010000               -5.61387654                4.64625418               -5.70643509              -18.30293228               16.83378946               -0.05751822
              13.69599134               -1.44167832               54.25894238                0.77304080                2.73133767                1.00443390               -5.02478369              -11.68822152                9.91562785                0.60040385
              14.71190457               -1.79088248               54.05721062                1.00000000                1.59132262                1.30458045               -5.85524302               -0.50846027                0.11575747               -0.76701422
               5.16669966                3.56465398               55.80129515                1.00000000               -0.59229976               -0.80590719                2.63999057               -0.02863450               -0.14883924                1.07095316
               6.16077666                3.19057069               55.55978129                1.00000000               -0.39893005               -0.37736508                1.26861085                0.03130932               -0.20548745                0.20636957
               7.15872105                2.81550353               55.31714036                1.00000000               -0.01265743                0.04229507               -0.07724029                0.03082625               -0.07370578               -0.30449752
               8.16052351                2.43884848               55.07800138                0.47085596                0.24036409                0.50184811               -1.45886740               -0.04490594                1.78997647               -1.02411454
               9.16352834                2.05921261               54.87204844                0.50966578                0.55262499                1.00460465               -2.89933978               -0.09093532                3.15689987                0.10939888
              10.17157601                1.67643360               54.65846545                0.44844868                1.05446932                1.39404410               -4.28967649               -0.08135670                2.69633227               -0.19289385
              11.18461772                1.29161760               54.44079001                0.15897407                1.36411673                1.82094513               -5.66418831               -0.30567581                4.09339406               -0.77100391
              12.19885834                0.90035547               54.25237715                0.00010000               -2.47034218                0.97313445               -5.81432865              -16.96036233               17.20224100                2.22800091
              13.13521088                0.19282373               54.29591227                0.00010000               -7.55636929                3.74963513               -5.11297973              -25.48806657               27.08752531                3.06873462
              14.04773096               -0.43163398               54.35200427                0.77905700               -3.95933762                0.69352538               -2.60647929              -13.59102802               13.04354490                0.83115693
              15.05602413               -0.77783668               54.14579461                1.00000000                0.82931688                1.00188770               -3.49730273               -0.30288500                0.39610982               -0.51387430
               5.53844002                4.55706547               55.71673221                1.00000000               -0.47995588               -0.70739600                2.29010778               -0.02653535                0.06534700                1.30750816
               6.53364047                4.18721551               55.47096325                1.00000000               -0.28408941               -0.28584788                0.93870938                0.03198017                0.17891014                0.19778723
               7.53275824                3.81635751               55.22750294                0.80896514                0.10881441                0.13628799               -0.40274116                0.02485806                0.40632635               -0.59894259
               8.53581675                3.44416661               54.98607807                0.00010000                0.42195262                0.56826691               -1.75527800               -0.06722729                3.30851951               -1.27165087
               9.54119729                3.06916427               54.80026030                0.00010000                0.81605925                0.73234980               -3.22416455               -0.61457271                4.73114861                0.75387666
              10.55213794                2.69052210               54.58737980                0.00010000                1.28960352                0.61900347               -4.61762789               -1.17736638                3.05795204                3.27583682
              11.56698936                2.30990789               54.36616159                0.00010000                0.78587762               -0.10145997               -5.95819696               -3.21934578                7.76313204                7.20529417
              12.56785549                1.89970915               54.24505128                0.00010000               -4.37417137               -3.24230694               -2.60225136              -18.70156899               24.28954781               10.36223102
              13.47950593                1.22135389               54.37026663                0.04838999               -8.65121534                4.23176226               -5.15827278              -29.08805024               33.56705135                4.11534127
              14.39483118                0.57219219               54.43739193                0.58879946               -4.06268345                0.20889205               -0.71698442              -15.10833652               14.25393246                0.49212836
              15.39825226                0.22915527               54.22574141                1.00000000                0.34210782                0.52920490               -1.94391858               -0.15958425                0.52694637               -0.96526829
               5.90586887                5.55050606               55.63132374                1.00000000               -0.37446533               -0.59709106                1.92629210               -0.03936477                0.18187054                1.12635499
               6.90212421                5.18485373               55.38039934                0.77398441               -0.18008760               -0.17613492                0.59459881                0.01528103                0.43204193               -0.10422010
               7.90226711                4.81822929               55.13452757                0.22760637                0.21239993                0.25229471               -0.70787842               -0.00975056                0.98288768               -1.08163991
               8.90637221                4.45021382               54.89439617                0.00010000                0.13071392                0.68844637               -2.05638096               -0.46741146                5.53877823               -1.03027005
               9.90488139                4.07385960               54.73926755                0.00010000                0.04564216                0.53736439               -3.11675915               -1.24658825                9.70586441                2.36380963
              10.90728506                3.68881367               54.58587262                0.00010000                0.30811793               -0.15605822               -4.12556301               -2.40371302               11.04796992                6.51341650
              11.91104375                3.28958840               54.45653513                0.00010000                0.30479553               -1.91653481               -4.40559374               -5.77489354               16.12838600               11.80521873
              12.91338097                2.83550933               54.39868001                0.00010000               -1.50384585               -4.31232301               -4.35682841              -12.87006152               23.27404335               12.19505768
              13.88096684                2.27745897               54.40712520                0.00010000               -8.78090610                3.67458278               -4.61844937              -20.64532032               30.80182981                1.84601363
              14.73776284                1.57254386               54.51728787                0.04820753               -7.10302793                8.91221111                0.35134840               -6.84026156               16.86155154              -10.79182526
              15.73890628                1.23274742               54.29734215                0.60517927                0.11434326                2.26431797               -1.26087746                8.85339673                0.46742911              -10.74409901
               6.26895738                6.54512364               55.54319414                1.00000000               -0.27345245               -0.48312116                1.56749484               -0.04395237                0.13155737                0.86744396
               7.26622286                6.18369281               55.28547424                0.47725987               -0.08771215               -0.05252153                0.22637348                0.01288524                0.49007768               -0.47358010
               8.26720314                5.82140341               55.03495538                0.03561074                0.23076761                0.38735912               -1.04955822               -0.00800863                1.98096511               -1.63034526
               9.27083821                5.45793553               54.80683747                0.00010000                0.52312681                0.67944014               -2.08674298               -0.39847594                9.36911888                2.69706889
              10.27766567                5.07991155               54.70425915                0.00010000                0.87483386                0.44759004               -3.09603237               -0.92047014               15.06185554                3.63936047
              11.28833489                4.68740093               54.59050150                0.00010000                1.35650747               -0.30120185               -3.85003463               -1.77333117               15.92556190                5.82612959
              12.30479582                4.27157720               54.50149592                0.00010000                1.71243985               -1.54415442               -4.30686112               -3.83713555               19.38842253                7.23229711
              13.32258368                3.81346269               54.44922973                0.00010000                1.23845859               -1.65425959               -4.51459432               -7.67898978               23.27023209                5.48008126
              14.32956500                3.29484555               54.43193877                0.00010000               -0.99230890                1.83038492               -4.38690923               -9.54556035               23.22490594                0.51792972
              15.30273751                2.75043641               54.37372722                0.08657640               -3.73259581               12.91642837               -5.64251160               -0.30193587               14.13796956              -10.22513016
              16.25491308                2.27444163               54.17727876                0.62865224               -4.78244258                7.59476404               -5.54456619                3.13132492                5.97317633              -14.41749935
               6.62785149                7.54084364               55.45261469                0.97867619               -0.17493369               -0.37955628                1.21311273               -0.03614294                0.02590539                0.70768537
               7.62610216                7.18380330               55.18750393                0.35685057                0.00063619                0.06197653               -0.08618277                0.01965862                0.44306740               -0.60893574
               8.62786422                6.82597647               54.93074320                0.00010000                0.68961966                0.51966029               -1.37391212               -0.14830433                6.66840253               -1.95650883
               9.63989455                6.46380262               54.78972467                0.00010000                1.45711890                0.53495028               -2.28783608               -0.30371260               13.75708433                3.71498337
              10.65700659                6.08281141               54.67445559                0.00010000                2.01291207                0.16973386               -3.21142099               -1.04593660               16.59839180                3.53919176
              11.68015279                5.68278963               54.58769883                0.00010000                2.56163440               -0.48218457               -3.91420993               -1.95913997               19.24635186                4.54609228
              12.70823928                5.25870531               54.52043589                0.00010000                2.81900153               -1.04642032               -4.39388767               -3.67740065               21.73885021                4.87888656
              13.73653282                4.80242414               54.47582616                0.00010000                2.24213122               -0.64498822               -4.67812198               -5.99867205               24.02828307                3.71681806
              14.75308191                4.31406667               54.44509271                0.00010000                0.77976093                1.93594418               -5.05965397               -6.40323162               25.37310049                1.10967684
              15.75212804                3.83087243               54.41870864                0.13368510                0.02202145                5.65220678               -6.47864223               -2.28166625               14.79430831                1.93468515
              16.75352234                3.38464270               54.17123888                0.65124433                0.13942963                7.74500650               -5.95793139                2.33004027                3.39602372               -3.48894307
               6.98231519                8.53753252               55.36129161                0.94065891               -0.08319954               -0.28785149                0.90535209               -0.03748368                0.04425845                0.69914405
               7.98148319                8.18493234               55.08997362                0.30590962                0.09612709                0.15701352               -0.38789563                0.02577721                0.34996342               -0.58800600
               8.98423773                7.83179661               54.82476284                0.00010000                1.32229145                0.62944537               -1.67155785               -0.39583784                9.08598770               -2.06651507
              10.00792902                7.46863454               54.72748806                0.00010000                2.67611008                0.40942637               -2.64299987               -0.75874696               18.20363909                0.85802285
              11.03775993                7.08330623               54.64331850                0.00010000                3.26645803               -0.04956116               -3.46829989               -1.51402278               19.93846814                2.68744581
              12.07325818                6.67775724               54.57705578                0.00010000                3.69266841               -0.50949709               -4.11723636               -2.30644539               22.05173794                3.52239190
              13.11161330                6.25064879               54.52930195                0.00010000                3.69953469               -0.65075279               -4.55834538               -3.47144746               24.13706397                3.93203155
              14.14724888                5.80056293               54.49705734                0.00010000                3.07193865               -0.02505563               -4.82696067               -4.67925637               25.97136031                3.68348493
              15.17305207                5.33356443               54.47752076                0.00467116                1.96396360                1.52158515               -4.93063955               -4.75443141               28.02578187                3.03448770
              16.18652815                4.86348055               54.47933785                0.18541087                1.04606328                2.39216060               -4.24835354               -1.94477179               15.34582086                3.03971193
              17.19397334                4.42934176               54.20172603                0.67389318                0.74451904                3.15879215               -4.16688523                0.14865155                1.44341072               -0.03648659
               7.33230218                9.53508661               55.27056154                0.91989775                0.00514259               -0.20393621                0.61759806               -0.03995717                0.02038337                0.73175023
               8.33235360                9.18694357               54.99254272                0.29559313                0.19715393                0.24207302               -0.67872526                0.03732380                0.24153297               -0.57908641
               9.33624526                8.83856538               54.71889965                0.00010000                2.04281940                0.70449213               -1.94379260               -0.77320534               11.04589899               -2.06085742
              10.37320999                8.47199115               54.65618315                0.00010000                4.06790905                0.20096728               -2.96810392               -1.41124455               22.12383008                0.16303763
              11.41760344                8.08182018               54.60153577                0.00010000                4.67356652               -0.33261223               -3.77893676               -1.95891916               23.42489058                1.71675311
              12.46668132                7.67259969               54.56026884                0.00010000                4.92006040               -0.62794196               -4.35682240               -2.30951820               25.21829093                2.75780655
              13.51600465                7.24569025               54.53516799                0.00010000                4.66753648               -0.53033994               -4.65963719               -2.83466886               27.08407476                3.58811646
              14.56003205                6.80192303               54.52378745                0.00010000                3.95355048                0.03070148               -4.68078759               -3.43639264               28.42626804                4.60234897
              15.59507566                6.34449838               54.51784563                0.04218023                2.87116080                0.72235532               -4.35289945               -3.76348639               29.12869470                5.24694790
              16.61745527                5.87871564               54.51340509                0.23768154                1.48486409                1.21340543               -2.73377388               -1.77796843               14.94294870                1.69479641
              17.62477294                5.44781855               54.21961084                0.69221157                0.73176688                1.42365511               -3.04206127               -0.05445956                0.52785333               -0.47027552
               7.67780211               10.53345379               55.17988562                0.91681641                0.09487853               -0.12076195                0.32810365               -0.04192753                0.00902491                0.72281842
               8.67875090               10.18977380               54.89528770                0.32147534                0.29619674                0.32391287               -0.97048399                0.03754032                0.15517262               -0.56363487
               9.68372605                9.84588646               54.61353775                0.00010000                2.88492152                0.74007237               -2.20832251               -1.34793510               12.83658418               -1.80455314
              10.73644933                9.47265389               54.58177464                0.00010000                5.71234810               -0.27362082               -3.27964905               -2.17015333               25.73683658               -0.02636166
              11.79797301                9.07665399               54.55385624                0.00010000                6.33742104               -0.90033742               -4.07528963               -2.03045316               26.80635500                1.15022470
              12.86319775                8.66519840               54.53747979                0.00010000                6.38117878               -0.95301237               -4.56340438               -1.84687814               28.62468189                2.05915014
              13.92559659                8.24004199               54.53854837                0.00010000                5.82575760               -0.77998897               -4.64146035               -1.86951209               30.91605616                3.12922874
              14.97971290                7.80117696               54.55996620                0.00010000                4.76965738               -0.40457027               -4.12332831               -2.08481248               32.36533623                5.04838624
              16.02098973                7.34801154               54.58252389                0.08160766                3.39678544               -0.09215922               -3.31794802               -2.37301207               29.07445897                9.48739336
              17.04764861                6.88774866               54.53194637                0.28797234                1.68443045                0.81479590               -2.26299646               -1.50051715               12.91626300                0.88854490
              18.05467834                6.45781487               54.22691134                0.70437886                0.70297315                0.88244106               -2.58036871                0.00825724                0.20200418               -1.09502403
               8.01882362               11.53267137               55.08900787                0.88074532                0.18481303               -0.03378488                0.03453335               -0.04555320                0.01553934                0.61947679
               9.02067175               11.19342183               54.79811889                0.34654958                0.37914246                0.40704595               -1.26990862                0.00700814                0.29967122               -0.49303716
              10.02640647               10.85336683               54.51280924                0.00010000                3.91838236                0.75784817               -2.47976417               -2.26412028               14.59679185               -1.11646576
              11.09903940               10.46651873               54.50706461                0.00010000                7.90216957               -1.58562573               -3.55859250               -2.25937254               28.93549887                0.03089016
              12.18444986               10.06381343               54.50162447                0.00010000                8.36581795               -1.60418900               -4.32119824               -1.44158399               29.94751213                0.64564459
              13.26635576                9.65353944               54.50719181                0.00010000                7.90929948               -1.43666757               -4.70910561               -0.96691911               32.00499261                1.18213051
              14.34263585                9.23009047               54.53372641                0.00010000                7.20052511               -1.24435239               -4.54277729               -0.89632317               35.03994000                1.93416033
              15.41036626                8.79383162               54.59058013                0.00010000                5.92039320               -1.15249566               -3.52651931               -1.06349030               39.67958748                3.58379060
              16.46104371                8.34265519               54.70016313                0.13914329                3.36376690               -0.55683321               -0.69359473               -0.94125247               29.43244979                8.08703302
              17.47764160                7.89501156               54.54480632                0.35632046                1.18809767                0.71401713               -2.29892641               -0.87835964                8.05149250                0.59090573
              18.48480567                7.46546737               54.22869985                0.70781140                0.71640708                0.74850537               -2.45526901                0.03134820                0.01168147               -1.06824589
               8.35539012               12.53277810               54.99637499                0.94316779                0.28054801                0.01067287               -0.26326807                0.17031250                0.28339694                0.52298288
               9.35819560               12.19791472               54.70203958                0.71304243                0.49783081                0.44928866               -1.57743398                0.16565150                0.93745013               -0.41913939
              10.36534674               11.86104342               54.42065208                0.45193206                6.13098338                0.76765928               -2.78042894               -3.95464021               16.36154287               -0.65383624
              11.48081527               11.44094137               54.43363291                0.36835718               10.83869408               -2.55773628               -3.80157213               -2.64607329               31.63837732                0.00514120
              12.58212062               11.04457021               54.44383932                0.36036551                9.83835288               -1.92432286               -4.49051480               -0.45673995               32.69021668                0.36195143
              13.67758233               10.63646505               54.46586493                0.36688815                9.26286603               -1.70743935               -4.77142078               -0.34810587               34.98264909                0.68477912
              14.76737794               10.21515494               54.51084958                0.38780772                8.41480247               -1.49355309               -4.46109715               -0.44269110               38.55210330                1.14035436
              15.84587838                9.77812704               54.59356707                0.42403375                6.68034026               -1.57045807               -3.11524589               -0.36279157               43.85519105                2.27424822
              16.90098475                9.33687487               54.73483467                0.60163525                3.06954320               -0.57803200               -0.44476039                0.18920118               31.01803323                4.14408047
              17.90726924                8.90202900               54.55559671                0.71497764                0.67044733                0.70174391               -2.37462096               -0.24173033                7.72016919                0.53415041
              18.91439369                8.47278497               54.23636832                0.85514020                0.71244515                0.73176054               -2.42807039                0.03439992                0.68940493               -0.82706960
               5.03149378                2.67277852               56.92122950                1.00000000               -0.69438914               -0.85626035                2.96819731               -0.26230563               -0.74475443                0.76060150
               6.02454989                2.28792484               56.66588427                1.00000000               -0.50956546               -0.41463079                1.56823111               -0.19853085               -0.95784247                0.12375059
               7.02130247                1.90226133               56.40615727                1.00000000               -0.14203062                0.01237143                0.19809860               -0.20623212               -0.85756366               -0.16219127
               8.02170927                1.51459833               56.15244477                0.64866060                0.08759171                0.49025620               -1.21721764               -0.31664465                0.40910699               -0.72810588
               9.02305430                1.12338525               55.91736717                0.62210167                0.40570628                1.05154102               -2.75864817               -0.29518833                1.59817772                0.04626523
              10.02982340                0.73108121               55.68568618                0.54733945                0.91591942                1.44631271               -4.26076292               -0.25939580                1.71979132               -0.19143614
              11.04137269                0.33581316               55.45132221                0.29118392                0.92449362                1.91001601               -5.74993489               -0.64638510                2.96203637               -0.57910854
              12.04831327               -0.06972887               55.24382762                0.00010000               -9.53917755                2.04546399               -6.38637567              -21.16370796               11.01166630               -0.38853168
              12.85058914               -0.89096625               55.18658883                0.00010000               -7.74784950                5.89209974               -6.89398093              -21.91350308               17.14100636                0.94500341
              13.89335628               -1.53905943               55.19658075                0.69568938                3.40762373                1.83308356               -8.13475206              -14.04012472                9.99033222                0.94004002
              14.91874161               -1.89954935               54.98552789                1.00000000                2.53853328                2.20687508               -9.29508886               -0.70524579                0.09694517               -1.05296909
               5.41372440                3.66421592               56.82780190                1.00000000               -0.59012244               -0.80894488                2.65027858               -0.03118137               -0.12568546                1.02954094
               6.40782317                3.28377853               56.57238778                1.00000000               -0.39104979               -0.37258379                1.24958959                0.02852338               -0.16598024                0.19833078
               7.40590340                2.90238504               56.31608025                1.00000000                0.00788447                0.05564130               -0.12963434                0.02994416               -0.04174241               -0.29069880
               8.40798086                2.51950089               56.06287804                0.46516154                0.29787887                0.52232952               -1.54908573               -0.03833198                1.74076599               -0.97530260
               9.41186098                2.13390066               55.84173226                0.49374885                0.65173116                1.05976279               -3.12542648               -0.08638555                3.08912515                0.08660675
              10.42101549                1.74554433               55.61386200                0.42312699                1.17264488                1.47462992               -4.59574698               -0.07731635                2.66891613               -0.27725473
              11.43531388                1.35491332               55.38234689                0.11887796                1.45252047                1.92543620               -6.00552863               -0.64736622                4.81281894               -0.92343932
              12.45006590                0.95072577               55.19502813                0.00010000               -3.45972441               -0.59541146               -5.51218478              -21.11091160               18.85550914                3.75037709
              13.36611939                0.16795475               55.24275873                0.00010000               -9.64096566                4.67218193               -5.43084368              -30.04573168               29.76409080                3.42482380
              14.25724658               -0.52072859               55.31804091                0.62074261               -4.69701590                1.35415321               -4.91635208              -16.14861370               14.49732032                1.44166514
              15.27217907               -0.87748059               55.10167436                1.00000000                1.49324885                1.75109666               -6.11607949               -0.48215976                0.84481756               -0.70986433
               5.79174491                4.65659962               56.73975396                1.00000000               -0.47936843               -0.70944439                2.30467427               -0.02955682                0.08585685                1.24889571
               6.78695123                4.28047317               56.48027213                1.00000000               -0.27829602               -0.28153272                0.92103577                0.02933533                0.20893449                0.17787600
               7.78617899                3.90337415               56.22319894                0.80195167                0.12378909                0.14928086               -0.45206575                0.02758517                0.43715427               -0.57655884
               8.78942701                3.52504492               55.96806043                0.00010000                0.45520777                0.59004382               -1.83078149               -0.03216362                3.21953692               -1.20938394
               9.79528315                3.14458051               55.76629838                0.00010000                0.89187012                0.62688361               -3.52291263               -0.67512643                4.69114517                0.96693451
              10.80726441                2.76057381               55.53917551                0.00010000                1.39803904                0.35525590               -4.99186283               -1.26964568                3.15337952                3.60120638
              11.82324393                2.37432188               55.30460866                0.00010000                0.28945986               -0.83771356               -6.32713390               -5.22413560               10.78180014                7.99720768
              12.81305361                1.91836290               55.22796157                0.00010000               -5.10575289               -5.05794754               -1.20592572              -22.25096886               25.81148957                8.50524913
              13.72112887                1.20247739               55.32363328                0.02856087               -9.86171296                4.43131577               -4.38903664              -33.08903914               34.79215326                3.44793372
              14.61581935                0.48802363               55.42773721                0.53685220               -4.92632264                0.57563567               -1.55274536              -17.74574984               16.95261395                0.78246872
              15.62260242                0.13547259               55.20057463                1.00000000                0.67830674                1.00794275               -3.56865155               -0.25974515                0.80992917               -1.62572214
               6.16538617                5.65002703               56.65071772                1.00000000               -0.37508224               -0.59707216                1.94387326               -0.04234093                0.20134832                1.06559858
               7.16163535                5.27814788               56.38625967                0.74615496               -0.17514108               -0.17351800                0.57695251                0.01557112                0.47104814               -0.14445133
               8.16188335                4.90537066               56.12717872                0.21072183                0.22479416                0.26504945               -0.75720968               -0.00126533                1.01758586               -1.07325093
               9.16613123                4.53130177               55.87345183                0.00010000                0.04731070                0.69203255               -2.11952354               -0.59585662                5.67233443               -0.82556399
              10.16282957                4.14643833               55.70723777                0.00010000               -0.01250190                0.22767798               -3.25465952               -1.55057493                9.97375241                2.65861877
              11.16588120                3.75264945               55.54339686                0.00010000                0.51062519               -0.82536828               -4.32701803               -2.99998415               11.78449195                6.99987628
              12.17304207                3.33815905               55.41205738                0.00010000                0.55049084               -3.23867617               -4.48068475               -7.51594270               17.54146162               12.32527752
              13.17689101                2.84956682               55.35543090                0.00010000               -1.91820975               -4.67474703               -4.36589761              -14.90101475               24.73839803                9.57520274
              14.13467787                2.25658107               55.36473050                0.00010000              -10.37773120                3.56552869               -4.01207724              -23.74577465               34.35701469                0.09613255
              14.96933639                1.49078412               55.52046848                0.04353856               -8.12958069               10.03538696                0.04619039               -7.73996113               20.27400665              -14.54154589
              15.97208626                1.14267826               55.28130286                0.61668136                0.27498718                2.37379937               -2.33172452                9.88378336                0.80050601              -14.27213397
               6.53465639                6.64465818               56.55900759                1.00000000               -0.27373694               -0.48138934                1.58661928               -0.04570881                0.11997739                0.81689352
               7.53191902                6.27700281               56.28762135                0.45930020               -0.08282973               -0.05457373                0.20322851                0.02058716                0.51756015               -0.49776413
               8.53299980                5.90867514               56.02414816                0.02253166                0.22615890                0.39206358               -1.10668009               -0.00070432                2.18575309               -1.63536503
               9.53644220                5.53888557               55.78595288                0.00010000                0.49620840                0.51142242               -2.05078997               -0.68919679                9.65344309                2.86668177
              10.54292397                5.14913407               55.67248679                0.00010000                0.95509073                0.10809174               -3.21733352               -1.37242165               15.44323058                3.66359484
              11.55554402                4.74406644               55.55089159                0.00010000                1.65418710               -0.94814334               -4.03458485               -2.48652230               16.63178836                5.77928989
              12.57600771                4.30954836               55.45701815                0.00010000                2.05336426               -2.36796506               -4.56249895               -5.23140910               20.41366963                6.66913379
              13.59661130                3.82486796               55.40247782                0.00010000                1.44941863               -1.92402969               -4.82564577               -9.61774161               24.54864320                4.16687783
              14.60499608                3.27378796               55.38526748                0.00010000               -1.08441836                1.98212906               -4.92117808              -11.50221180               23.95236668               -1.64261591
              15.57492293                2.68873137               55.31623143                0.07516180               -4.42531389               14.87850075               -5.89555078               -0.90700378               14.46937308              -16.00334280
              16.51648980                2.18294858               55.11668612                0.63378807               -5.84331308                9.20084235               -6.61430584                2.74769385                7.15918565              -19.13133900
               6.89978274                7.64039924               56.46493902                0.96096566               -0.17526099               -0.37826256                1.24327314               -0.03825083                0.03403636                0.68844614
               7.89803013                7.27705640               56.18651679                0.34589365                0.01018790                0.05494891               -0.11076504                0.03199843                0.46454920               -0.60152470
               8.89998650                6.91321193               55.91666977                0.00010000                0.69291196                0.50176339               -1.43700206               -0.28470014                6.86484446               -1.94085961
               9.91188837                6.54153022               55.76592224                0.00010000                1.51068820                0.28279817               -2.42866555               -0.71138940               14.09021384                3.55859167
              10.93020026                6.14860017               55.64131200                0.00010000                2.19240426               -0.14777755               -3.37937565               -1.63111671               17.02307149                3.29309927
              11.95573646                5.73368659               55.54703114                0.00010000                2.87060513               -0.94865551               -4.18736162               -2.85529779               19.85085667                4.09405965
              12.98761237                5.29079975               55.47432761                0.00010000                3.22800607               -1.49213881               -4.80808563               -5.02586920               22.51867262                4.09632719
              14.02029658                4.81108623               55.42581998                0.00010000                2.65789300               -0.78094404               -5.32433318               -7.68268149               24.78416214                2.46212477
              15.04077023                4.29622365               55.38972154                0.00010000                1.08695623                2.42346726               -6.07018874               -8.06714563               25.32104980               -0.68366781
              16.04203570                3.78835413               55.34393694                0.10818942               -0.10822465                7.66202148               -8.46215827               -3.13516978               15.32238302                0.09740301
              17.03860573                3.32669511               55.10294363                0.64233451               -0.34299689               10.91155664               -8.12496836                2.50827961                5.05584341               -5.57105941
               7.26057705                8.63709293               56.37056233                0.92882223               -0.08307446               -0.28724400                0.94283769               -0.03789345                0.04296801                0.71166465
               8.25974630                8.27810178               56.08591510                0.29781748                0.11274672                0.14931428               -0.41940027                0.03348934                0.36197461               -0.57495658
               9.26283198                7.91871041               55.80763399                0.00010000                1.35399339                0.59643544               -1.74753678               -0.60938704                9.24924503               -2.03733272
              10.28682617                7.54454153               55.70011281                0.00010000                2.76566398                0.26982759               -2.80854256               -1.26717475               18.51320007                0.59807621
              11.31814526                7.14617852               55.60717928                0.00010000                3.47061543               -0.27227159               -3.73068382               -2.22453441               20.33289113                2.24893125
              12.35623848                6.72509333               55.53383223                0.00010000                3.99727103               -0.76697926               -4.50662315               -3.27209371               22.55014647                2.89808225
              13.39809068                6.27970559               55.48080900                0.00010000                4.06476464               -0.82638289               -5.14075097               -4.71375705               24.72115263                3.10395959
              14.43753377                5.80924908               55.44466159                0.00010000                3.41472886                0.09444123               -5.69340336               -6.06130321               26.58889630                2.68337750
              15.46638526                5.32225731               55.42224053                0.00010000                2.21071517                2.23594463               -6.27679223               -5.66742696               28.95835392                2.10829090
              16.48174808                4.84197180               55.42879265                0.15578368                1.17940935                3.96695598               -6.64280565               -2.21939277               16.58932719                3.86600528
              17.48997345                4.40117971               55.15528430                0.65806097                0.82253709                5.15509381               -5.73230059                0.32996299                2.67913342                0.60647787
               7.61700716                9.63465436               56.27689549                0.91129984                0.00752789               -0.20386405                0.64883241               -0.04054552                0.02006255                0.75380320
               8.61708244                9.28004269               55.98555040                0.28670995                0.21759249                0.23874244               -0.71752607                0.03569030                0.25928641               -0.56623170
               9.62135901                8.92514064               55.69894153                0.00010000                2.09971651                0.68348886               -2.04380366               -1.03026265               11.18173731               -2.03567796
              10.65907677                8.54692677               55.62528500                0.00010000                4.18993860                0.14738857               -3.19790667               -1.96781314               22.36289012               -0.11424814
              11.70515778                8.14315474               55.56188177                0.00010000                4.88453730               -0.42234067               -4.13721529               -2.67885495               23.75785450                1.23147712
              12.75676751                7.71834700               55.51410908                0.00010000                5.20118472               -0.70415403               -4.87243677               -3.19712705               25.65264928                2.11809368
              13.80918148                7.27427209               55.48509609                0.00010000                4.98756378               -0.49037927               -5.38544499               -3.83519720               27.63178197                2.89170177
              14.85651879                6.81297505               55.47240776                0.00010000                4.27587452                0.31992881               -5.70436061               -4.34527221               29.15436581                4.12026133
              15.89469897                6.34094254               55.46898858                0.03172927                3.11033297                1.36670854               -5.68951769               -4.18871725               30.73645242                5.21788775
              16.91872545                5.86769325               55.48300949                0.21121409                1.60451086                1.91507719               -3.75057150               -1.82218355               16.26606093                2.50727592
              17.92678918                5.42979698               55.18777215                0.67321258                0.80637338                2.06705694               -3.59107997               -0.10450448                0.95015876                0.28726633
               7.96898948               10.63301565               56.18332468                0.90953339                0.09843537               -0.12367722                0.35897242               -0.04402663                0.00880695                0.74640338
               8.96997383               10.28287663               55.88531847                0.30910916                0.31765859                0.32941016               -1.02086304                0.02915688                0.18728860               -0.56047714
               9.97534265                9.93238019               55.59081468                0.00010000                2.97409874                0.74811328               -2.33877685               -1.61519293               12.95968696               -1.79702902
              11.02945581                9.54748931               55.54746903                0.00010000                5.89026398               -0.25971901               -3.58018772               -2.69925595               25.91774402               -0.26083364
              12.09314793                9.13773170               55.51083685                0.00010000                6.58613889               -0.89129940               -4.53105649               -2.64985704               27.10103180                0.73717597
              13.16117859                8.71101025               55.48880099                0.00010000                6.68053784               -0.89644002               -5.19462519               -2.52555593               29.07115192                1.53347432
              14.22675869                8.26989800               55.48831014                0.00010000                6.13896473               -0.61881288               -5.47866353               -2.52329757               31.67123429                2.65296551
              15.28395788                7.81564766               55.51448070                0.00010000                5.05670124               -0.08696846               -5.13734009               -2.54377059               33.41238955                5.00993022
              16.32789271                7.34959148               55.54497394                0.08064392                3.62460398                0.25153032               -4.45724035               -2.51098834               30.47511912               10.96329160
              17.35644996                6.88027335               55.50821950                0.26939629                1.78915918                1.05510859               -2.59379174               -1.54366077               13.75956153                1.01744326
              18.36367590                6.44252085               55.20120123                0.68337048                0.72259363                1.03669509               -2.66199445               -0.00712650                0.29230716               -0.69744560
               8.31640465               11.63218082               56.08950464                0.87148456                0.18963831               -0.04093625                0.06591994               -0.04735954                0.01810329                0.63946268
               9.31830104               11.28663089               55.78510327                0.32837765                0.40189120                0.42177496               -1.33149113               -0.00208840                0.34965208               -0.49956956
              10.32444248               10.94010290               55.48724558                0.00010000                4.07195476                0.78631940               -2.64210529               -2.52325603               14.73800694               -1.12898350
              11.39974013               10.54173239               55.46976212                0.00010000                8.20986100               -1.59006591               -3.91525061               -2.63299787               29.11602916               -0.09303818
              12.48863970               10.12532875               55.45587921                0.00010000                8.71749838               -1.55710059               -4.84877285               -1.82525602               30.26393448                0.40668200
              13.57409010                9.70041820               55.45679516                0.00010000                8.27192097               -1.31854093               -5.42035270               -1.33954047               32.54757607                0.87424244
              14.65407812                9.26189583               55.48440919                0.00010000                7.59298991               -1.04467346               -5.43211718               -1.20705386               36.06807892                1.68638241
              15.72594990                8.81123568               55.55148887                0.00010000                6.28876965               -0.91974171               -4.48368494               -1.28395939               41.99174513                3.71691717
              16.77985351                8.34597315               55.69239485                0.15407061                3.44864850               -0.31802800               -1.06487696               -0.96443680               30.29569236                9.28833814
              17.79492287                7.88879543               55.52106473                0.35159462                1.11490714                0.80970061               -2.49744396               -0.89075340                7.30509470                0.45358734
              18.80215165                7.45053089               55.20484633                0.68562178                0.72287849                0.74245302               -2.34422591                0.03472877                0.07887269               -0.87211652
               8.65914214               12.63219692               55.99388637                0.93747194                0.28678437                0.00161045               -0.23218760                0.18526940                0.28836035                0.54039807
               9.66200998               12.29131213               55.68590476                0.70256189                0.53169503                0.46812387               -1.64724050                0.16637699                0.99867038               -0.43089651
              10.66977604               11.94810657               55.39202446                0.44922342                6.47800124                0.80036707               -2.95587745               -4.24785124               16.55461537               -0.67408451
              11.79157000               11.51568799               55.39388534                0.36813185               11.40904814               -2.60444003               -4.17037541               -2.89285676               31.93528144                0.00395270
              12.89795700               11.10658969               55.39641972                0.36038082               10.31253444               -1.87390581               -5.02802590               -0.62069761               33.15924235                0.29908262
              13.99782069               10.68463943               55.41493614                0.36661513                9.69215651               -1.57787692               -5.48418416               -0.50619858               35.69605340                0.60248701
              15.09180013               10.24900453               55.46257361                0.38676683                8.81903438               -1.28913026               -5.32792246               -0.59712908               39.84437545                1.11882924
              16.17420138                9.79725282               55.55928278                0.42184273                6.96220523               -1.39828592               -3.93463572               -0.46353210               46.16986970                2.59239742
              17.23104423                9.34323092               55.72918995                0.61424882                2.99378857               -0.27422249               -0.86668899                0.07979929               31.41192537                4.15989725
              18.23407715                8.89646736               55.53137782                0.71655889                0.49276589                0.76719335               -2.48468338               -0.37762211                6.73679868                0.40128511
              19.24089955                8.45736991               55.21318960                0.84321805                0.68223993                0.68390219               -2.20816027               -0.03495515                0.68328119               -0.67452180
               5.28664153                2.77525084               57.95089957                1.00000000               -0.68623173               -0.85305030                2.95456285               -0.26474042               -0.70201838                0.73238933
               6.27977921                2.38423078               57.68144755                1.00000000               -0.49669035               -0.40813396                1.54090345               -0.20150087               -0.89760478                0.11917930
               7.27670772                1.99242183               57.40788111                1.00000000               -0.11915056                0.02260504                0.15144815               -0.20766731               -0.80875753               -0.15027875
               8.27739620                1.59870098               57.13986828                0.63958780                0.13077678                0.50257880               -1.28302278               -0.32866532                0.35261729               -0.69714664
               9.27932326                1.20126729               56.88904882                0.60229942                0.46073208                1.07462417               -2.87117846               -0.31164325                1.45209731                0.02375861
              10.28661084                0.80246086               56.64215623                0.51621055                0.94003921                1.49383208               -4.40360309               -0.29760467                1.56086125               -0.23788354
              11.29812404                0.39985746               56.39283159                0.23974451                0.33123663                2.00049011               -5.90330968               -1.46091001                3.22677559               -0.63615250
              12.29323557               -0.02992520               56.17973678                0.00010000              -12.53896164                2.11542597               -6.37348155              -25.11468832               10.22336945               -0.88312568
              13.04734481               -0.94707853               56.11135058                0.00010000               -9.81883207                7.13542893               -7.64370140              -25.78012033               15.79788569                1.04002181
              14.09685893               -1.66579783               56.09624734                0.63463424                4.43021937                3.18406926              -12.21765363              -16.66753369                9.01185574                1.54712421
              15.13594920               -2.04423481               55.87130884                1.00000000                3.90902632                3.71540969              -13.96932214               -0.87325988               -0.14618571               -1.20111535
               5.67501418                3.76672034               57.85430073                1.00000000               -0.58354778               -0.80616415                2.63929563               -0.03312467               -0.10507004                0.99494018
               6.66917871                3.38014944               57.58477309                1.00000000               -0.38091190               -0.36648195                1.22489120                0.02612546               -0.13153461                0.19082934
               7.66739595                2.99264788               57.31454767                1.00000000                0.02540564                0.06530156               -0.17101408                0.02913149               -0.01833590               -0.27918259
               8.66968682                2.60372677               57.04701966                0.46390424                0.34654694                0.53520793               -1.60678711               -0.04612497                1.63696394               -0.92385054
               9.67432689                2.21201353               56.80953991                0.48328000                0.73264428                1.08650795               -3.26745989               -0.08728657                2.93095741                0.02683348
              10.68433970                1.81739918               56.56655051                0.40287585                1.26905422                1.52752523               -4.81372723               -0.09333740                2.58350661               -0.37295272
              11.69970797                1.41986237               56.32067944                0.08296431                1.56084915                2.01420446               -6.27756856               -1.52274306                5.89536204               -1.00523926
              12.71555669                0.99122906               56.14213346                0.00010000               -4.61140247               -3.03317179               -4.74337644              -26.18807615               20.60089075                5.06134604
              13.60747992                0.12427576               56.18729540                0.00010000              -11.83974773                5.77096595               -5.76717237              -34.84788256               30.23412043                3.16043826
              14.47876173               -0.63395714               56.25367722                0.47877723               -5.09131736                2.56059098               -9.23567066              -18.56366453               14.76261164                2.82314575
              15.50565357               -1.00708071               56.02347302                1.00000000                2.68918399                3.06235667              -10.88640198               -0.67101688                1.62860224               -0.55062187
               6.05912083                4.75912756               57.76282569                1.00000000               -0.47466533               -0.70779669                2.30022429               -0.03275373                0.10446922                1.19896208
               7.05437418                4.37690114               57.48938396                1.00000000               -0.27039042               -0.27669746                0.89966162                0.02528877                0.23663978                0.15870286
               8.05371302                3.99372786               57.21846163                0.79111322                0.13669395                0.15835835               -0.48937730                0.02673617                0.46937689               -0.55909951
               9.05710805                3.60940514               56.94946244                0.00010000                0.50960474                0.60416601               -1.87436531               -0.03286924                3.04461744               -1.14506021
              10.06390512                3.22299745               56.72980205                0.00010000                0.98936000                0.44150236               -3.70684471               -0.81546237                4.47470828                1.23343432
              11.07689525                2.83301136               56.48754255                0.00010000                1.49670918               -0.01520360               -5.25986896               -1.45201546                3.14893275                4.03363744
              12.09383930                2.44014155               56.23961891                0.00010000               -0.59172987               -1.80889557               -6.60345991               -8.67345126               14.41046123                9.02449878
              13.06506066                1.90941137               56.22093277                0.00010000               -5.91329719               -6.93659591               -1.18022081              -26.59408252               28.20623977                7.04240026
              13.97557336                1.16834079               56.28248590                0.00910677              -10.40592737                4.67358347               -4.19524724              -36.42038749               35.77505489                2.70429534
              14.85694211                0.38541399               56.40633702                0.49419939               -5.33986765                1.35879326               -2.96995451              -20.17097889               19.19321743                1.98946777
              15.86877600                0.01701233               56.15436837                1.00000000                1.18338922                1.91369853               -6.02038765               -0.46046321                0.89742152               -1.92211818
               6.43881194                5.75256441               57.67020120                1.00000000               -0.37277663               -0.59436696                1.94718716               -0.04446174                0.22161301                1.01291054
               7.43508418                5.37461549               57.39193839                0.71855394               -0.16926369               -0.17103709                0.55824707                0.01549774                0.51041819               -0.18706791
               8.43542667                4.99581505               57.11938338                0.19158946                0.23378380                0.27385966               -0.79705854                0.00341218                1.06332195               -1.07518691
               9.43975985                4.61581009               56.85200570                0.00010000               -0.05076273                0.66968077               -2.15792612               -0.82555402                5.80535331               -0.56538065
              10.43441142                4.22084358               56.67417436                0.00010000               -0.08022834               -0.19441144               -3.31320056               -2.05142628               10.22596157                3.05240471
              11.43815529                3.81709511               56.49933226                0.00010000                0.77137640               -1.68294595               -4.43245057               -3.88075417               12.57861570                7.62051593
              12.44983894                3.38368445               56.36692143                0.00010000                0.86602582               -4.87259592               -4.56491976               -9.84771350               19.08411754               13.00026161
              13.45547580                2.85249714               56.31136205                0.00010000               -2.33846983               -4.15000983               -4.50070957              -17.28452329               26.77676318                6.51511582
              14.40306955                2.21774743               56.32688365                0.00010000              -11.44025929                3.43307013               -3.87599565              -26.99965275               38.33383388               -2.06997690
              15.22667062                1.39321873               56.51821168                0.04836346               -8.49109559               11.07435567               -0.97559431               -9.13949743               23.76002705              -18.17176985
              16.23324763                1.03119326               56.25070766                0.63752100                0.65770176                2.65808815               -4.18162584               10.21802422                1.35032551              -17.95490224
               6.81412942                6.74724022               57.57492652                1.00000000               -0.26959338               -0.47532919                1.58415789               -0.04774571                0.10984397                0.77662589
               7.81143349                6.37348040               57.28953881                0.43946372               -0.07713774               -0.05682201                0.18376724                0.02715221                0.54691614               -0.52600586
               8.81258666                5.99920506               57.01282177                0.00817081                0.20674816                0.39292036               -1.14993144               -0.01763289                2.47309187               -1.65626420
               9.81556845                5.62279876               56.76582167                0.00010000                0.45024537                0.25022203               -1.92501313               -1.13995498                9.95300611                2.96796879
              10.82159157                5.21910922               56.63991248                0.00010000                1.04354212               -0.34313378               -3.25125196               -2.07493004               15.76321792                3.68327647
              11.83643929                4.79935245               56.50980980                0.00010000                1.99457110               -1.76824612               -4.14014284               -3.52102770               17.33434315                5.72364718
              12.86148299                4.34268964               56.41024594                0.00010000                2.44339630               -3.34217271               -4.76333066               -7.14781606               21.47391171                6.00284969
              13.88530722                3.82641117               56.35271681                0.00010000                1.66878605               -2.15071404               -5.14849339              -12.21705540               25.89666093                2.64358519
              14.89485872                3.23700219               56.33351521                0.00010000               -1.23004445                2.28364154               -5.45316217              -14.05968343               25.11237918               -4.54131373
              15.86070633                2.60690110               56.25581620                0.06750895               -4.88356476               16.35202697               -6.23228926               -2.40725532               15.18348275              -22.58900549
              16.79718742                2.07017409               56.04499265                0.64387409               -6.35189083               10.17150353               -7.60145537                1.49620808                8.15351175              -24.34158879
               7.18537667                7.74305782               57.47748015                0.94471004               -0.17142843               -0.37154393                1.25395989               -0.04089776                0.04039604                0.68214409
               8.18366238                7.37347905               57.18528863                0.33370085                0.01894931                0.04595993               -0.13206650                0.04165892                0.48861065               -0.59911784
               9.18575565                7.00367346               56.90200316                0.00010000                0.66971050                0.47865750               -1.49267735               -0.51131276                7.07194602               -1.95346515
              10.19705659                6.62081453               56.74115136                0.00010000                1.53017355               -0.07827229               -2.47799456               -1.33066364               14.44826418                3.27119901
              11.21635913                6.21398090               56.60686808                0.00010000                2.35488592               -0.56970653               -3.46363489               -2.49887954               17.43880508                2.96683999
              12.24415431                5.78173019               56.50395160                0.00010000                3.17323861               -1.53557512               -4.38416010               -4.14738995               20.40172061                3.54930511
              13.27982390                5.31684100               56.42427418                0.00010000                3.63339131               -2.03650641               -5.16917213               -6.92616610               23.20138608                3.15907848
              14.31682214                4.80948286               56.36933950                0.00010000                3.07810229               -0.93842399               -5.95199747              -10.05663451               25.37545158                0.90107582
              15.34138594                4.26342026               56.32368893                0.00010000                1.42657365                2.97305089               -7.15965860              -10.79971100               24.87721185               -3.10987572
              16.34535361                3.72025927               56.24946548                0.08110158               -0.23800605                9.74134995              -10.01892603               -5.21161633               15.43729639               -3.49065544
              17.33662582                3.23462333               56.00873951                0.63487230               -0.87277890               14.32343546              -10.63001546                1.30567130                6.78818150               -8.86636998
               7.55246900                8.73980934               57.38014836                0.91710751               -0.08179744               -0.28287486                0.97087759               -0.04012749                0.03838086                0.73376190
               8.55165103                8.37439960               57.08158562                0.28949945                0.12779633                0.13682593               -0.44369407                0.03998889                0.37931020               -0.57276080
               9.55502493                8.00877821               56.78981210                0.00010000                1.34983527                0.54988334               -1.81647269               -0.93882669                9.41251098               -2.05132090
              10.57864773                7.62123331               56.67131721                0.00010000                2.78366988                0.07677171               -2.92130189               -2.02960845               18.80809291                0.25722559
              11.61069833                7.20771509               56.56870482                0.00010000                3.59918287               -0.55943741               -3.92344019               -3.25075264               20.68755491                1.69160905
              12.65063139                6.76864094               56.48692332                0.00010000                4.22543345               -1.08686898               -4.83308655               -4.66949482               22.95029064                2.12928491
              13.69520700                6.30195951               56.42648693                0.00010000                4.34819386               -1.04089275               -5.69162152               -6.52402737               25.12225807                2.06380857
              14.73759527                5.80764269               56.38318927                0.00010000                3.64405470                0.25131414               -6.60475379               -8.15457785               26.86573792                1.32168486
              15.76808809                5.29646321               56.35198492                0.00010000                2.38378303                3.13512349               -7.80634230               -7.40487749               28.94299377                0.61820082
              16.78527093                4.80172810               56.34648174                0.12016305                1.32423133                6.45875221              -10.70083465               -3.05905527               17.82036522                3.87341348
              17.79457272                4.35664280               56.08708002                0.64183047                0.93017879                8.65118053               -9.23888895                0.37271822                5.28501593                0.69730934
               7.91539360                9.73740032               57.28353819                0.90290845                0.00996929               -0.20183173                0.67714634               -0.04239242                0.01913729                0.78256570
               8.91549330                9.37621557               56.97819220                0.27812985                0.23759025                0.23058935               -0.75104173                0.03132173                0.28028758               -0.56807974
               9.92014541                9.01467112               56.67802358                0.00010000                2.10171253                0.64318055               -2.13975593               -1.40606509               11.29496783               -2.06862443
              10.95752755                8.62234997               56.59222501                0.00010000                4.18955164                0.08633892               -3.39653671               -2.78723328               22.55448313               -0.49986592
              12.00393644                8.20279215               56.51879146                0.00010000                4.94962238               -0.51575095               -4.45021988               -3.71969025               24.01708459                0.60654387
              13.05651999                7.75999281               56.46282010                0.00010000                5.32025816               -0.77295684               -5.35224618               -4.51264499               25.93865154                1.29593247
              14.11034160                7.29602315               56.42745909                0.00010000                5.13534429               -0.40856544               -6.13184456               -5.36745487               27.90315638                1.93664896
              15.15922688                6.81450915               56.40970024                0.00010000                4.44306885                0.73258809               -6.88392548               -5.80993932               29.45366386                3.29670826
              16.19920298                6.32612273               56.40405528                0.01604440                3.23830180                2.37039444               -7.57385176               -4.82048052               32.07281565                4.78109966
              17.22399292                5.84943431               56.43839366                0.17573448                1.75239063                3.41570902               -6.26819092               -1.85670837               17.88356809                3.99262798
              18.23425079                5.40764694               56.14778924                0.65204896                1.02578775                3.50744871               -5.11028627               -0.17932115                2.06411683                1.54144714
               8.27399066               10.73577271               57.18706507                0.90206250                0.10160023               -0.12506999                0.38814548               -0.04639079                0.00884367                0.77894548
               9.27500666               10.37901139               56.87487044                0.29665676                0.33892855                0.33142909               -1.06616698                0.01498336                0.21603857               -0.57328080
              10.28076923               10.02164182               56.56676222                0.00010000                2.98876888                0.74531258               -2.48250150               -1.98444728               13.03634510               -1.85671447
              11.33478204                9.62296009               56.51017088                0.00010000                5.89462246               -0.20541551               -3.87980636               -3.45214736               26.02154347               -0.60902578
              12.39866168                9.19740007               56.46323511                0.00010000                6.61827281               -0.82139754               -4.97522269               -3.55096099               27.28901858                0.18139408
              13.46714750                8.75318181               56.43358728                0.00010000                6.73399394               -0.75518328               -5.83578637               -3.56772815               29.31452742                0.82063034
              14.53334156                8.29378820               56.42897510                0.00010000                6.20747005               -0.32342464               -6.41820742               -3.59626207               32.10279350                1.92021771
              15.59129690                7.82229445               56.45721940                0.00010000                5.17058767                0.44293708               -6.46454873               -3.34642387               34.04346269                4.70811847
              16.63675331                7.34387110               56.49337909                0.07614197                3.76578249                0.90416044               -6.30741855               -2.70367214               32.02671669               12.60175966
              17.66661255                6.87004228               56.48007054                0.24115537                1.89038592                1.57453383               -3.30593409               -1.48901162               15.01043468                1.49544036
              18.67456103                6.42679177               56.17367145                0.65832043                0.79484840                1.41948599               -3.08378349               -0.09659460                0.51427525               -0.00736616
               8.62798843               11.73489892               57.09032627                0.86263493                0.19354230               -0.04750538                0.09865332               -0.04898228                0.01972636                0.66998971
               9.62992385               11.38284415               56.77148906                0.31072008                0.42596648                0.43412137               -1.38892106               -0.01486461                0.38892518               -0.52086506
              10.63650776               11.02957738               56.45996713                0.00010000                4.14012494                0.81810742               -2.84969651               -2.84566320               14.82017061               -1.19346400
              11.71272635               10.61824166               56.42875960                0.00010000                8.30938728               -1.50930531               -4.30757946               -3.14347888               29.20355910               -0.29590150
              12.80269550               10.18636420               56.40464901                0.00010000                8.80254742               -1.39646178               -5.40611341               -2.38797646               30.44952450                0.07128449
              13.88877730                9.74488914               56.39878476                0.00010000                8.33041067               -1.04744851               -6.20009163               -1.93037674               32.84747456                0.43843684
              14.96930372                9.28955465               56.42508406                0.00010000                7.67191021               -0.62927576               -6.52688785               -1.74720022               36.75367012                1.27471065
              16.04221550                8.82336789               56.50090644                0.00010000                6.40389945               -0.39536375               -5.85746047               -1.69930916               44.18902154                3.72119449
              17.09738171                8.34420594               56.67886559                0.17107457                3.45382524                0.13057524               -2.02398050               -1.10339997               31.12156660               10.68261964
              18.11129201                7.88092499               56.49485744                0.34060078                1.07191069                0.96931148               -2.78120172               -0.83881299                6.59728844                0.33114061
              19.11881992                7.43603666               56.18181533                0.65788884                0.75279124                0.79081050               -2.35573738                0.00490348                0.20866432               -0.57628031
               8.97712056               12.73482260               56.99173124                0.93215309                0.29103612               -0.00763252               -0.19687394                0.20033441                0.29855906                0.56807939
               9.98003092               12.38769381               56.66909477                0.69331781                0.56689529                0.48496607               -1.71113909                0.16977517                1.05584559               -0.45592990
              10.98845847               12.03800397               56.36153453                0.44710564                6.75473592                0.84265909               -3.18870488               -4.55092089               16.69549880               -0.71840635
              12.11512564               11.59277398               56.35022540                0.36796850               11.78981012               -2.54676725               -4.59935611               -3.18672800               32.14089637               -0.03336741
              13.22425467               11.16947083               56.34327880                0.36040855               10.51119358               -1.68933694               -5.63264193               -0.87114108               33.49886295                0.19037600
              14.32534951               10.73223284               56.35618125                0.36639464                9.78320715               -1.26563049               -6.31865616               -0.75618627               36.17153302                0.46080919
              15.41991881               10.28120268               56.40429113                0.38579095                8.86549598               -0.83519691               -6.46853615               -0.83077376               40.85324113                1.03273458
              16.50265943                9.81438718               56.51487436                0.41959337                6.86047015               -0.89807105               -5.20372915               -0.69161140               48.34838902                2.99604374
              17.55712821                9.34648260               56.71750089                0.62935996                2.76730669                0.22766649               -1.67612483               -0.27328258               31.68822118                3.89620716
              18.55800556                8.88942851               56.50590305                0.71611915                0.36537702                0.85035242               -2.58668793               -0.52237541                5.80892777                0.22859397
              19.56443575                8.44260798               56.19220511                0.82824348                0.64301898                0.65713210               -2.04868778               -0.12046962                0.67811026               -0.45218627
               5.55635744                2.88062399               58.98032076                1.00000000               -0.67411953               -0.84353971                2.91943286               -0.26457965               -0.66568310                0.70918949
               6.54961625                2.48365736               58.69670233                1.00000000               -0.48254275               -0.39986496                1.50705255               -0.20213972               -0.84665591                0.11496505
               7.54670659                2.08592262               58.40918624                1.00000000               -0.10111683                0.02982461                0.11440519               -0.20688440               -0.77008858               -0.13977328
               8.54759391                1.68635263               58.12678432                0.63108906                0.15508529                0.50770832               -1.32047930               -0.33881941                0.28079280               -0.66717535
               9.54980830                1.28287824               57.85994360                0.58385812                0.48319688                1.08058530               -2.92491481               -0.32678497                1.30871662               -0.00938763
              10.55725785                0.87753497               57.59761412                0.48663680                0.92596786                1.51639911               -4.47227691               -0.34536831                1.44462889               -0.29267966
              11.56832765                0.46739441               57.33325602                0.19017589               -1.14980897                2.06268064               -5.96508397               -3.55493290                3.67727709               -0.64965817
              12.53426167               -0.01218473               57.11635799                0.00010000              -15.91456800                2.29414354               -5.94457354              -28.35188532                8.03514726               -2.10752151
              13.25003629               -1.02205546               57.03371481                0.00010000              -11.03132676                8.20836529               -7.45017015              -29.61742526               12.78165946                1.64757660
              14.31363514               -1.82297671               56.95222768                0.59599111                5.78293060                4.86213483              -15.82026517              -20.02362217                6.52778755                2.46349803
              15.36569491               -2.22790002               56.70614144                1.00000000                5.20597691                5.63474508              -18.33571597               -0.54586920               -0.78263158               -0.87245449
               5.95067828                3.87218859               58.88058782                1.00000000               -0.57327440               -0.79728030                2.60864751               -0.03497247               -0.08695282                0.96689078
               6.94494554                3.47965871               58.59688561                1.00000000               -0.36940853               -0.35877187                1.19542592                0.02320596               -0.10127536                0.18386952
               7.94329011                3.08622087               58.31265997                1.00000000                0.03911865                0.07169168               -0.20095554                0.02762328                0.00009359               -0.27009553
               8.94572791                2.69142972               58.03074230                0.46544057                0.38295834                0.54025202               -1.63518315               -0.05758749                1.50508705               -0.87205621
               9.95094928                2.29368410               57.77638306                0.47720372                0.79090880                1.08682464               -3.32812099               -0.09209184                2.71054241               -0.04469135
              10.96154608                1.89269896               57.51758745                0.38708342                1.33444502                1.54649188               -4.92446142               -0.12472613                2.43230342               -0.46115321
              11.97763818                1.48802122               57.25679552                0.05100451                1.69608329                2.05877287               -6.43008506               -3.61034904                7.58392153               -1.00298021
              12.99546775                1.01075670               57.10016060                0.00010000               -5.91900732               -4.89164795               -3.34012832              -31.39716352               21.88886822                4.34485150
              13.85925803                0.06002820               57.12741528                0.00010000              -13.95732778                6.95152509               -6.06531369              -39.19613224               27.34150078                3.32352629
              14.71632120               -0.77435536               57.13332749                0.35581909               -4.70492548                4.31276235              -15.97715049              -20.87073384               12.85639302                6.61969011
              15.76515952               -1.17155257               56.88394632                1.00000000                4.88383253                4.88478038              -18.28117863               -0.78005825                2.52216155                1.76246285
               6.34071776                4.86467838               58.78575845                1.00000000               -0.46696707               -0.70020923                2.27802506               -0.03635675                0.12155346                1.16006448
               7.33604809                4.47648192               58.49826536                1.00000000               -0.26148568               -0.27035158                0.87498869                0.01970401                0.26236102                0.14066121
               8.33548805                4.08735646               58.21341140                0.77604837                0.14654220                0.16429507               -0.51506412                0.02340580                0.50449951               -0.54839586
               9.33897894                3.69715767               57.93057313                0.00010000                0.56045807                0.61026054               -1.89044910               -0.05111583                2.83355599               -1.08268150
              10.34669721                3.30461474               57.69216149                0.00010000                1.07236367                0.18459540               -3.76809745               -0.98099472                4.14688946                1.55801419
              11.36042621                2.90846481               57.43397813                0.00010000                1.56828610               -0.49532220               -5.37540395               -1.64422577                3.04970697                4.57830620
              12.37806293                2.50856987               57.17253946                0.00010000               -1.30573951               -3.02419818               -6.73454927              -12.67130265               17.60729816               10.21486307
              13.33431142                1.88998231               57.20435715                0.00010000               -6.34186090               -8.13358054               -2.39019128              -31.72992563               31.59442509                6.34715297
              14.25122571                1.11697505               57.23972834                0.00010000              -10.32550982                5.20620106               -4.71902106              -39.57284372               37.07408379                2.29195428
              15.12780122                0.26327854               57.36833812                0.46136410               -5.33687825                2.61124533               -4.23421663              -22.13938621               20.99287820                5.87997412
              16.14448815               -0.13020441               57.08016688                0.98297938                1.66869267                3.22542550               -8.19502341               -0.90123008                0.41181751                0.19797988
               6.72634407                5.85818441               58.68966147                1.00000000               -0.36825269               -0.58833191                1.93553231               -0.04772574                0.23713846                0.96398455
               7.72266154                5.47425168               58.39742461                0.69199869               -0.16307983               -0.16747384                0.53884128                0.01181827                0.54501220               -0.22854939
               8.72308247                5.08950677               58.11123755                0.16998468                0.23928849                0.27868063               -0.82669609                0.00369838                1.11646442               -1.08539752
               9.72744731                4.70363493               57.83029331                0.00010000               -0.15301148                0.59708081               -2.17027265               -1.13490401                5.95910146               -0.21186073
              10.72002224                4.29737600               57.64097376                0.00010000               -0.13704366               -0.72544254               -3.28284147               -2.66697095               10.50842927                3.54673220
              11.72470644                3.88279252               57.45474785                0.00010000                1.13361903               -2.72723855               -4.43579480               -4.91837750               13.40301387                8.39154657
              12.74269462                3.42753725               57.32075898                0.00010000                1.38788094               -6.81586282               -4.67984465              -12.50957162               20.70397108               13.84435162
              13.75246406                2.84808509               57.26541671                0.00010000               -2.40948479               -3.51100461               -4.77203070              -20.32105997               29.03492495                4.17053996
              14.69450493                2.16415222               57.28721059                0.00010000              -11.58755660                3.45906818               -4.29944288              -30.86484940               42.29632039               -3.90971913
              15.52071293                1.27786954               57.50095660                0.06234880               -8.02020584               12.12094626               -3.14102464              -11.59411752               27.08305624              -20.71732536
              16.53410081                0.89295594               57.19767035                0.66718934                1.33878853                3.41446762               -6.78030855                9.34458972                2.04514252              -20.48526721
               7.10762871                6.85291175               58.59069075                0.98329202               -0.26666147               -0.46820619                1.58099900               -0.04644809                0.11851709                0.74396471
               8.10496210                6.47313245               58.29129669                0.41936965               -0.07249709               -0.06122207                0.17169044                0.03180584                0.58254053               -0.55765947
               9.10617877                6.09293007               58.00114954                0.00010000                0.17247636                0.38227626               -1.17697111               -0.07764701                2.87311645               -1.69229208
              10.10841162                5.70909929               57.74745262                0.00010000                0.40107151               -0.10881325               -1.68615829               -1.71413776               10.28890010                3.00837731
              11.11420020                5.29010589               57.60746175                0.00010000                1.17428952               -0.91156922               -3.20112661               -2.95126839               16.01821451                3.73965409
              12.13189741                4.85392004               57.46808874                0.00010000                2.41893646               -2.76166775               -4.16847747               -4.80974758               18.03817202                5.72344556
              13.16257893                4.37225261               57.36175153                0.00010000                2.96889204               -4.48984612               -4.91335390               -9.53001292               22.51652222                5.41895172
              14.19127525                3.81976222               57.29950795                0.00010000                2.07826738               -2.47249048               -5.51452604              -15.50847015               27.25016367                1.22077163
              15.20414428                3.18615641               57.27620423                0.00010000               -1.20800531                2.57021021               -6.09843629              -17.51905991               26.60573260               -7.47656142
              16.16711515                2.50569746               57.19158564                0.06379410               -5.14685642               17.50029723               -6.46775103               -5.15266716               16.24822087              -28.77867567
              17.10120715                1.93808494               56.96465701                0.65793405               -6.59080007               10.71621986               -8.46820511               -0.67522786                9.03023281              -29.25369978
               7.48497371                7.84882029               58.49001822                0.93011586               -0.16943747               -0.36008089                1.26657886               -0.03723249                0.05888381                0.70131889
               8.48327934                7.47302724               58.18387546                0.32148233                0.02944890                0.03052763               -0.14835130                0.05193411                0.51367544               -0.60708445
               9.48556269                7.09715230               57.88681623                0.00010000                0.63547028                0.43667513               -1.53386696               -0.81983656                7.31681572               -1.99733094
              10.49598874                6.70145866               57.71636235                0.00010000                1.53067183               -0.52434474               -2.44396014               -2.11619944               14.87051074                2.84266155
              11.51617613                6.27914462               57.57203931                0.00010000                2.51880110               -1.10092880               -3.46004689               -3.59047238               17.85192370                2.61200628
              12.54636476                5.82755917               57.45934794                0.00010000                3.50380313               -2.25547566               -4.49202734               -5.79197584               20.91091220                3.02158182
              13.58625219                5.33774033               57.37094417                0.00010000                4.10130461               -2.72278807               -5.45511979               -9.36164582               23.79705478                2.24579860
              14.62839086                4.79863528               57.30678003                0.00010000                3.59681489               -1.22200872               -6.53073573              -13.20543075               25.78891925               -0.66814933
              15.65818849                4.21555642               57.24652837                0.00010000                1.86700972                3.40492852               -8.15633483              -14.64756997               24.45628665               -5.75284444
              16.66573105                3.62787549               57.14355842                0.05356400               -0.11835964               11.24072170              -10.77507272               -8.61654737               15.12242931               -8.75381236
              17.65582129                3.10728034               56.89034332                0.62889451               -0.99097569               16.89956126              -12.27192112               -1.39601164                7.50001209              -13.08297335
               7.85847016                8.84571013               58.38997988                0.90669495               -0.08013909               -0.27156598                0.98865216               -0.04130442                0.03008394                0.77275261
               8.85766877                8.47374300               58.07704122                0.28114779                0.14402273                0.11845183               -0.46127311                0.04384532                0.39184300               -0.58380442
               9.86135061                8.10166357               57.77130453                0.00010000                1.32132717                0.48328703               -1.87684540               -1.37338699                9.58775637               -2.11276370
              10.88409531                7.69861239               57.64168677                0.00010000                2.74698176               -0.16914431               -2.97990165               -3.00832285               19.13411976               -0.16320759
              11.91629025                7.26808731               57.52871047                0.00010000                3.66834389               -0.91946469               -4.03119967               -4.55368054               21.04133069                1.07665917
              12.95746219                6.80881053               57.43717050                0.00010000                4.39898230               -1.49787392               -5.06251379               -6.48911528               23.29281703                1.33422199
              14.00426989                6.31779685               57.36697657                0.00010000                4.59441792               -1.36117130               -6.15230919               -8.96881013               25.37710532                0.97825494
              15.04935055                5.79532204               57.31256652                0.00010000                3.88413886                0.31219034               -7.46229259              -11.14684250               26.87684638               -0.20356290
              16.08195267                5.25425498               57.26611369                0.00010000                2.68548681                3.98069702               -9.40452025              -10.77683873               27.44162044               -1.34570421
              17.10306028                4.73051190               57.21477596                0.08005622                1.62622709                9.30407619              -14.88815686               -5.56235067               18.15540616                2.30428111
              18.11447721                4.27607617               56.97050652                0.62580000                1.14169299               13.33770767              -14.99232512               -0.77062014                8.87654167               -0.58102873
               8.22808189                9.84338897               58.29043842                0.89491074                0.01209143               -0.19518255                0.69937891               -0.04499611                0.01731552                0.81913847
               9.22820280                9.47539627               57.97052957                0.26970544                0.25718338                0.21855780               -0.77730332                0.01788833                0.29538159               -0.58737635
              10.23322555                9.10681804               57.65614641                0.00010000                2.05978743                0.58193852               -2.23800160               -1.89509993               11.38928478               -2.17846515
              11.26939855                8.69807578               57.55735426                0.00010000                4.08394153                0.00809045               -3.56294592               -3.83721197               22.74562293               -0.99159678
              12.31490438                8.26075533               57.47287738                0.00010000                4.87371859               -0.62926380               -4.69132579               -5.06262174               24.26701932               -0.10415389
              13.36687292                7.79760169               57.40706416                0.00010000                5.27300433               -0.86761633               -5.73725314               -6.29857303               26.14022651                0.39362747
              14.42036447                7.31051690               57.36245920                0.00010000                5.10614776               -0.35597336               -6.80886968               -7.59050230               27.95161301                0.83193751
              15.46899588                6.80487909               57.33472926                0.00010000                4.35486948                1.16408919               -8.09945022               -8.21369702               29.28105163                2.15566348
              16.50746186                6.29517036               57.31751154                0.00010000                3.18334872                3.62806902               -9.68032609               -6.36494202               32.45351082                3.67594505
              17.53266285                5.81395701               57.35764567                0.13083553                2.09092441                6.16032363              -12.03955577               -2.39149294               19.87889940                6.07182468
              18.54928035                5.37403449               57.08556642                0.62994301                1.66174979                6.61356332               -9.59030355               -0.37813341                5.30489415                3.40900298
               8.59355562               10.84180648               58.19108759                0.89521665                0.10418417               -0.12372629                0.41381719               -0.04964713                0.00731469                0.82284496
               9.59459746               10.47811415               57.86399513                0.28465325                0.36067456                0.32964953               -1.10404568               -0.01341300                0.22250681               -0.60602424
              10.60076911               10.11330234               57.54116465                0.00010000                2.94081597                0.73216342               -2.66630142               -2.44950751               13.05575373               -2.03344879
              11.65341378                9.69877420               57.46987290                0.00010000                5.73713951               -0.11579699               -4.19274921               -4.40347123               26.10158461               -1.08799842
              12.71551190                9.25550203               57.41133240                0.00010000                6.41576849               -0.70222865               -5.38041317               -4.73076794               27.45825289               -0.48562704
              13.78172915                8.79145820               57.37208526                0.00010000                6.48352714               -0.55043574               -6.40682817               -5.05465145               29.42726388               -0.01414674
              14.84518244                8.31067738               57.35994599                0.00010000                5.93469978                0.07785564               -7.35279220               -5.30945005               32.20340795                0.95455768
              15.90042315                7.81860383               57.38518973                0.00010000                5.01967318                1.15627621               -8.01281714               -4.84540504               34.05495679                4.02153186
              16.94557591                7.32681636               57.41882557                0.06283098                3.79715729                2.01666860               -9.15392045               -3.20067412               33.82079144               14.21433767
              17.97636629                6.85371837               57.44210082                0.20011905                2.05918373                2.78143586               -5.27865689               -1.36064387               17.02252182                2.99587166
              18.98675958                6.40834743               57.13952556                0.63083529                1.03932900                2.32185599               -4.43569820               -0.38065290                1.28152226                1.32385461
               8.95447359               11.84091444               58.09147771                0.85391456                0.19650840               -0.05289582                0.13055516               -0.05098512                0.01941261                0.71413089
               9.95643867               11.48198926               57.75732485                0.29617748                0.45508811                0.44339872               -1.43930891               -0.03634971                0.37563125               -0.56020846
              10.96357535               11.12146131               57.43025165                0.00010000                4.13453792                0.86506534               -3.16761498               -3.22215817               14.81436352               -1.35937365
              12.03912943               10.69575984               57.38361053                0.00010000                8.20148378               -1.33425856               -4.77494134               -3.77603331               29.26045736               -0.60151952
              13.12760503               10.24671075               57.34775694                0.00010000                8.57375554               -1.11821946               -5.98329503               -3.13501755               30.60479661               -0.35131041
              14.21060454                9.78659297               57.33279333                0.00010000                7.97124070               -0.61977819               -6.95504381               -2.80634317               32.95887493               -0.09845133
              15.28702984                9.31207402               57.35387143                0.00010000                7.26721261                0.02838547               -7.73357556               -2.67994784               36.99720460                0.68007288
              16.35594880                8.82800461               57.43433966                0.00010000                6.06519967                0.53170155               -7.75273220               -2.45170140               46.05755890                3.48880738
              17.40833384                8.33550373               57.65191524                0.18057516                3.39850514                0.85340564               -3.98620099               -1.51074120               32.19714064               12.49378827
              18.42391890                7.86958573               57.46544069                0.31638826                1.20376612                1.26148308               -3.18577874               -0.79234648                6.35106794                0.41914514
              19.43240916                7.42047161               57.15773158                0.62689498                0.84902597                0.95995918               -2.72603794               -0.15650974                0.47812005               -0.13551145
               9.31038627               12.84074856               57.98994889                0.92704904                0.29373322               -0.01658784               -0.15888159                0.21462458                0.31672283                0.61025611
              10.31332360               12.48698213               57.65168198                0.68700713                0.60845531                0.49928644               -1.76776197                0.18124713                1.06018398               -0.49702942
              11.32255538               12.13060365               57.32825037                0.44754759                6.96600326                0.91423440               -3.54624087               -4.84665250               16.74204382               -0.81561120
              12.45264367               11.67208903               57.30189822                0.36777964               11.97115193               -2.36708036               -5.15296396               -3.52187686               32.29047119               -0.12544678
              13.56197841               11.23313764               57.28376689                0.36049532               10.37976792               -1.35731093               -6.32413589               -1.21398122               33.78838844                0.03248423
              14.66023903               10.77906264               57.28856302                0.36619178                9.40967155               -0.75303359               -7.20410484               -1.13117954               36.43943755                0.25963921
              15.75017185               10.31124509               57.33320289                0.38476470                8.38601874               -0.08289252               -7.83765171               -1.17703865               41.45620303                0.84834250
              16.82795940                9.82923786               57.45520820                0.41720035                6.18040614                0.12332433               -7.15735688               -1.16697049               50.38558107                3.45931539
              17.87377997                9.34388447               57.69566746                0.64107244                2.37960420                0.83807383               -2.97416641               -0.96987817               32.34740917                3.76582030
              18.87555148                8.87894803               57.47964406                0.70889641                0.40388262                0.93622998               -2.67643953               -0.65363424                5.23728505                0.07214544
              19.88185762                8.42754662               57.17221585                0.81160067                0.63061367                0.70750039               -2.17123793               -0.19529501                0.72952797               -0.16664141
               5.84056472                2.98890052               60.00928823                1.00000000               -0.65841032               -0.82800572                2.86465693               -0.26221680               -0.63503829                0.69039657
               6.83398062                2.58616353               59.71158860                1.00000000               -0.46703774               -0.38997304                1.46759081               -0.20103821               -0.80365738                0.11100882
               7.83122397                2.18267890               59.41016921                1.00000000               -0.08629614                0.03419088                0.08680741               -0.20438560               -0.73925680               -0.13046799
               8.83225469                1.77744151               59.11345869                0.62334493                0.17219089                0.50553334               -1.33261393               -0.34283796                0.19829382               -0.64001083
               9.83466778                1.36820060               58.83055052                0.56666182                0.49681510                1.07012098               -2.93180875               -0.33656544                1.16051811               -0.04627972
              10.84219100                0.95666060               58.55271069                0.45833592                0.91289666                1.51515081               -4.48241378               -0.38253265                1.35538424               -0.35214799
              11.85292572                0.53978530               58.27352991                0.14237029               -4.43556337                2.07340189               -5.94569792               -8.22831957                4.60613653               -0.64493190
              12.75347973               -0.03968086               58.06084531                0.00010000              -19.29087054                2.98077834               -4.36902039              -29.14220649                4.66346661               -4.13751446
              13.46710831               -1.10152794               57.96234718                0.00010000               -9.92458421                8.62607006               -6.84037430              -31.54885823                9.09011881                3.73357223
              14.55498805               -1.97872750               57.77984204                0.58371403                7.26803615                6.10537215              -17.30255982              -23.35123424                3.00778498                2.84397060
              15.61246903               -2.41729365               57.50459452                1.00000000                5.74809840                7.14367573              -20.47125704                0.38239767               -1.55620683               -0.64729168
               6.24067954                3.98062047               59.90647368                1.00000000               -0.55984964               -0.78226629                2.55993370               -0.03699871               -0.07079577                0.94510014
               7.23508105                3.58226380               59.60868160                1.00000000               -0.35692093               -0.34940845                1.16185489                0.01940876               -0.07402095                0.17705878
               8.23354112                3.18302081               59.31052856                1.00000000                0.04922099                0.07517306               -0.22019363                0.02521590                0.01593106               -0.26389035
               9.23606547                2.78249684               59.01431600                0.46910253                0.40757287                0.53795000               -1.63778728               -0.06723050                1.36244858               -0.82173358
              10.24169258                2.37890181               58.74297749                0.47443104                0.82539265                1.06832158               -3.32422404               -0.09573060                2.45904218               -0.11210713
              11.25257332                1.97181211               58.46806129                0.37485686                1.35603353                1.53782475               -4.93444812               -0.15310306                2.24273587               -0.53310748
              12.26881325                1.56051932               58.19207774                0.02248445                1.50704849                2.03450226               -6.44104549               -7.95023336               10.13965975               -0.95407014
              13.28271429                0.99012692               58.07533089                0.00010000               -7.38351036               -4.46104103               -2.06731522              -34.97530078               21.62156864                1.44643599
              14.12114304               -0.01526724               58.06598913                0.00010000              -15.16778674                7.79562546               -6.30824726              -41.09174731               19.96584266                4.30142368
              14.97935855               -0.91767378               57.93413421                0.25404751               -3.31419466                5.70559355              -22.63136082              -22.46082809                7.95803016               15.16373809
              16.05485915               -1.34585689               57.65784945                1.00000000                7.55005977                6.22707723              -25.64938931               -0.77402074                2.46133988                9.15973208
               6.63653807                4.97325520               59.80838620                1.00000000               -0.45696242               -0.68543343                2.23928822               -0.04053911                0.13615070                1.12975649
               7.63196845                4.57917537               59.50688374                1.00000000               -0.25214122               -0.26253129                0.84735192                0.01272275                0.28626205                0.12335377
               8.63149525                4.18418236               59.20816034                0.75553167                0.15303185                0.16740754               -0.52993803                0.01856381                0.54403905               -0.54637218
               9.63502909                3.78820051               58.91165346                0.00010000                0.59713263                0.60982726               -1.88176708               -0.07375610                2.62124701               -1.02331638
              10.64343790                3.38956703               58.65444010                0.00010000                1.12411692               -0.12119257               -3.73846605               -1.11752637                3.77989220                1.93809724
              11.65751142                2.98741710               58.38003447                0.00010000                1.60841675               -1.04983391               -5.35227220               -1.76173315                2.90234228                5.20163550
              12.67560624                2.58047535               58.10492792                0.00010000               -1.38755716               -4.45799563               -6.71800010              -16.59412630               20.07001419               11.44003053
              13.62976028                1.87109832               58.17312894                0.00010000               -6.12660863               -7.46848874               -3.82332664              -36.95411887               34.94880473                5.30851497
              14.55307406                1.05438456               58.18810548                0.00010000               -9.66995759                5.91721960               -5.82700164              -42.17004642               38.89263826                2.72936479
              15.43636113                0.13538437               58.32165269                0.43856020               -4.98596147                3.66492389               -4.18620418              -23.43116174               22.84481997               14.80830322
              16.45335483               -0.29275210               57.99046791                0.96750834                1.69937053                4.14273395               -8.18374555               -1.52045555               -0.66836678                7.95352645
               7.02802843                5.96691180               59.70891185                1.00000000               -0.36200906               -0.57462164                1.90854965               -0.05237172                0.25257773                0.93405382
               8.02440834                5.57701318               59.40271521                0.66605256               -0.15705836               -0.16495037                0.51938232                0.00571124                0.57590837               -0.26714103
               9.02488726                5.18636896               59.10284945                0.14585662                0.23986696                0.27990891               -0.84577621                0.00390123                1.17782368               -1.10420220
              10.02920568                4.79469338               58.80860025                0.00010000               -0.23808982                0.43483771               -2.15712376               -1.49429240                6.15820960                0.28366828
              11.02012546                4.37647796               58.60851753                0.00010000               -0.13876679               -1.33651404               -3.17971397               -3.29980552               10.85815571                4.13448992
              12.02643034                3.95081543               58.41061636                0.00010000                1.65620201               -3.90979164               -4.36084453               -5.98585143               14.20363694                9.29952171
              13.05324950                3.47135941               58.27332454                0.00010000                2.16461781               -8.97959333               -4.79749751              -15.26351455               22.22487113               14.86745540
              14.06972270                2.84075715               58.21592144                0.00010000               -1.98967184               -3.08175189               -5.18415648              -24.10923753               31.07938974                2.93789998
              15.01345607                2.10307715               58.24089480                0.00010000              -10.59253551                3.68843110               -5.02779829              -35.16554215               45.07084944               -4.68637743
              15.85787199                1.15562470               58.45539118                0.08562094               -6.63665412               12.66707005               -6.36476924              -15.26112576               29.39139994              -20.63902255
              16.88072298                0.73699779               58.11510149                0.70502389                2.28509987                4.25896129               -9.76670964                7.05203488                2.59550925              -20.33021570
               7.41528788                6.96176277               59.60654650                0.96651687               -0.26623692               -0.45583654                1.58084373               -0.04806960                0.11686530                0.73725446
               8.41262551                6.57587636               59.29297261                0.39955168               -0.06974063               -0.07101726                0.16415397                0.03736618                0.61319446               -0.59374073
               9.41389307                6.18978054               58.98928235                0.00010000                0.12043653                0.36014397               -1.18807838               -0.21306381                3.43485196               -1.74103064
              10.41503424                5.79689726               58.73209851                0.00010000                0.37133385               -0.56298851               -1.33577628               -2.34528680               10.67924386                2.98353300
              11.42131974                5.36283675               58.57588994                0.00010000                1.39393521               -1.57528304               -3.10148170               -3.86947230               16.18472886                3.87837693
              12.44291294                4.90922126               58.42644025                0.00010000                2.95372423               -3.88676869               -4.13819228               -6.24579586               18.71325716                5.85801661
              13.48039423                4.40088348               58.31197886                0.00010000                3.64724236               -5.74137357               -5.02170232              -12.23372901               23.42090467                5.12451040
              14.51585779                3.80946328               58.24242629                0.00010000                2.72507216               -2.88479199               -5.87335665              -19.27183311               28.30827961                0.31680009
              15.53489567                3.12815319               58.21154648                0.00010000               -0.93199101                2.76883841               -6.90932409              -22.02301439               28.11335464               -9.45877127
              16.49721797                2.38872577               58.12646118                0.06423860               -5.16231613               18.31840032               -6.31240591               -9.48054000               17.21753825              -33.31577558
              17.43164935                1.79242712               57.87562855                0.67530119               -6.55686230               11.50582818               -9.62159431               -4.01320084                9.78051013              -32.12205939
               7.79883985                7.95779507               59.50281173                0.91745972               -0.17019667               -0.34592855                1.28110995               -0.03721731                0.05683756                0.72856443
               8.79713788                7.57559283               59.18232160                0.30851674                0.03826153                0.00965249               -0.15625644                0.06572505                0.53225248               -0.62429546
               9.79960508                7.19357184               58.87132582                0.00010000                0.60529231                0.37061057               -1.55709840               -1.19588866                7.62126684               -2.07090927
              10.80924373                6.78343361               58.69227216                0.00010000                1.54034663               -0.99600051               -2.36609848               -2.98547972               15.38368248                2.27242941
              11.83041201                6.34497230               58.53766714                0.00010000                2.71119810               -1.72132759               -3.39084407               -4.78160466               18.26868659                2.31516741
              12.86346769                5.87308006               58.41411105                0.00010000                3.89604460               -3.08060505               -4.52232863               -7.65658336               21.37305383                2.66610402
              13.90833291                5.35653194               58.31517178                0.00010000                4.67743190               -3.54369502               -5.65151954              -12.15299433               24.25803389                1.61608301
              14.95701633                4.78306131               58.23872479                0.00010000                4.27001924               -1.69205387               -7.01360147              -16.89703686               25.98594481               -1.79089185
              15.99373329                4.15845392               58.16056224                0.00010000                2.34854593                3.52063821               -8.81800624              -19.06266107               24.26804954               -7.95379428
              17.00398725                3.52199270               58.03396402                0.02809029               -0.03385143               12.25003499              -11.14334623              -12.22856564               14.88006440              -14.54386870
              17.99305626                2.96711435               57.76330109                0.62442306               -1.09309865               17.86859979              -13.02147330               -4.03818097                7.26762169              -17.85012314
               8.17894800                8.95484419               59.39992141                0.89740199               -0.07847653               -0.25598390                0.99646508               -0.04159063                0.02580250                0.81442401
               9.17816324                8.57606941               59.07236015                0.27288514                0.15932547                0.09606504               -0.47021508                0.04518066                0.40113331               -0.60386995
              10.18213451                8.19719275               58.75227520                0.00010000                1.28804761                0.38349302               -1.93029226               -1.87954146                9.78276920               -2.23365103
              11.20392419                7.77697725               58.61171917                0.00010000                2.69533474               -0.45508576               -2.99150458               -4.11586231               19.52568730               -0.62920956
              12.23604121                7.32841020               58.48808083                0.00010000                3.71487242               -1.34425741               -4.05958751               -6.01065848               21.43741124                0.51496734
              13.27822164                6.84760916               58.38567305                0.00010000                4.56559420               -2.00647312               -5.18424453               -8.60628025               23.62104371                0.70990681
              14.32735309                6.33000958               58.30344075                0.00010000                4.88867198               -1.84197336               -6.48195930              -11.93055470               25.52592541                0.13786674
              15.37599508                5.77562220               58.23394342                0.00010000                4.36789820                0.09689471               -8.15462179              -14.93321961               26.59096396               -1.47818727
              16.41471105                5.19856595               58.16389451                0.00010000                3.39955723                4.42379187              -10.91324172              -15.51361202               25.05854098               -3.19939609
              17.44398622                4.63372647               58.04871860                0.03861969                2.29656886               11.07766200              -16.45824519               -9.96190276               16.10302469               -1.50177978
              18.46064243                4.14979912               57.78723351                0.61085279                1.66562101               16.98468046              -18.80458076               -3.82018956                9.01696067               -3.09897634
               8.55555761                9.95267539               59.29752577                0.88780805                0.01353264               -0.18269414                0.71338982               -0.04743253                0.01404593                0.86709474
               9.55569294                9.57751413               58.96264613                0.26195244                0.27743988                0.20131053               -0.79274973               -0.01085957                0.28997398               -0.62313602
              10.56110641                9.20124170               58.63326355                0.00010000                2.00080494                0.48374218               -2.34910678               -2.46551029               11.45948839               -2.40508807
              11.59570904                8.77433190               58.52096610                0.00010000                3.92302608               -0.10166983               -3.70435449               -5.02163756               22.98551587               -1.57848103
              12.63956693                8.31808715               58.42496495                0.00010000                4.70168339               -0.78011206               -4.84710908               -6.59040669               24.59407448               -0.79563325
              13.68974270                7.83295060               58.34807504                0.00010000                5.10709195               -1.02197315               -5.98829874               -8.47685684               26.36309466               -0.37807845
              14.74170877                7.31969247               58.29128170                0.00010000                5.00264321               -0.42712326               -7.33406936              -10.54996131               27.88035611               -0.13848338
              15.78979557                6.78499920               58.24771123                0.00010000                4.18240071                1.37462373               -9.19458994              -11.76206658               28.85643045                0.96102824
              16.82535678                6.24692975               58.21044876                0.00010000                3.18602276                4.75941030              -11.66552586               -9.99531322               30.48767219                1.95795345
              17.85351602                5.74354594               58.19760254                0.07942905                2.95751942                9.42191110              -19.44246431               -4.88725105               21.13335393                7.85018518
              18.88450717                5.30680796               57.95598317                0.60884694                3.09911485               11.56522941              -19.24045583               -1.43881972               11.30050630                5.50360587
               8.92832186               10.95119031               59.19534142                0.88921861                0.10578699               -0.11775779                0.43246127               -0.05322985                0.00346136                0.87976265
               9.92937973               10.58009562               58.85278952                0.27580307                0.38423385                0.32195026               -1.12888529               -0.06765584                0.16424965               -0.66044789
              10.93600654               10.20686760               58.51343619                0.00010000                2.86331281                0.70312439               -2.91640459               -2.98744118               12.97921454               -2.40539097
              11.98664599                9.77494385               58.42631590                0.00010000                5.48039179               -0.00729762               -4.56362809               -5.46692334               26.22188668               -1.73139601
              13.04561438                9.31280796               58.35562685                0.00010000                6.02165950               -0.55918230               -5.74329031               -6.08662239               27.76447342               -1.19986121
              14.10707918                8.82716970               58.30545072                0.00010000                5.93454402               -0.32541179               -6.82499287               -6.96216182               29.59145126               -0.77740704
              15.16430526                8.32146712               58.28191925                0.00010000                5.32186419                0.51033726               -8.14457207               -7.90311564               32.11323391               -0.02896676
              16.21351646                7.80311468               58.29696306                0.00010000                4.59763962                1.90631797               -9.65440790               -7.60928250               33.34033779                2.92397132
              17.25625805                7.29375416               58.31030068                0.03603351                3.64232640                3.51550297              -12.45876810               -4.80416392               35.52140481               15.03560700
              18.28636299                6.82216469               58.37449740                0.14586059                2.45419761                5.41093518              -11.55115580               -1.68347244               20.39446435                6.78696120
              19.30534200                6.38110371               58.08495748                0.60440528                1.89790100                4.69140910               -9.21260723               -1.14142963                4.37481700                4.41919596
               9.29668240               11.95032023               59.09293737                0.84606173                0.19801344               -0.05524792                0.15810488               -0.05336008                0.01590783                0.77544260
              10.29866254               11.58395314               58.74270289                0.29044780                0.49134742                0.44716772               -1.47673343               -0.07313242                0.22374028               -0.62269327
              11.30650935               11.21530419               58.39661483                0.00010000                4.08838360                0.94133590               -3.64931099               -3.63453158               14.62710873               -1.68935919
              12.38043021               10.77418595               58.33326077                0.00010000                7.95496432               -1.06270904               -5.43210443               -4.48140656               29.36571665               -1.06973900
              13.46560864               10.30690350               58.28498311                0.00010000                8.07050509               -0.73536642               -6.62628624               -4.00001628               30.95847343               -0.83744614
              14.54184031                9.82644236               58.25968388                0.00010000                7.10464207               -0.06417259               -7.57485572               -3.96906033               33.13948908               -0.61119134
              15.60770148                9.32989922               58.27041255                0.00010000                6.17412844                0.90197528               -8.77984842               -4.26121812               36.85293196                0.00043738
              16.66532288                8.82312556               58.34585179                0.00010000                5.12610072                1.93608687              -10.15199930               -3.91346914               47.21932687                2.85344999
              17.71022349                8.31723981               58.59914157                0.16801407                3.35870726                2.02702058               -8.14785327               -2.39892157               34.02805658               14.67859564
              18.73249702                7.85176465               58.43114187                0.27110067                1.67885285                2.01499936               -4.10395406               -0.83818930                7.39474213                1.50133181
              19.74380055                7.40063614               58.12729457                0.59728423                1.13035253                1.46014551               -4.10013624               -0.68581318                1.21165692                0.70255828
               9.65998885               12.95008535               58.98855361                0.92226740                0.29442775               -0.02348804               -0.12133144                0.22600691                0.34263395                0.67195114
              10.66293313               12.58903897               58.63373953                0.68884232                0.65471246                0.50858337               -1.81125028                0.20750736                0.92616435               -0.56162283
              11.67308310               12.22569431               58.29060972                0.45500111                7.12427073                1.03901252               -4.03351722               -5.11008992               16.56729937               -1.00956182
              12.80541854               11.75368967               58.24716612                0.36753732               12.01372684               -2.04962740               -6.04075488               -3.88085067               32.39381789               -0.30100509
              13.91335764               11.29810063               58.21679608                0.36055232                9.96418585               -0.88028740               -7.22147028               -1.61527112               34.26082331               -0.17094558
              15.00470226               10.82588625               58.21209915                0.36599385                8.45200269               -0.05561116               -8.02633311               -1.64350532               36.78062263                0.03110083
              16.08239769               10.33950662               58.24753809                0.38380037                7.16021118                0.96074060               -9.12648557               -1.73287024               41.60022033                0.55950708
              17.14790648                9.84183642               58.37172722                0.41491245                4.86214205                1.87108539              -10.11212770               -2.00224217               52.22866000                3.85767034
              18.17964053                9.33429457               58.65801756                0.63862515                1.91481946                1.70547556               -5.67513801               -2.02688286               34.15028762                4.64361807
              19.18620287                8.86246468               58.45237425                0.68861572                0.71211064                1.07000313               -3.01900133               -0.82881258                5.61630474                0.03777565
              20.19388274                8.41030662               58.14878036                0.79612984                0.76798717                0.96704734               -3.13233261               -0.20758658                1.08425534                0.21590697
               6.13905593                3.10006102               61.03761390                1.00000000               -0.63938120               -0.80683947                2.79181297               -0.25789050               -0.60896246                0.67540002
               7.13266211                2.69169153               60.72605415                1.00000000               -0.45022817               -0.37867812                1.42320921               -0.19851106               -0.76700900                0.10713040
               8.13005136                2.28259457               60.41092238                1.00000000               -0.07418160                0.03573647                0.06840361               -0.20038906               -0.71433938               -0.12221741
               9.13117848                1.87183781               60.10013204                0.61612899                0.18576469                0.49624693               -1.32150913               -0.33984523                0.10834791               -0.61635916
              10.13376666                1.45709872               59.80130742                0.55050843                0.51038310                1.04536560               -2.89809424               -0.34053127                0.99616509               -0.08214490
              11.14138614                1.03979083               59.50796585                0.43133599                0.92745548                1.49222095               -4.44080320               -0.39348968                1.26056547               -0.40860360
              12.15231577                0.61740011               59.21434206                0.09671870              -10.13362034                2.01416854               -5.85932258              -16.10025041                6.67896961               -0.66657374
              12.93871374               -0.12390618               59.02897758                0.00010000              -21.97369127                5.13079691               -2.11759570              -27.07600158                3.83638174               -4.80867438
              13.71284194               -1.15466791               58.89690732                0.00010000               -5.35851231                7.49662846               -6.52130617              -28.84581187                5.79534087                7.70936978
              14.83154349               -2.07468165               58.60617648                0.60296532                8.61119321                6.17903961              -16.17453311              -24.42659138               -0.34015144                2.26351153
              15.88506581               -2.54735571               58.29671630                1.00000000                5.35223139                7.31243989              -19.51751579                0.92159812               -2.03908554               -0.79508185
               6.54484651                4.09199263               60.93178649                1.00000000               -0.54362786               -0.76128406                2.49459837               -0.03929897               -0.05624150                0.92850422
               7.53941023                3.68790475               60.62012271                1.00000000               -0.34360869               -0.33880721                1.12468897                0.01481871               -0.04886364                0.17007796
               8.53797434                3.28295193               60.30825610                1.00000000                0.05588623                0.07567771               -0.22941415                0.02216323                0.03069894               -0.26093026
               9.54052796                2.87680028               59.99798656                0.47432629                0.42052482                0.52846434               -1.61681897               -0.07269616                1.21996275               -0.77419316
              10.54638483                2.46755237               59.70989858                0.47410938                0.83862968                1.03689585               -3.27047553               -0.09699225                2.19854192               -0.16784475
              11.55730055                2.05471304               59.41889849                0.36540621                1.33884673                1.50758071               -4.86302384               -0.17057429                2.05033598               -0.58565891
              12.57316177                1.63754180               59.12797461                0.00010000               -0.16564070                1.93617808               -6.32174926              -14.66291373               13.09346303               -0.91811202
              13.55398774                0.92740179               59.05881430                0.00010000               -8.66951043               -1.02658813               -2.64570912              -35.29236013               20.66190134               -0.50364747
              14.39977156               -0.07970163               59.00125034                0.00010000              -13.51831298                7.56622938               -6.85726984              -38.62901272               10.63219862                6.91875120
              15.28362148               -1.01289125               58.68070028                0.17615030               -1.64078556                5.64346405              -24.40283588              -22.18689908                1.06088617               28.13163827
              16.36695585               -1.47423131               58.37095853                1.00000000                8.33343713                5.94848968              -27.70712809               -0.71277680                1.12225156               22.12994959
               6.94644570                5.08483534               60.83054421                1.00000000               -0.44465127               -0.66437248                2.18477910               -0.04487553                0.14873637                1.10811905
               7.94199918                4.68491539               60.51521240                1.00000000               -0.24232963               -0.25423862                0.81733700                0.00523283                0.30868489                0.10690616
               8.94159910                4.28410812               60.20281264                0.72909166                0.15624675                0.16743942               -0.53449776                0.01356384                0.58820315               -0.55433118
               9.94512412                3.88240709               59.89293778                0.00010000                0.61574718                0.60314863               -1.85026078               -0.09280095                2.42749536               -0.96928873
              10.95391405                3.47783663               59.61739217                0.00010000                1.14305568               -0.44682046               -3.64772552               -1.18401166                3.42355337                2.36023832
              11.96798523                3.06994244               59.32693268                0.00010000                1.62273467               -1.61679328               -5.22861938               -1.75206683                2.75134165                5.85095266
              12.98636874                2.65612367               59.03817946                0.00010000               -0.89376349               -5.98531883               -6.58142600              -20.28275917               21.77858485               12.58416145
              13.95010996                1.85556206               59.12789062                0.00010000               -5.29070049               -4.49280232               -5.08385771              -40.34865682               37.38239540                4.52647587
              14.88055473                0.99665667               59.12318830                0.00010000               -8.38873855                6.33426473               -6.95282856              -43.03469069               41.81031749                5.03225323
              15.78233519                0.03818763               59.28461404                0.42697723               -4.35321733                3.65859290               -3.00854118              -23.71649153               25.66239227               28.31337008
              16.79349039               -0.42838592               58.91649197                0.95888834                1.11551930                3.77111509               -5.92509919               -1.67562742               -1.38863835               21.73960981
               7.34378890                6.07870518               60.72783246                1.00000000               -0.35467951               -0.55391925                1.86825387               -0.05511477                0.26670112                0.91921493
               8.34024211                5.68281998               60.40781226                0.64013522               -0.15174967               -0.16320751                0.49978392                0.00432475                0.60112509               -0.30263233
               9.34075391                5.28630072               60.09432203                0.11910707                0.23506589                0.27624835               -0.85448357                0.00970396                1.24531104               -1.13002068
              10.34494343                4.88886325               59.78715083                0.00010000               -0.27923305                0.13454743               -2.12043464               -1.87099835                6.41289758                0.95705818
              11.33516925                4.45861596               59.57737948                0.00010000               -0.04856266               -1.96564058               -3.04401123               -3.84235444               11.27671985                4.79408136
              12.34397217                4.02237717               59.36753096                0.00010000                2.33588608               -5.11783829               -4.24469070               -6.93460686               14.91371246               10.31147068
              13.38188697                3.51783542               59.22480903                0.00010000                3.12547142              -11.16140496               -4.87576283              -17.80945966               23.39105670               16.13852954
              14.40648160                2.83754574               59.16173358                0.00010000               -1.27173983               -2.61335934               -5.59277775              -28.15442456               32.59356052                3.11793974
              15.35645217                2.04698366               59.18665462                0.00010000               -8.60736822                4.03284344               -5.71704246              -38.77216965               45.81644337               -3.60995625
              16.23433424                1.06028060               59.37366121                0.11904988               -4.49308890               11.13107395               -9.41357785              -19.03720094               29.72429748              -17.25615739
              17.26659039                0.60119099               59.00233615                0.75119090                3.22561590                3.79150327              -11.94978681                4.34065044                2.45147408              -17.31730757
               7.73711380                7.07375696               60.62230762                0.95189701               -0.26236604               -0.43442520                1.56051731               -0.04548090                0.11011963                0.74618288
               8.73449014                6.68165124               60.29457977                0.38006503               -0.06819409               -0.08330960                0.15756886                0.05221598                0.64178912               -0.62821727
               9.73574991                6.28963309               59.97738797                0.00010000                0.04493865                0.32202741               -1.18355162               -0.46348170                4.19346867               -1.80419912
              10.73538891                5.88509804               59.72073709                0.00010000                0.39015591               -1.07883328               -0.99339890               -2.93658067               11.14732639                2.94430617
              11.74355303                5.43852382               59.54543211                0.00010000                1.73423636               -2.26794407               -3.00337242               -4.64853243               16.22727970                4.13767418
              12.77007364                4.96758568               59.38532489                0.00010000                3.57289726               -5.03643623               -4.08005320               -7.66396120               19.30734914                6.20619341
              13.81501098                4.43289557               59.26131749                0.00010000                4.38997960               -6.96176578               -5.07934416              -14.96893208               24.08148773                5.30288581
              14.85787323                3.80329487               59.18204082                0.00010000                3.36827504               -3.31227132               -6.10602313              -22.96721665               28.78794491                0.32802176
              15.88237648                3.07731354               59.13801775                0.00010000               -0.52446903                2.85744206               -7.53357026              -27.53138477               29.43725837               -9.63562703
              16.84738385                2.26080911               59.06533753                0.07089937               -4.19469285               17.72300458               -6.40986652              -15.18050724               17.35627598              -34.59569666
              17.79848262                1.64744415               58.77222512                0.69631047               -4.89012260               11.87409599              -11.28563458               -7.54103621                9.17737989              -30.29709160
               8.12709072                8.07001667               60.51564042                0.90655721               -0.16804234               -0.32361917                1.27391543               -0.03654289                0.04997255                0.76342951
               9.12541029                7.68115379               60.18075034                0.29674871                0.04733771               -0.01550849               -0.15446990                0.07860505                0.54337697               -0.64478629
              10.12803747                7.29274127               59.85567426                0.00010000                0.59553920                0.27098696               -1.56710146               -1.59850722                7.97387975               -2.18940060
              11.13732108                6.86728658               59.66904038                0.00010000                1.58367451               -1.38818872               -2.30523867               -3.80348377               15.98369296                1.60341244
              12.15971096                6.41325708               59.50422243                0.00010000                2.95000581               -2.37174873               -3.30806212               -5.90532822               18.69210346                2.19245213
              13.19632119                5.92164845               59.36890137                0.00010000                4.35440863               -3.92705008               -4.50716636               -9.51037328               21.76730696                2.63699440
              14.24679913                5.37860011               59.25791378                0.00010000                5.31990530               -4.42256510               -5.74979465              -14.94205419               24.52611106                1.51505168
              15.30271930                4.77130032               59.16650800                0.00010000                5.07555525               -2.32615098               -7.29393415              -20.58123840               25.94077200               -2.07669084
              16.34831024                4.10413251               59.07016824                0.00010000                2.89370923                3.15334974               -9.07784853              -23.52938959               23.98421228               -9.00526034
              17.36059348                3.41474070               58.92069149                0.00897496               -0.29053230               13.80143372              -11.29803022              -15.55308350               14.50773416              -18.82934434
              18.34249959                2.83867291               58.62991385                0.62342016               -1.80938912               18.69852065              -13.59479417               -6.64157960                6.58946655              -20.38915340
               8.51410871                9.06728457               60.40990918                0.88992589               -0.07710676               -0.23529113                0.99422782               -0.04278249                0.02104938                0.86215111
               9.51333764                8.68134107               60.06763692                0.26610794                0.17691330                0.06751974               -0.46708174                0.03112303                0.38894951               -0.63177867
              10.51764698                8.29505283               59.73269869                0.00010000                1.27328894                0.24070082               -1.97967395               -2.39744568                9.99454389               -2.43133199
              11.53880342                7.85733427               59.58185668                0.00010000                2.67188128               -0.76885751               -2.97039024               -5.19387959               19.99617652               -1.04471056
              12.57108460                7.39108885               59.44751872                0.00010000                3.78598627               -1.79802189               -4.04019017               -7.41618122               21.88635692                0.15644256
              13.61452315                6.88904468               59.33348561                0.00010000                4.77167124               -2.56930034               -5.22581418              -10.75738509               23.95223970                0.47805891
              14.66651803                6.34444427               59.23733738                0.00010000                5.30964571               -2.46656886               -6.66563382              -15.03682793               25.58412799               -0.13532061
              15.72071606                5.75677185               59.14947408                0.00010000                5.09151418               -0.51101489               -8.61459672              -18.99128078               25.92837909               -2.03869271
              16.76834831                5.14038054               59.04784885                0.00010000                4.05328568                4.18953798              -11.71451810              -20.04601564               23.06454948               -4.43393430
              17.80178177                4.53683778               58.88561106                0.00195492                2.47191459               11.52206107              -15.92147503              -13.48819721               13.82745260               -6.48466577
              18.81778660                4.02141456               58.59441490                0.59902474                1.60048274               17.38548649              -18.63031874               -5.74084134                7.23495462               -7.88286020
               8.89812207               10.06531085               60.30470621                0.88231140                0.01424259               -0.16472219                0.71582789               -0.04967089                0.00885758                0.92299069
               9.89826450                9.68250418               59.95467457                0.25801299                0.29866432                0.17536880               -0.79035783               -0.06527626                0.23490419               -0.67076771
              10.90409536                9.29755528               59.60916427                0.00010000                1.95714836                0.33952053               -2.47038884               -3.07073483               11.47811098               -2.77194349
              11.93740747                8.85190943               59.48326717                0.00010000                3.77907839               -0.27413310               -3.78890729               -6.17006049               23.28329719               -2.24576486
              12.97967693                8.37729664               59.37593519                0.00010000                4.52052998               -0.98011018               -4.93001630               -8.05325218               25.03949120               -1.32162348
              14.02781807                7.87026244               59.28729819                0.00010000                4.93292365               -1.23717303               -6.12195750              -10.76426443               26.69120155               -0.73166344
              15.07833540                7.32926873               59.21577781                0.00010000                4.95696774               -0.67385412               -7.69398059              -13.98828310               27.80796416               -0.55759842
              16.12695742                6.76108002               59.15083746                0.00010000                4.44942971                1.10854204               -9.94483310              -16.16065227               28.22403973                0.20268709
              17.16732399                6.18792327               59.08420102                0.00010000                4.14190475                4.92275738              -13.65727702              -15.28883769               26.44713752                0.48143783
              18.20979552                5.64518192               58.96879638                0.02870403                4.56026088               10.95402408              -22.09759631               -9.68618142               17.55179226                6.78846132
              19.25852921                5.18638264               58.70075731                0.59160677                4.87336966               15.20026947              -25.75973012               -4.10247007               10.78900184                5.80672917
               9.27872863               11.06399013               60.19973681                0.88414733                0.10590546               -0.10498769                0.43954736               -0.05723597               -0.00357336                0.94948923
              10.27978768               10.68484844               59.84141743                0.27547003                0.40492005                0.30406069               -1.13161711               -0.15876860               -0.01786785               -0.73517138
              11.28682703               10.30184324               59.48283656                0.00010000                2.79365848                0.64726545               -3.19579962               -3.57662801               12.69799330               -3.02414629
              12.33566085                9.85185161               59.37860034                0.00010000                5.24197588                0.08026983               -5.06541761               -6.48442875               26.38060475               -2.69816767
              13.39166655                9.37148664               59.29646659                0.00010000                5.58024599               -0.42520218               -6.08344896               -7.34379644               28.33467530               -1.87251433
              14.44726577                8.86430122               59.23558541                0.00010000                5.21341201               -0.12708643               -7.08448782               -9.01863148               30.00140725               -1.16785962
              15.49593479                8.33096719               59.19705455                0.00010000                4.57913531                0.85975973               -8.67875300              -11.28866758               32.07369953               -0.49672379
              16.53884848                7.77894269               59.19210157                0.00010000                4.12674361                2.46147157              -11.38375445              -12.37413089               32.36641914                1.92421601
              17.57846966                7.23883568               59.16965020                0.00010000                3.53751467                4.67177486              -14.70996707               -9.33717649               34.76124407               14.26020966
              18.60959877                6.75591827               59.21107770                0.08489689                3.74330478                8.82767973              -23.01031935               -3.97752535               24.30710620               12.45751885
              19.65333575                6.32541995               58.95527341                0.58372601                4.37369828                9.21586341              -22.65136091               -2.75944795               12.58094549               10.14669436
               9.65526072               12.06321110               60.09463981                0.83864641                0.19752974               -0.05175105                0.17553885               -0.05564569                0.00735635                0.85788245
              10.65723602               11.68858540               59.72779018                0.30478615                0.51494597                0.44139716               -1.49257352               -0.13537010               -0.17889930               -0.71078496
              11.66555964               11.31050059               59.35726543                0.00010000                4.04197344                1.02897069               -4.13859081               -4.07114155               13.99951803               -2.20815516
              12.73807549               10.85351483               59.27496844                0.00010000                7.73958740               -0.67966886               -6.67763425               -5.15175933               29.48107423               -1.88846524
              13.82035139               10.36879260               59.21523122                0.00010000                7.49447015               -0.26969213               -7.45732027               -4.75994038               31.82708798               -1.33579667
              14.88796489                9.86772071               59.18129622                0.00010000                5.87845926                0.52764496               -7.96299418               -5.22424917               33.79645586               -0.87310250
              15.93792057                9.34646392               59.17827446                0.00010000                4.18207102                1.86084781               -9.50166436               -6.53989322               36.68298857               -0.37730556
              16.97160631                8.81030945               59.23129968                0.00010000                3.28421600                3.78488595              -12.30394425               -7.09502536               47.51134275                1.98108816
              18.00360489                8.28135876               59.48895817                0.12354503                3.60272165                4.00845880              -17.59138039               -4.54524578               38.39944898               16.25099856
              19.04366074                7.82173551               59.38336161                0.20484916                3.03659956                4.06602501               -7.92140799               -1.15714211               11.87095805                5.89921490
              20.06433688                7.37069991               59.07572885                0.57547406                2.06761412                3.17366206               -8.69788158               -2.23382179                3.79920261                3.49135418
              10.02686712               13.06295511               59.98752227                0.91798720                0.29236685               -0.02559897               -0.09000621                0.23276768                0.38134371                0.76059633
              11.02979078               12.69367639               59.61545697                0.70547986                0.68038250                0.50909922               -1.83007678                0.22885389                0.58668279               -0.65494479
              12.04047477               12.32242265               59.24758002                0.47706690                7.22714379                1.19220581               -4.37009557               -5.27939541               15.84792961               -1.34752980
              13.17433366               11.83825823               59.18108312                0.36742901               12.08935441               -1.52566008               -8.04467732               -4.19067521               32.30631822               -0.55363574
              14.28226185               11.36609280               59.13933748                0.36058771                9.53879028               -0.26997992               -8.45889236               -1.97915899               35.42742872               -0.42704962
              15.36510947               10.87485412               59.12803636                0.36575110                7.01431658                0.71334015               -8.62836137               -2.18097508               37.69068229               -0.14240662
              16.42254819               10.36818415               59.15067318                0.38285339                4.84718334                2.17202234              -10.00834432               -2.54792392               41.54542054                0.31813374
              17.46205313                9.85464041               59.25296564                0.41261697                2.67952492                4.43309604              -13.35497417               -3.41428208               53.97294775                3.36603818
              18.47613868                9.31900486               59.58216470                0.61381511                1.75308263                3.76460974              -14.20478805               -3.61670320               39.16059153                8.92748192
              19.49711478                8.83723877               59.41926404                0.65299103                1.72959214                1.55032544               -4.85892561               -1.16017921                8.84950085                0.61254287
              20.51073053                8.38889319               59.10956920                0.78560042                1.36157419                1.81932841               -6.56267856               -0.19519315                2.79964569                0.88656166
               6.45150497                3.21406335               62.06512449                1.00000000               -0.61730180               -0.78031082                2.70215454               -0.25170058               -0.58621428                0.66316911
               7.44533195                2.80016903               61.74005279                1.00000000               -0.43228405               -0.36619186                1.37444801               -0.19458933               -0.73491737                0.10322500
               8.44285929                2.38556713               61.41153729                1.00000000               -0.06476687                0.03448223                0.05907296               -0.19499106               -0.69346157               -0.11484158
               9.44403662                1.96940529               61.08702851                0.60988953                0.19489936                0.48019451               -1.28822556               -0.33102559                0.01284824               -0.59600942
              10.44675728                1.54937538               60.77258863                0.53561876                0.51655259                1.00847897               -2.82363766               -0.33968169                0.81223451               -0.11478925
              11.45436767                1.12662324               60.46389463                0.40547656                0.93680494                1.45088551               -4.34153269               -0.39569785                1.14315351               -0.45710580
              12.46549338                0.69918873               60.15634346                0.05307654              -15.33627824                1.91309529               -5.70293209              -23.58021820                9.66002531               -0.74947434
              13.14764210               -0.19552779               60.01849340                0.00010000              -22.98385774                7.66687170               -1.41413805              -25.25731709                9.58381913               -1.92030434
              14.00581622               -1.15602658               59.83192105                0.00010000                0.03669652                5.28533750               -6.21873898              -23.74037219                3.77588880               12.15099668
              15.14837603               -2.08250486               59.45635138                0.65606594                9.23957256                4.90262909              -12.98682990              -23.03345374               -2.44097811                1.57853586
              16.19060767               -2.58167974               59.11424420                1.00000000                4.22316393                5.86461789              -15.87710150                0.70051169               -2.01680809               -0.59060047
               6.86288228                4.20626024               61.95636564                1.00000000               -0.52481128               -0.73458679                2.41369528               -0.04173974               -0.04283298                0.91599116
               7.85763417                3.79650711               61.63117538                1.00000000               -0.32955140               -0.32725463                1.08438586                0.00967431               -0.02508559                0.16289143
               8.85629125                3.38591195               61.30594028                1.00000000                0.05940338                0.07313386               -0.22909372                0.01873787                0.04510123               -0.26106409
               9.85882224                2.97420723               60.98197962                0.48114464                0.42301162                0.51225844               -1.57374134               -0.07444673                1.08150789               -0.72940228
              10.86475148                2.55946017               60.67756798                0.47585937                0.83408891                0.99577597               -3.17532585               -0.09591739                1.94074034               -0.21005019
              11.87550401                2.14113209               60.37080081                0.35803305                1.30076110                1.45902240               -4.72842261               -0.18785926                1.87863058               -0.61889384
              12.89076671                1.71831969               60.06564275                0.00010000               -2.64137128                1.80677090               -6.12028318              -20.76322713               14.99295316               -0.92518874
              13.82267659                0.88114093               60.02241671                0.00010000               -8.94328341                2.71181714               -4.51307582              -33.83678256               22.78602014                1.75214155
              14.71190104               -0.10317320               59.92884373                0.00010000               -9.59042545                6.28259587               -7.28843096              -34.39393642                4.60969739               11.47120482
              15.63086808               -1.03347857               59.44607750                0.12510792               -0.75566841                4.55978500              -20.07342719              -20.59655440               -5.14562596               41.36980827
              16.69678767               -1.52303356               59.10370689                1.00000000                6.59195913                4.61711085              -22.96072019               -0.39457270               -0.19246426               36.62354403
               7.27017643                5.19937161               61.85208178                1.00000000               -0.43027032               -0.63637745                2.11527767               -0.04873835                0.15936284                1.09356559
               8.26587372                4.79362394               61.52323048                1.00000000               -0.23212488               -0.24569745                0.78536032               -0.00173495                0.32927029                0.09175429
               9.26553393                4.38702981               61.19747039                0.69600660                0.15628702                0.16406321               -0.52885172                0.00950836                0.63604171               -0.57218404
              10.26899946                3.97965045               60.87464825                0.00010000                0.61900692                0.59140042               -1.79743142               -0.10774839                2.25759210               -0.91946992
              11.27791407                3.56929090               60.58148559                0.00010000                1.13757517               -0.75702657               -3.51736998               -1.16592575                3.10009627                2.79989380
              12.29175097                3.15580369               60.27546208                0.00010000                1.61529642               -2.12397276               -5.04127012               -1.60978636                2.61964188                6.48488338
              13.31022000                2.73532415               59.97329940                0.00010000                0.03241867               -7.36638592               -6.36763231              -23.04969105               22.82932405               13.58715628
              14.29239934                1.85870856               60.07145179                0.00010000               -3.88314996               -1.60875906               -5.85260013              -41.43135420               38.76146131                6.06612926
              15.23255700                0.96962534               60.04904890                0.00010000               -6.80470168                5.96108881               -7.32988130              -42.20307286               45.83846135                9.78809931
              16.15630531                0.00869084               60.26148187                0.42729168               -3.53653966                3.16283172               -2.01542918              -22.65772695               29.37667803               42.21422314
              17.16182620               -0.48933753               59.87196592                0.95634886                0.55208964                2.89760251               -3.44261687               -1.02209081               -1.10623613               37.32362097
               7.67340286                6.19353269               61.74627693                1.00000000               -0.34615858               -0.52465708                1.81264790               -0.05547488                0.27875578                0.91481208
               8.66994127                5.79159316               61.41271089                0.61471067               -0.14739763               -0.16250021                0.47973579                0.00838764                0.61857204               -0.33394683
               9.67045490                5.38919322               61.08575978                0.09015901                0.22324524                0.26572605               -0.85232093                0.02566322                1.31705858               -1.16093899
              10.67440617                4.98603524               60.76619156                0.00010000               -0.25875826               -0.28783101               -2.06035907               -2.19682093                6.70671392                1.74100839
              11.66527974                4.54431964               60.54763731                0.00010000                0.14344303               -2.52718051               -2.92662446               -4.20095653               11.71705606                5.50287501
              12.67727504                4.09865264               60.32572255                0.00010000                3.07941384               -6.19144824               -4.12218776               -7.59520433               15.48443144               11.37666246
              13.72686801                3.57099197               60.17580929                0.00010000                4.12366401              -13.07438501               -4.88455211              -19.72994123               24.09533123               17.70748608
              14.75974832                2.84896575               60.10406588                0.00010000               -0.45053568               -2.37296302               -5.78104669              -31.62131545               33.56579954                4.77639060
              15.71785730                2.01604857               60.12655395                0.00010000               -6.15359548                4.11508442               -6.04280111              -40.57002786               45.14149438               -0.17081186
              16.63667641                1.02977806               60.26711963                0.16548039               -2.27273601                7.05453603              -10.68447742              -21.36496368               28.17308339              -12.20527811
              17.67240258                0.53491849               59.87610575                0.80774758                3.57261751                2.41225603              -12.03230781                2.49381990                1.52545628              -13.00273859
               8.07294598                7.18887847               61.63775685                0.93909280               -0.25650320               -0.40352947                1.52040860               -0.03962309                0.10228195                0.76557269
               9.07038095                6.79037393               61.29612399                0.36201267               -0.06704310               -0.09766031                0.15256211                0.07480855                0.66493748               -0.65853101
              10.07160512                6.39234433               60.96561132                0.00010000               -0.02221618                0.26399461               -1.16484337               -0.80711876                5.07297596               -1.88098970
              11.06993662                5.97389383               60.71223053                0.00010000                0.48362105               -1.58264796               -0.88895411               -3.38168957               11.66884748                3.02459803
              12.08127754                5.51874729               60.51582249                0.00010000                2.16189644               -2.87924546               -2.96113259               -5.14028760               16.17820668                4.52498564
              13.11317455                5.03197472               60.34483919                0.00010000                4.20152606               -6.04967060               -4.02670104               -8.85316999               19.77547754                6.79432233
              14.16530806                4.47383645               60.21039198                0.00010000                5.08709369               -8.00894454               -5.07371387              -17.31724725               24.49266066                6.01103801
              15.21491643                3.81124930               60.12030583                0.00010000                3.75180341               -3.74357609               -6.12170851              -25.90402149               28.85372622                1.43017419
              16.24034413                3.05192703               60.06087508                0.00010000               -0.23901524                2.62345169               -7.43032479              -33.00454981               30.26241315               -8.09523692
              17.21013612                2.14978156               59.99826385                0.08833178               -1.94611865               14.76771126               -7.36292859              -19.76497588               16.59826147              -29.56563456
              18.20142175                1.55890759               59.64991585                0.72474109               -0.87143666               10.11115085              -11.75382409               -7.38748180                5.50655711              -22.65099801
               8.46961946                8.18546210               61.52829004                0.89744676               -0.16478818               -0.29285240                1.24701513               -0.03383734                0.04352038                0.80459636
               9.46797158                7.78963996               61.17923221                0.28767907                0.05865830               -0.04321687               -0.14531101                0.08913927                0.53744024               -0.66414774
              10.47079263                7.39447311               60.83998379                0.00010000                0.61989212                0.13658859               -1.56578044               -1.95285800                8.32129573               -2.35310821
              11.48036942                6.95438228               60.64616739                0.00010000                1.68002356               -1.60187926               -2.30425388               -4.43236595               16.62240816                1.00196316
              12.50439310                6.48673473               60.47150590                0.00010000                3.23765263               -2.94605042               -3.27388070               -6.79305917               19.11192042                2.32728182
              13.54512247                5.97765923               60.32396773                0.00010000                4.84276979               -4.66005991               -4.49501664              -11.08242167               22.07066768                3.00314720
              14.60124849                5.41081308               60.20017589                0.00010000                5.92274170               -5.21986549               -5.76047821              -17.29129372               24.61139901                2.04789669
              15.66357731                4.77409423               60.09284610                0.00010000                5.89927747               -3.03652019               -7.27914910              -23.65803539               25.67808775               -1.45747089
              16.71923404                4.06851761               59.97900527                0.00010000                3.54095067                2.19637272               -8.93431754              -27.47205007               23.35162056               -8.29785356
              17.73439632                3.32513229               59.80800342                0.00240154               -0.64165859               15.30733523              -10.54978607              -18.37715013               13.75007959              -20.69528832
              18.70640087                2.73714150               59.49140521                0.63000417               -2.79954500               18.11954335              -13.52855228               -9.48347481                6.38307023              -19.82080497
               8.86391352                9.18302142               61.41980596                0.88396922               -0.07607940               -0.20772618                0.97603498               -0.04225330                0.01652167                0.91307073
               9.86315272                8.78950960               61.06301852                0.26402067                0.19460590                0.03391580               -0.44809525                0.00080321                0.33956896               -0.66024466
              10.86780563                8.39507610               60.71268172                0.00010000                1.29374812                0.05959246               -2.00833214               -2.81849731               10.18905650               -2.69332666
              11.88902768                7.94185625               60.55231137                0.00010000                2.71668875               -1.08546701               -2.96896940               -6.05075919               20.48842537               -1.29096505
              12.92213941                7.45982628               60.40727703                0.00010000                3.92100441               -2.20139586               -4.03379530               -8.55750412               22.32281091                0.12781646
              13.96744777                6.93877352               60.28115676                0.00010000                5.04538871               -3.07208467               -5.25547824              -12.58927471               24.25587267                0.76044940
              15.02304718                6.36943914               60.17012807                0.00010000                5.83017079               -3.09948718               -6.74581047              -17.75871715               25.53322024                0.30675747
              16.08405119                5.75051889               60.06165149                0.00010000                5.84089421               -1.38343863               -8.73963908              -22.56544095               25.14217231               -1.59050360
              17.13986507                5.09585448               59.92960415                0.00010000                4.49590176                3.31197766              -11.52412850              -23.87420335               21.38238772               -5.03919517
              18.17396922                4.45592826               59.73028910                0.00010000                2.39343804               11.43581174              -14.85193656              -16.04783779               12.22939939               -9.31805919
              19.18773383                3.92129846               59.41462714                0.59375760                1.37646046               16.24712665              -17.24421397               -6.96475545                5.96747686              -10.86660360
               9.25579804               10.18130757               61.31184233                0.87810709                0.01349207               -0.13874597                0.70255813               -0.05014769                0.00470872                0.98191201
              10.25593296                9.79031827               60.94683898                0.26230215                0.31389931                0.13834922               -0.76292672               -0.14363558                0.10373172               -0.72093548
              11.26207603                9.39566496               60.58385577                0.00010000                1.93355471                0.16037042               -2.55012630               -3.63337357               11.42515062               -3.23123728
              12.29460406                8.93267294               60.44518795                0.00010000                3.71248570               -0.62885093               -3.77786661               -7.06788877               23.60199087               -2.85139663
              13.33632574                8.44270681               60.32636462                0.00010000                4.45600318               -1.18823170               -5.00495438               -9.16360008               25.51575396               -1.52671668
              14.38372412                7.91621753               60.22563589                0.00010000                4.90015197               -1.44795240               -6.23933502              -12.74059439               27.06459107               -0.47086461
              15.43432878                7.34882333               60.13740208                0.00010000                5.10645139               -1.02015775               -7.92732081              -17.17880878               27.84059366               -0.12475585
              16.48585315                6.74642546               60.04881457                0.00010000                5.10059128                0.53089421              -10.38392467              -20.49340828               27.10363025                0.17082747
              17.53634061                6.13475716               59.93730322                0.00010000                5.10712195                3.91733604              -14.72144785              -19.99676032               23.30991859                0.28589367
              18.58799559                5.55384852               59.75565061                0.00010000                5.00123789               10.04107893              -20.54998356              -12.98802219               13.70296459                1.51191906
              19.63636537                5.06208404               59.44078857                0.58208031                4.83697777               14.38837920              -24.51355389               -5.13466544                7.19728950                0.05627097
               9.64488917               11.18024650               61.20413236                0.88067897                0.10334602               -0.08075736                0.42893206               -0.06045503               -0.01296358                1.02755017
              10.64592263               10.79227658               60.83015718                0.29377771                0.39471646                0.26898106               -1.09865274               -0.27185143               -0.35082411               -0.82313064
              11.65278349               10.39828351               60.44952019                0.00010000                2.73527141                0.53663333               -3.30267515               -4.28759641               12.02295965               -3.73326900
              12.70062805                9.92927923               60.32500755                0.00010000                5.12696594                0.06304592               -5.43839528               -7.23700058               26.30567697               -4.35782397
              13.75532281                9.43606165               60.23395787                0.00010000                5.29456546               -0.26950657               -6.53001069               -7.99839387               29.04130811               -2.31005005
              14.80651936                8.90981448               60.16376096                0.00010000                4.69701351                0.01559134               -7.29664743              -10.80118001               30.64878631               -0.88864652
              15.84926308                8.34903599               60.10834419                0.00010000                4.08649157                0.99555738               -9.08084478              -14.58243457               32.03702914               -0.06522193
              16.88824919                7.76113678               60.06928797                0.00010000                4.16218549                2.77288972              -12.80599048              -17.79109524               32.12932363                2.07474465
              17.93250679                7.17420120               60.01610134                0.00010000                4.93163544                4.74940654              -16.74752531              -15.72885025               29.52750779               10.60778779
              18.98688190                6.65674984               59.91429101                0.03085976                6.80313489               10.38570458              -29.24063096               -8.49926226               20.21017808               16.03939255
              20.06856949                6.20906605               59.63193027                0.57403352                8.16875878               12.70417055              -33.92727448               -4.83414208               13.59148608               12.60674464
              10.03052878               12.17969243               61.09644815                0.83248127                0.19301449               -0.03570682                0.17253505               -0.05659594               -0.01329761                0.96064986
              11.03245893               11.79569789               60.71285142                0.35590446                0.43963349                0.41649583               -1.46712201               -0.23041999               -0.79376979               -0.82142385
              12.03932145               11.40639763               60.31384302                0.00010000                3.98134907                0.99155153               -4.02359111               -4.50659938               12.43288458               -2.66763150
              13.11208591               10.93393386               60.19970809                0.00010000                7.82505851                0.05541847              -10.17166476               -5.49607743               29.18912083               -3.60394040
              14.19582262               10.43731668               60.13583671                0.00010000                7.13201374                0.26427328               -8.20595433               -4.88871678               33.26626584               -1.61487143
              15.25472618                9.91652936               60.10042400                0.00010000                4.77675839                0.98716820               -8.17346034               -6.39606766               34.82310532               -0.63685639
              16.29135779                9.36873448               60.08037926                0.00010000                2.50699226                2.60179425              -10.14319200               -8.77661902               37.05856223               -0.05230331
              17.30486603                8.80188325               60.09977291                0.00010000                1.73963752                5.23442355              -14.17810030              -11.56822325               44.95982391                1.85551651
              18.32615054                8.22974529               60.24731397                0.05299376                3.91397367                7.61149762              -28.22011323               -8.81367299               45.44697058               14.40805453
              19.38314550                7.76156261               60.27271371                0.13160121                5.44497884                7.30804224              -22.65060641               -3.23356790               23.45229462               13.85749507
              20.43505012                7.31616745               59.95333694                0.56828059                5.19046150                7.56455617              -23.48895284               -4.50472421               11.18004065               10.15653289
              10.41174631               13.17953236               60.98675349                0.91390920                0.28627144               -0.01600636               -0.08193027                0.22916671                0.43101818                0.88194173
              11.41460903               12.80060650               60.59713799                0.74701845                0.63346145                0.49086035               -1.79272481                0.14411909                0.20638770               -0.78180673
              12.42441554               12.41811454               60.20320780                0.52323256                7.25892105                1.17169143               -4.03867027               -5.00153558               13.73728134               -1.59532565
              13.55978745               11.93038760               60.08627258                0.36714305               12.52687168               -0.35462582              -13.33218839               -4.06821706               31.15982391               -0.46505576
              14.67495298               11.44134711               60.04761823                0.36061900                9.36963805                0.40304319               -9.28364841               -2.12845241               37.30693360               -0.80693424
              15.74718021               10.92955784               60.03953192                0.36555908                5.67119182                1.30284796               -9.03054921               -2.76835921               39.13987338               -0.13025391
              16.78837681               10.40107187               60.04737121                0.38179710                2.43468544                3.23373905              -10.93505121               -3.48472705               41.81814870                0.36394705
              17.79587392                9.86582525               60.10462773                0.41035538                0.40885784                6.39419980              -15.47537842               -4.63124655               53.62749803                1.60149257
              18.79655397                9.32643116               60.37392180                0.56902622                1.99572353                9.66858642              -30.24387175               -6.10538496               50.51368500               13.67210212
              19.83578839                8.80291069               60.35519574                0.60890015                3.63556856                4.13480720              -16.30858430               -3.03941036               21.21083230                6.08888969
              20.86926534                8.36035717               60.01752678                0.78356888                3.34769511                4.41897217              -18.04595681               -0.83382913                9.28197615                2.90185734
               6.77747504                3.33084209               63.09165699                1.00000000               -0.59240716               -0.74869293                2.59666198               -0.24359136               -0.56538924                0.65245277
               7.77155097                2.91151084               62.75354311                1.00000000               -0.41343155               -0.35259488                1.32169805               -0.18922520               -0.70547987                0.09921192
               8.76920641                2.49149175               62.41210384                1.00000000               -0.05834346                0.03057971                0.05859676               -0.18820023               -0.67437381               -0.10811023
               9.77038410                2.07001540               62.07436753                0.60451316                0.19694100                0.45770928               -1.23373809               -0.31774309               -0.08145114               -0.57813748
              10.77314523                1.64484425               61.74483467                0.52209589                0.50551465                0.96101622               -2.70753521               -0.33563008                0.61959665               -0.14518510
              11.78049439                1.21683636               61.42113519                0.38095235                0.88861390                1.39313549               -4.17695617               -0.42121151                1.01660120               -0.50010651
              12.79091751                0.78381204               61.10028342                0.01205801              -16.28409322                1.82700421               -5.47103640              -26.30101959               12.11537973               -0.87097308
              13.45481253               -0.17015889               61.00069482                0.00010000              -22.02078841                7.96451150               -2.46198155              -25.29580506               16.89059253                2.48579996
              14.35050174               -1.10549334               60.77253254                0.00010000                2.27941255                3.80879512               -5.48538346              -20.83991646                3.30872498               15.52218481
              15.50040078               -2.02256317               60.34643988                0.74001773                8.92211250                3.19375931               -9.02260987              -21.08548534               -3.27712811                1.08905176
              16.52894399               -2.53809309               59.97917427                1.00000000                2.85432101                3.86109377              -11.10809277                0.33738787               -1.57627186               -0.18790388
               7.19437037                4.32335516               62.98006040                1.00000000               -0.50364876               -0.70233594                2.31816635               -0.04400069               -0.03022714                0.90573740
               8.18933388                3.90798489               62.64181042                1.00000000               -0.31491235               -0.31479363                1.04135728                0.00436994               -0.00233383                0.15543863
               9.18807213                3.49179755               62.30367422                1.00000000                0.05982661                0.06765939               -0.21963473                0.01516813                0.05948407               -0.26364546
              10.19053042                3.07459249               61.96651173                0.48973919                0.41531622                0.48951771               -1.50956178               -0.07332365                0.95072483               -0.68699553
              11.19637845                2.65445441               61.64639207                0.47945616                0.81339831                0.94604629               -3.04240887               -0.09339358                1.69130235               -0.24268740
              12.20679838                2.23076771               61.32433004                0.35250979                1.25132412                1.39410083               -4.53932417               -0.21512337                1.71758753               -0.63635937
              13.22140493                1.80208208               61.00556894                0.00010000               -3.01456104                1.69441167               -5.87817219              -23.26167376               15.89649967               -0.95134452
              14.14650716                0.90948623               60.96855278                0.00010000               -7.65501074                3.26971766               -5.43278792              -33.73551502               26.75457195                5.92733725
              15.06830472               -0.06740539               60.85548172                0.00010000               -7.03306813                5.01008903               -6.81120611              -32.16598335                2.63192411               16.34159638
              16.00584580               -0.99062558               60.27923173                0.09957133               -1.02284685                4.19965684              -13.39119225              -19.27629033               -8.97799897               51.18929153
              17.04784778               -1.49948215               59.91174413                1.00000000                4.20019805                4.18903640              -15.47064462                0.18702141               -0.63093848               48.19003872
               7.60733556                5.31679537               62.87284977                1.00000000               -0.41395795               -0.60144055                2.03108770               -0.05175400                0.16806227                1.08287782
               8.60319598                4.90521497               62.53091961                1.00000000               -0.22166949               -0.23686817                0.75181305               -0.00768117                0.34759094                0.07809522
               9.60290217                4.49284494               62.19223560                0.65583971                0.15323905                0.15717321               -0.51286162                0.00665380                0.68554029               -0.59873550
              10.60626076                4.07980576               61.85698916                0.00010000                0.60999854                0.57543200               -1.72499041               -0.12050007                2.10953381               -0.87270071
              11.61510214                3.66376517               61.54704477                0.00010000                1.11517492               -1.00589256               -3.35648239               -1.07432258                2.80956024                3.21412193
              12.62856426                3.24471837               61.22610728                0.00010000                1.59316876               -2.51171961               -4.81159106               -1.36872318                2.49843834                7.07413814
              13.64696551                2.81770027               60.91082681                0.00010000                1.05127159               -8.35947545               -6.10450289              -24.27187907               23.53122914               14.46788242
              14.64958969                1.89523547               61.01083862                0.00010000               -1.98358170               -1.26333561               -5.95764102              -42.12230284               39.66417171                9.18593302
              15.60729388                0.99470844               60.97659068                0.00010000               -5.13189771                4.95733214               -6.78010976              -40.29409516               49.90408421               15.48373379
              16.54695173                0.06142996               61.24430545                0.43963721               -2.84481630                3.50093199               -1.67143345              -20.33112509               32.96572579               52.99127746
              17.55039755               -0.45431236               60.84763963                0.95727705                0.34458190                3.13342184               -1.98754864               -0.01025740               -0.35557656               50.32127800
               8.01649609                6.31132635               62.76408542                1.00000000               -0.33654002               -0.48700353                1.74153067               -0.05340202                0.28905284                0.91511806
               9.01313069                5.90324753               62.41740697                0.59050354               -0.14408400               -0.16278321                0.45961380                0.01765506                0.62664869               -0.35986814
              10.01361441                5.49494101               62.07727561                0.00010000                0.20347418                0.24721733               -0.83764028                0.05271674                1.38967699               -1.19498619
              11.01720018                5.08610113               61.74594365                0.00010000               -0.18175167               -0.70957901               -1.97976836               -2.41552621                6.99828944                2.44442517
              12.00997938                4.63433656               61.51884699                0.00010000                0.41443245               -2.93051129               -2.86715016               -4.30807214               12.09252592                6.20384296
              13.02548883                4.18053332               61.28508720                0.00010000                3.77354387               -6.97457140               -4.02975142               -7.84972732               15.90008896               12.43270285
              14.08545026                3.63489257               61.12711799                0.00010000                5.07820523              -14.44752700               -4.84269691              -20.69408850               24.46448071               19.45852020
              15.12705293                2.88421952               61.04611264                0.00010000                0.53890303               -2.60586650               -5.70437149              -33.41381715               34.19762283                7.33598957
              16.09622832                2.03174126               61.06579860                0.00010000               -3.94044147                3.41245197               -5.85722695              -40.12268081               44.17708872                4.85070607
              17.04824410                1.07939306               61.15997166                0.23106382               -0.85505207                3.35913314               -9.58981430              -21.25992029               25.81249773               -7.76518831
              18.07912728                0.56318629               60.76169000                0.87891829                3.08831756                1.67185443               -9.88883233                1.12493306                0.42126125               -8.34989780
               8.42242515                7.30705530               62.65271580                0.92845267               -0.24907383               -0.36334287                1.46257427               -0.03056441                0.09383393                0.78825325
               9.41993442                6.90195930               62.29763101                0.34742823               -0.06611289               -0.11356115                0.15114334                0.10343184                0.67903795               -0.68094848
              10.42110290                6.49778928               61.95409110                0.00010000               -0.06898658                0.18338490               -1.13234832               -1.12156668                5.87072721               -1.96999691
              11.41855468                6.06561417               61.70295801                0.00010000                0.67028067               -1.94280645               -1.26599285               -3.57936848               12.30388662                3.42809059
              12.43450851                5.60515495               61.48620946                0.00010000                2.62295091               -3.29941875               -2.96106625               -5.31087904               16.10884502                4.98020041
              13.47101370                5.10522695               61.30479087                0.00010000                4.74445185               -6.75697511               -4.02191505               -9.64147470               20.09717833                7.55507053
              14.52939755                4.52874973               61.15984321                0.00010000                5.67254774               -8.75353094               -5.03786210              -18.87051635               24.70822830                7.12367206
              15.58446466                3.84311814               61.05960665                0.00010000                4.01345870               -4.17071364               -5.92457006              -27.76967476               28.92714454                3.38080661
              16.60966672                3.06295748               60.98941126                0.00010000                0.29218208                1.88525520               -6.69863247              -35.52742470               30.44670375               -5.43850388
              17.59030830                2.12861263               60.91807895                0.12535367               -0.21784809                9.47083104               -7.30209170              -20.44408597               16.18666655              -18.99732839
              18.60530976                1.57912473               60.53714864                0.76801593                1.50014600                5.71796193               -9.28680436               -3.73728237                1.74973794              -13.51517184
               8.82607679                8.30405949               62.54058072                0.89054086               -0.16114490               -0.25307987                1.20039347               -0.02887476                0.03714489                0.84511938
               9.82446534                7.90097630               62.17784412                0.28374834                0.07257070               -0.07149494               -0.12709959                0.09340344                0.50318994               -0.67473555
              10.82752821                7.49860871               61.82435865                0.00010000                0.68908980               -0.02374829               -1.54758114               -2.13494705                8.59435319               -2.54583011
              11.83824714                7.04724500               61.62295531                0.00010000                1.83104105               -1.65598864               -2.33612694               -4.74192946               17.16882554                0.62499959
              12.86414903                6.56834818               61.43874481                0.00010000                3.54087057               -3.31842496               -3.33270110               -7.38321351               19.46792459                2.71657163
              13.90906455                6.04539382               61.27900103                0.00010000                5.29998552               -5.13207216               -4.53774488              -12.13751904               22.24475133                3.67199264
              14.97014874                5.45982195               61.14270422                0.00010000                6.41935643               -5.76982489               -5.73285899              -18.86492070               24.58523132                3.08733884
              16.03745168                4.80080524               61.02092502                0.00010000                6.50182978               -3.70624112               -7.00154477              -25.53784090               25.33511473               -0.06612730
              17.10018533                4.06944636               60.89148189                0.00010000                4.28717274                0.91705994               -8.24131166              -30.71519173               22.77419193               -6.12428799
              18.12319514                3.26880968               60.70969577                0.01779687                0.15860437               13.71083902               -8.49755242              -21.04311807               12.46182031              -19.21980483
              19.10335742                2.67754553               60.35934281                0.65192862               -1.98377133               13.77871999              -11.33573805              -10.96890019                5.50677157              -15.53236579
               9.22801403                9.30199370               62.42942988                0.87980813               -0.07607614               -0.17183995                0.93691958               -0.03912191                0.01294338                0.95994788
              10.22725327                8.90052940               62.05867501                0.27043653                0.20606137               -0.00147476               -0.41095951               -0.04095194                0.24275123               -0.67763776
              11.23213526                8.49731432               61.69253205                0.00010000                1.33616757               -0.12583232               -1.98134658               -3.06569042               10.28041786               -2.95195925
              12.25397662                8.03249440               61.52247729                0.00010000                2.82800859               -1.25298405               -2.93860838               -6.49182866               20.88340788               -1.26527798
              13.28869543                7.53878645               61.36684282                0.00010000                4.14064697               -2.41333589               -4.11461423               -9.22569313               22.63760672                0.39278000
              14.33678956                7.00258550               61.22837605                0.00010000                5.39961396               -3.35764344               -5.35892686              -13.82126722               24.42909180                1.45060316
              15.39668771                6.41335323               61.10242117                0.00010000                6.36469352               -3.56322304               -6.79513009              -19.58861660               25.42174135                1.33087398
              16.46408343                5.76899331               60.97468130                0.00010000                6.53353717               -2.19725772               -8.52842635              -25.01886690               24.45552741               -0.35099384
              17.52735845                5.08129868               60.81736628                0.00010000                4.86316727                1.88487957              -10.54314254              -26.98314599               20.17624861               -4.45036292
              18.56134677                4.40282941               60.58857233                0.00010000                2.05508067               11.13043526              -13.16243137              -18.47126151               10.99680582              -10.32378692
              19.56846006                3.85469913               60.24953063                0.60216158                0.71132903               14.63297027              -15.52473366               -8.37094410                4.88548727              -11.59044587
               9.62822295               10.30062269               62.31875737                0.87554962                0.01027425               -0.10291952                0.66718168               -0.04730364                0.00245012                1.03416355
              10.62832569                9.90094681               61.93941604                0.28292300                0.30132273                0.09219953               -0.70469280               -0.22002635               -0.09822849               -0.75460589
              11.63424940                9.49609206               61.55816174                0.00010000                1.93063727               -0.00618526               -2.45802431               -3.92304407               11.27733538               -3.55801934
              12.66693843                9.02218532               61.40770984                0.00010000                3.76473324               -1.11597078               -4.01982220               -7.63252475               23.72097222               -3.29975243
              13.70954407                8.52008147               61.27583611                0.00010000                4.55669961               -1.14864473               -5.18707971               -9.94502560               25.75880728               -1.45781470
              14.75807243                7.97824095               61.16251148                0.00010000                5.12122645               -1.54226624               -6.46136594              -14.12291801               27.31112399                0.28589796
              15.81196859                7.38855749               61.05723139                0.00010000                5.55282325               -1.33338294               -8.12087065              -19.34600992               27.78927560                0.93572275
              16.86912889                6.75686009               60.94315896                0.00010000                5.73588640                0.02429674              -10.55910652              -23.59095776               26.13036876                0.84885969
              17.92668632                6.10714395               60.78977207                0.00010000                5.56202833                2.98410048              -14.19401271              -23.43916930               20.82964965                0.22033451
              18.98036946                5.49141839               60.55779671                0.00010000                5.27563856                7.84068088              -18.57600104              -15.01561958               11.24526254               -2.38061506
              20.03219909                4.97020493               60.21048623                0.58666649                5.18296362               10.51536706              -21.68010722               -6.05000000                5.76339038               -5.73449468
              10.02641972               11.29993531               62.20831545                0.87863528                0.09636521               -0.04098601                0.39230140               -0.05792695               -0.02007508                1.09832068
              11.02738337               10.90237339               61.81944437                0.34254578                0.30080717                0.21146504               -1.01461755               -0.35523172               -0.71991588               -0.89510731
              12.03243586               10.49719061               61.41678306                0.00010000                2.49766741                0.36841465               -2.88440997               -4.95435756               11.16810293               -3.94322969
              13.07733672               10.01017499               61.26983243                0.00010000                5.06517154               -0.10071680               -5.46561798               -7.42256390               26.09459173               -7.14745231
              14.13373929                9.51581356               61.16586638                0.00010000                5.42592294                0.13766703               -7.29479239               -8.15090407               29.44434229               -2.08545741
              15.18585518                8.97174018               61.08965246                0.00010000                4.87045384                0.04858390               -7.57782714              -12.36579840               31.20467017                0.01454494
              16.23114837                8.38668557               61.01543766                0.00010000                4.39113167                0.89166773               -9.58920522              -16.72433065               31.81916261                0.94074333
              17.27367781                7.76947925               60.93598176                0.00010000                4.64342005                2.76099622              -13.43664928              -20.54828434               31.31105530                2.62141212
              18.32401677                7.14098069               60.83469970                0.00010000                6.21477971                5.22777180              -19.09924713              -19.84595217               25.59924509                5.63789973
              19.39797340                6.55964302               60.62626509                0.00111246                8.29351014                8.32811492              -27.46467603              -12.48300094               14.29336319               11.48721580
              20.48988697                6.06500647               60.27672792                0.58100258                9.19135681               10.90145581              -32.97963840               -4.73904866                7.94831051                7.50614334
              10.42218824               12.29980297               62.09809051                0.82855568                0.17775163                0.00239785                0.13190264               -0.04774835               -0.05077091                1.05918868
              11.42396575               11.90517611               61.69844774                0.45718307                0.25862109                0.35468527               -1.35821792               -0.31308820               -1.17528754               -0.91260098
              12.42736066               11.50346035               61.27679361                0.10019329                3.79492301                0.72979778               -2.93895182               -4.56775881                8.28545606               -2.59062683
              13.49986421               11.02017099               61.07153515                0.00010000                7.88000679                2.28265732              -17.02186374               -5.24212769               25.25456692               -6.31098576
              14.58496079               10.52283481               61.05111213                0.00010000                7.00101145                0.52887560               -8.10110946               -4.97782359               35.41196777               -1.14264917
              15.63988444                9.97921263               61.01782701                0.00010000                4.73910582                1.11465053               -8.73389640               -7.70725903               35.50474524                0.06616485
              16.67974291                9.40639084               60.97541062                0.00010000                3.19918217                2.73968142              -10.96430652              -10.22328156               37.04015506                0.66415558
              17.70386808                8.81208001               60.94773767                0.00010000                2.99302972                5.37406792              -16.22274177              -13.01583820               39.71564401                2.49852249
              18.73960350                8.21169939               60.92455591                0.00010000                5.14077878                9.91252717              -29.97265393              -12.11358614               42.52290550                6.48282511
              19.80668366                7.65798068               60.93034948                0.07597219                9.35438617               11.72047319              -41.56995122               -7.18561487               29.26115918               15.46693716
              20.92669123                7.18823405               60.60594980                0.58009180               12.00075676               12.67720912              -45.74072666               -2.88361384               18.33763953               10.46887502
              10.81471847               13.29998327               61.98588366                0.91057900                0.27457515                0.01802967               -0.13824538                0.20140667                0.47280556                1.00566685
              11.81746422               12.90946710               61.57960248                0.81946643                0.56836685                0.42909902               -1.62647325               -0.05998816                0.14196968               -0.89696404
              12.82608581               12.51178657               61.16680662                0.59947613                6.78277443                0.83262131               -3.04015099               -2.80943356                7.71429011               -1.46165049
              13.95311971               12.05582813               60.91443935                0.36696681               12.45276871                3.56571454              -18.02025587               -3.94422535               24.82546621               -3.50764030
              15.07514118               11.52639107               60.95366451                0.36057445                9.75171252                0.35562593               -9.48701134               -4.07170862               40.39209950               -0.93311350
              16.14815396               10.99403319               60.94742537                0.36539412                5.93370845                1.48205616               -9.73544798               -3.41864154               39.63068912               -0.08336301
              17.19381535               10.44147920               60.93197215                0.38095717                2.99492701                3.50883572              -12.20610645               -4.44638512               42.19017919                0.32408475
              18.20805250                9.87696061               60.94345808                0.40812163                2.10145134                6.48805938              -17.89251173               -4.69395678               46.70247599                1.54971653
              19.23584438                9.33923124               60.97728726                0.51751810                3.48369735               12.75318467              -35.67255158               -4.52131885               53.32759317                4.69578121
              20.27772645                8.79405249               61.09309235                0.57081173                6.79317954               13.60718044              -41.48089598               -3.92975048               36.82203167               14.65128623
              21.37170797                8.31855065               60.74865006                0.79165361                9.39815198               13.03166055              -44.32829894               -3.04850964               21.44887693                8.31755724
               7.11642495                3.45030559               64.11705772                1.00000000               -0.56494440               -0.71233836                2.47636683               -0.23342145               -0.54512725                0.64169231
               8.11077550                3.02561864               63.76648675                1.00000000               -0.39387749               -0.33792559                1.26526248               -0.18225498               -0.67686099                0.09498696
               9.10854740                2.60026417               63.41270922                1.00000000               -0.05493674                0.02431146                0.06640438               -0.18000270               -0.65506996               -0.10180127
              10.10967677                2.17355413               63.06235375                0.60046257                0.19170739                0.42915618               -1.15955378               -0.30115228               -0.16910047               -0.56119786
              11.11238155                1.74335689               62.71843793                0.51009619                0.47870866                0.90394392               -2.55309909               -0.32836827                0.43489810               -0.17351623
              12.11925094                1.31023141               62.38035551                0.35785179                0.79299001                1.32014030               -3.95246098               -0.46513889                0.90589323               -0.53925742
              13.12824135                0.87119822               62.04692273                0.00010000              -15.30230558                1.75511840               -5.17545845              -25.96469515               13.77174451               -0.98568184
              13.81320483               -0.08152771               61.96925377                0.00010000              -20.09978447                7.10715894               -3.75550567              -24.66893013               20.43956150                4.41682503
              14.72624566               -1.01148123               61.72221338                0.00010000                3.14934543                3.10818195               -4.81199712              -19.47749939                3.51836927               17.68271406
              15.87619174               -1.92630753               61.27589918                0.85137994                8.36838991                1.87492149               -5.60094626              -20.06942045               -3.21980814                0.69837083
              16.89361345               -2.45057753               60.89208235                1.00000000                1.74217154                2.28793836               -6.92365066                0.12606490               -1.03948818                0.03624939
               7.53877768                4.44318221               64.00272897                1.00000000               -0.48040169               -0.66507242                2.20906994               -0.04562984               -0.01824175                0.89525607
               8.53397366                4.02223939               63.65200253                1.00000000               -0.29990273               -0.30146749                0.99607024               -0.00053600                0.01948112                0.14756224
               9.53277963                3.60050728               63.30154758                1.00000000                0.05726118                0.05947701               -0.20149350                0.01170474                0.07385168               -0.26767149
              10.53511889                3.17784569               62.95178838                0.50030571                0.39897973                0.46051937               -1.42544577               -0.07033762                0.82905447               -0.64622893
              11.54075922                2.75239632               62.61671980                0.48491486                0.77799985                0.88807639               -2.87458486               -0.09036384                1.45539214               -0.26741754
              12.55067889                2.32343282               62.28001432                0.34867231                1.18573682                1.31489375               -4.29816542               -0.24800854                1.55473435               -0.64185694
              13.56447396                1.88874940               61.94807931                0.00010000               -2.14118154                1.59672657               -5.59228939              -23.30085226               16.58243572               -0.96322968
              14.50785525                0.98954388               61.91376095                0.00010000               -5.53066944                2.31975346               -5.44044755              -33.12173694               28.96413728                8.21332681
              15.45386057                0.01960059               61.79261961                0.00010000               -5.64047845                4.02321799               -5.78101358              -31.30879996                2.35629013               19.80754311
              16.39504569               -0.90755831               61.17825365                0.09751160               -1.73582306                5.70419926               -7.86562087              -18.94598050              -10.61220077               56.98030390
              17.41914411               -1.42769815               60.79429400                1.00000000                2.40984224                5.88598494               -9.18128715                0.70765950               -0.55496092               55.51180093
               7.95739799                5.43700414               63.89270353                1.00000000               -0.39582852               -0.56065933                1.93310935               -0.05332888                0.17502600                1.07196214
               8.95343971                5.01958929               63.53826674                1.00000000               -0.21114025               -0.22774956                0.71740870               -0.01200229                0.36313709                0.06582640
               9.95317519                4.60145371               63.18721316                0.60897850                0.14706346                0.14653555               -0.48596247                0.00536802                0.73360201               -0.63133907
              10.95638098                4.18276452               62.84014844                0.00010000                0.59059788                0.55545976               -1.63440869               -0.13268019                1.97912569               -0.82800032
              11.96498715                3.76111841               62.51435594                0.00010000                1.07783573               -1.15822603               -3.16651839               -0.95038719                2.54462644                3.55346369
              12.97793769                3.33652929               62.17923026                0.00010000                1.55630482               -2.74048548               -4.54415938               -1.08293662                2.37393045                7.57944414
              13.99611324                2.90313275               61.85120935                0.00010000                2.09906079               -8.88017172               -5.79316879              -24.05018532               24.15000439               15.24434548
              15.01991891                1.96486735               61.95229897                0.00010000                0.05293018               -2.13131795               -5.73082413              -41.84923580               40.58687786               11.95532131
              15.99717185                1.06898313               61.91344671                0.00010000               -3.76740200                4.03207633               -5.85465048              -37.17057047               53.11299404               19.94559912
              16.94457087                0.18777646               62.22805320                0.45979210               -2.45627646                5.41295548               -1.68748936              -16.99258419               35.68939092               59.86905410
              17.94804632               -0.33285783               61.83221495                0.95778312                0.34754489                5.30548356               -1.48305591                0.84892234                0.19784432               59.06237409
               8.37254080                6.43196902               63.78110754                1.00000000               -0.32567514               -0.44279553                1.65582850               -0.04875092                0.29732533                0.91338046
               9.36928405                6.01768440               63.42190317                0.56800673               -0.14145203               -0.16357359                0.44032123                0.03078334                0.62454593               -0.37898325
              10.36971176                5.60343800               63.06900698                0.00010000                0.17582648                0.22038202               -0.80781005                0.08939834                1.45772878               -1.23074772
              11.37280058                5.18895489               62.72659619                0.00010000               -0.08625276               -0.86602626               -1.87799186               -2.33455863                7.22921265                2.75929915
              12.36798671                4.72923180               62.49029431                0.00010000                0.71026161               -3.13324673               -2.87094655               -4.18486745               12.31394230                6.85629646
              13.38700581                4.26862311               62.24512752                0.00010000                4.35727386               -7.36834948               -4.00087787               -7.72695780               16.13757260               13.38255768
              14.45513219                3.71114597               62.07895535                0.00010000                5.90071737              -15.12045425               -4.83207904              -20.65809905               24.62349161               21.13840965
              15.50502016                2.94691752               61.98997845                0.00010000                1.62039363               -3.04071490               -5.52668389              -33.34657452               34.64969165               10.02080440
              16.48754006                2.10024212               62.00940941                0.00010000               -2.39925983                2.42452663               -5.34266552              -37.62913361               43.54062197                9.58173587
              17.45703496                1.20070080               62.07532334                0.32277646               -0.50744605                1.61672133               -6.78378582              -19.01346964               23.95505537               -4.25461563
              18.47739114                0.67841152               61.67832910                0.96985038                2.03561717                1.19045918               -6.49438806                0.28261384               -0.24476544               -4.05669584
               8.78499223                7.42814823               63.66700834                0.91930293               -0.24058247               -0.31593112                1.38838875               -0.01830301                0.08629246                0.80420746
               9.78258640                7.01631782               63.29914686                0.33908332               -0.06497812               -0.12915767                0.15518414                0.13432562                0.67943036               -0.69127599
              10.78369266                6.60586135               62.94296435                0.00010000                0.06547976                0.08387838               -1.08781780               -1.15085457                6.26719295               -2.06915554
              11.78389600                6.16544399               62.68691067                0.00010000                0.89644574               -2.07959466               -1.78450796               -3.54243413               12.75315685                3.93160959
              12.80162158                5.69845348               62.45660117                0.00010000                2.87941867               -3.43994989               -3.01935580               -5.32812700               16.12087429                5.41984136
              13.84148437                5.18916230               62.26440088                0.00010000                5.15176369               -7.05546017               -4.10589731               -9.93387651               20.19107260                8.34028332
              14.90465685                4.60072367               62.10963474                0.00010000                6.12034510               -9.05820395               -5.04641201              -19.46061444               24.79453620                8.40453083
              15.96389127                3.90405306               62.00181443                0.00010000                4.30745207               -4.46102431               -5.64902228              -28.33841187               29.10658240                5.63045965
              16.99080589                3.11747366               61.92690243                0.00010000                1.11203984                0.89173521               -5.75175506              -34.27675504               31.02315159               -2.01902325
              17.98613207                2.22011088               61.85222202                0.19116258                0.37356242                3.47710119               -5.10118242              -18.38927316               16.36484741               -9.41336747
              18.99827714                1.69095135               61.46417977                0.83459409                1.21450733                1.78503402               -5.41411273               -0.92339866                0.24934603               -6.80864625
               9.19583557                8.42565040               63.55229791                0.88542271               -0.15781186               -0.20522562                1.13367065               -0.02042098                0.03333256                0.87289446
              10.19425745                8.01510124               63.17669021                0.28862357                0.08664676               -0.09664519               -0.09876311                0.08921731                0.43395018               -0.66851579
              11.19756850                7.60511556               62.80903217                0.00010000                0.75511624               -0.18137650               -1.48787105               -2.09095967                8.75037469               -2.71435480
              12.20935977                7.14736299               62.59944485                0.00010000                2.00686807               -1.68239191               -2.37445226               -4.80968418               17.49773660                0.68534848
              13.23770586                6.66043281               62.40485187                0.00010000                3.83491619               -3.39314461               -3.49025488               -7.62389426               19.59010000                3.14541680
              14.28605810                6.12751390               62.23321283                0.00010000                5.66616380               -5.24435814               -4.67356156              -12.57420159               22.22463559                4.43171503
              15.35102914                5.52998189               62.08551871                0.00010000                6.77219169               -5.95971110               -5.74532280              -19.46484829               24.49223165                4.32800104
              16.42150193                4.85769703               61.95281521                0.00010000                6.74589960               -4.13939933               -6.59520718              -25.87898584               25.17006774                1.79840617
              17.48594713                4.11807682               61.81417903                0.00010000                4.71349423               -0.44583068               -6.99037504              -32.43805453               22.83779210               -3.42987603
              18.51577181                3.27024282               61.63805237                0.06591961                1.56475505                9.06203489               -5.35737971              -21.41778435               11.35095454              -13.45637987
              19.51724223                2.71411220               61.26469045                0.69939080                0.14704174                7.36973861               -6.84473423               -7.35057016                2.77063631               -8.83508492
               9.60568212                9.42404372               63.43854435                0.87787087               -0.07765354               -0.12725616                0.87251940               -0.03117263                0.01158818                0.98829385
              10.60490558                9.01438492               63.05479933                0.29019957                0.19647997               -0.03222223               -0.35509064               -0.07516618                0.10930654               -0.66971236
              11.60961172                8.60223382               62.67305479                0.00010000                1.37397430               -0.24310020               -1.82698394               -3.04141651               10.27475548               -3.03889979
              12.63238507                8.13179615               62.49353920                0.00010000                2.96905329               -1.40201237               -2.95869834               -6.48269331               20.98954961               -1.33268925
              13.66899278                7.63059059               62.32498474                0.00010000                4.40330916               -2.29529234               -4.27494930               -9.42633185               22.59663614                0.74393148
              14.72045125                7.08427514               62.17397822                0.00010000                5.80919877               -3.34274106               -5.58624482              -14.32839612               24.35129098                2.23053465
              15.78517676                6.48152945               62.03422547                0.00010000                6.88826867               -3.77302928               -6.86874108              -20.22861943               25.23407060                2.55723210
              16.85821663                5.82126507               61.89108296                0.00010000                7.21611263               -2.77974207               -8.15403356              -25.92772380               24.13245310                1.24598374
              17.92949901                5.10855705               61.71874130                0.00010000                5.17621864                0.18768089               -9.11248218              -28.37823838               19.41327813               -2.47240588
              18.96174100                4.40135158               61.46704047                0.00795767                1.70139808                9.91503202              -10.09126913              -19.68980312               10.69594278              -11.36969761
              19.96352697                3.83834612               61.10413246                0.63556515                0.17859749               10.30423199              -12.25550943               -9.84995038                5.04059316              -11.54313636
              10.01452972               10.42310528               63.32518596                0.87498089                0.00343054               -0.05819704                0.60152402               -0.03746240                0.00445539                1.06065067
              11.01456402               10.01445680               62.93274512                0.32463235                0.23996080                0.04789064               -0.61278792               -0.23502988               -0.28444646               -0.74530382
              12.01932893                9.60025356               62.53469529                0.00010000                1.83925584               -0.07233854               -2.06746262               -3.94941378               10.70775157               -3.39095441
              13.05134914                9.11932275               62.36479151                0.00010000                3.86856551               -0.46456383               -3.95689387               -7.23375495               23.42094365               -3.51896415
              14.09670024                8.61452696               62.22262303                0.00010000                4.86010872               -0.57570559               -5.68934484              -10.16334071               25.75774684               -1.57992639
              15.14855131                8.06065908               62.09640857                0.00010000                5.63832857               -1.47426440               -6.75576081              -14.97077091               27.25845044                1.11331642
              16.20946682                7.45452131               61.97498467                0.00010000                6.36842679               -1.59289113               -8.35879480              -20.22083092               27.53256619                2.06078852
              17.27591985                6.80210219               61.83763244                0.00010000                6.44145180               -0.61393800              -10.39619059              -24.78496164               25.47136716                1.92396092
              18.33829585                6.12183044               61.65342296                0.00010000                5.81334139                2.18091554              -12.74838494              -25.44246852               19.79431561               -0.34843284
              19.39218668                5.46854346               61.38413059                0.00010000                5.39791455                5.62949022              -16.00505622              -16.63268269               10.17599726               -5.09538803
              20.44625414                4.92019684               61.00718642                0.61579265                5.40674645                6.26896098              -18.71366633               -6.68050932                4.49040132               -8.77891729
              10.42222983               11.42287978               63.21197839                0.87883408                0.08268766                0.01013585                0.32116422               -0.04024592               -0.01927540                1.12818525
              11.42305670               11.01534273               62.80986483                0.42531608                0.17638338                0.14154861               -0.87129033               -0.32033397               -0.83292105               -0.89170382
              12.42575749               10.60078705               62.39183200                0.04437489                2.51899336                0.21539858               -1.97517216               -4.01118100               10.30701437               -3.31814269
              13.47343657               10.12250488               62.21569519                0.00010000                4.93160705                2.18922373               -9.22406973               -9.51004956               24.40988280              -13.26696009
              14.52438963                9.61907647               62.08806202                0.00010000                5.38024590                0.60693020               -7.23856650              -10.33225810               29.43059412               -1.56689622
              15.58104149                9.05478985               62.01220442                0.00010000                5.74636999               -0.02896700               -8.09353193              -13.87167857               31.61128973                0.71534771
              16.63931703                8.44967162               61.91656009                0.00010000                5.70833863                0.54808960              -10.14579273              -17.65100626               31.17361467                1.90423203
              17.69520826                7.80898631               61.80055498                0.00010000                5.74456673                2.11375973              -13.44471513              -21.16912441               29.39100489                2.60371493
              18.75420837                7.15217536               61.63411639                0.00010000                6.77563397                4.74918963              -18.92061347              -21.96719689               22.84624319                2.70440603
              19.83072094                6.51394139               61.36499749                0.01172990                8.62008272                6.77653156              -25.26685388              -14.68309518               11.62030111                1.26917141
              20.92661002                5.96372534               60.97233750                0.61276456                9.58890836                6.67129853              -29.31945471               -4.80419769                5.82638224               -4.15597595
              10.82879890               12.42330799               63.09908620                0.82614121                0.14511767                0.05898092                0.03420941               -0.02527375               -0.09444057                1.07839203
              11.83025007               12.01728777               62.68568706                0.60343122                0.15721349                0.25075095               -1.11839938               -0.26388494               -0.98449825               -0.87260113
              12.83194317               11.60456153               62.25506398                0.24858937                0.63043253                0.40342338               -1.59391695               -1.80367872               -0.19004400               -2.00890871
              13.84285872               11.16310722               61.85927081                0.00010000                6.29134728                2.59607517              -12.75793624               -9.09468294               23.44925568              -11.27904160
              14.95777011               10.62666556               61.97381452                0.00010000                9.88319354               -0.07481960               -8.76541646               -8.88040828               41.35039537               -0.66227109
              16.04052259               10.06007974               61.92574607                0.00010000                7.22400578                0.69520047               -9.50542902               -9.03688001               35.18639714                0.51537583
              17.10225023                9.46548310               61.86109313                0.00010000                5.47555152                2.23794437              -11.98854311              -10.94358504               35.82119915                1.35881770
              18.15003363                8.84437738               61.77531807                0.00010000                4.58733051                4.81962307              -17.05871099              -12.96343983               35.37401050                2.01591448
              19.19399684                8.21681423               61.64786089                0.00010000                6.84705833                8.13543554              -26.15830272              -14.05200506               31.17446334                2.90151281
              20.28697479                7.60407409               61.44131468                0.06095833               12.83027196               12.82546447              -46.52222585               -9.65230661               19.09289038                4.12193947
              21.45060228                7.05362281               61.03852241                0.61481537               16.36274854               13.87912244              -54.16057841               -2.01925591                9.93133552               -2.08254486
              11.23376480               13.42405940               62.98398858                0.90832288                0.27606704                0.07514049               -0.28248430                0.12642510                0.48637752                1.01463001
              12.23652547               13.02035775               62.56460853                0.91508156                0.50498360                0.30699793               -1.28785671               -0.13265475                0.34255490               -0.83450787
              13.24386447               12.60885552               62.14240478                0.69739395                1.64567060                0.42939870               -1.95629273               -1.10443829                0.27860229               -1.10402853
              14.26943888               12.17442638               61.72586746                0.36669880               10.29722403                1.13191598              -10.74807864               -6.90575634               21.98066813               -1.74937229
              15.44980895               11.61758008               61.85787801                0.36072015               14.60237376               -0.90854809              -10.09075058               -6.08274258               44.34273083               -2.02927250
              16.56148635               11.06869386               61.84482296                0.36514751                9.31693721                0.86141152              -10.78018735               -4.06110278               39.24366142               -0.00755672
              17.63614769               10.49443051               61.80324908                0.37997601                6.15609887                2.89474125              -13.71374827               -4.77600779               40.40726560                0.41579454
              18.68460833                9.90537877               61.74677750                0.40582660                3.86619330                6.10013886              -19.68416994               -5.51985145               41.90880031                0.80440961
              19.71347156                9.31488407               61.66047077                0.47435863                5.81289470                9.80698395              -30.54229507               -4.79893274               40.04342429                0.09066492
              20.80086622                8.77045068               61.52557782                0.55313569               13.68279522               16.63765832              -56.55890401               -2.28967068               27.90279849                3.84619076
              21.98712746                8.24130779               61.13096081                0.81053378               18.62612383               18.76849773              -63.75118081                0.73823009               18.35502705               -1.92390147
               7.46771445                3.57233344               65.14118433                1.00000000               -0.53521969               -0.67189691                2.34269999               -0.22104516               -0.52434669                0.62931784
               8.46236225                3.14237902               64.77884836                1.00000000               -0.37382205               -0.32228698                1.20552133               -0.17345810               -0.64772787                0.09048089
               9.46023801                2.71177900               64.41343193                1.00000000               -0.05444367                0.01611834                0.08144505               -0.17031241               -0.63397664               -0.09569625
              10.46127338                2.27992217               64.05117645                0.59764287                0.18017123                0.39510508               -1.06796148               -0.28184898               -0.24472663               -0.54375647
              11.46384143                1.84481019               63.69377269                0.49967828                0.44270387                0.83778582               -2.36604798               -0.31753842                0.26666631               -0.19944452
              12.47012746                1.40673357               63.34208597                0.33608470                0.68063523                1.23222482               -3.68077679               -0.51063727                0.81010725               -0.56956184
              13.47745414                0.96178524               62.99677425                0.00010000              -14.09071758                1.67456283               -4.82906214              -24.69322762               14.65762372               -1.08614948
              14.18831310                0.02916325               62.92558470                0.00010000              -18.16152136                6.15443135               -4.73483532              -23.42818666               21.90976163                4.78469765
              15.11422371               -0.89265151               62.67629260                0.00010000                3.89112727                3.01636560               -4.67061359              -18.45198681                4.46151323               18.64843550
              16.26613565               -1.81330470               62.23442096                0.98610182                8.07820874                1.01311795               -3.28369854              -19.87781960               -2.45996403                0.35470367
              17.27578788               -2.34179139               61.84070126                1.00000000                0.96522350                1.24126607               -4.06676117                0.03932993               -0.55713061                0.02279340
               7.89545842                4.56561447               65.02424179                1.00000000               -0.45535280               -0.62387005                2.08794549               -0.04607156               -0.00681364                0.88194622
               8.89090489                4.13915615               64.66173183                1.00000000               -0.28475585               -0.28740796                0.94910536               -0.00437251                0.04009624                0.13914864
               9.88976330                3.71194018               64.29964435                1.00000000                0.05171992                0.04898829               -0.17528889                0.00857890                0.08792188               -0.27158706
              10.89193929                3.28387323               63.93800281                0.51274765                0.37485229                0.42578831               -1.32298053               -0.06625119                0.71883479               -0.60651217
              11.89726035                2.85318805               63.58890037                0.49204344                0.72971331                0.82248755               -2.67531496               -0.08729967                1.23790588               -0.28500425
              12.90653356                2.41905582               63.23836673                0.34617777                1.10233361                1.22302457               -4.00954524               -0.27975859                1.38986105               -0.63499522
              13.91930702                1.97853087               62.89372316                0.00010000               -1.26419740                1.49629511               -5.24641240              -22.44527512               17.10464447               -0.95427996
              14.88124961                1.09070756               62.85974383                0.00010000               -3.41846028                1.44805698               -5.45318639              -31.51209686               29.96871398                9.05558285
              15.85093782                0.13751215               62.73986144                0.00010000               -4.46611065                3.47410664               -5.16034268              -30.71526316                2.92523240               21.57414942
              16.79192740               -0.80317352               62.12191932                0.11457336               -2.31349714                8.75230290               -4.40711105              -19.55276093              -10.77399589               59.85992049
              17.80466787               -1.32937873               61.72811839                1.00000000                1.27404770                9.23457041               -5.18591002                0.89163185               -0.29251442               59.47515166
               8.31970967                5.55985604               64.91151196                1.00000000               -0.37605734               -0.51626601                1.82307686               -0.05287182                0.18036835                1.05632300
               9.31594909                5.13663086               64.54526778                1.00000000               -0.20085805               -0.21842025                0.68311056               -0.01399982                0.37558005                0.05492000
              10.31569251                4.71275876               64.18251635                0.55553729                0.13756959                0.13173398               -0.44771582                0.00598720                0.77665985               -0.66573575
              11.31870049                4.28843794               63.82430098                0.00010000                0.56101695                0.53258288               -1.52727145               -0.14705066                1.86309539               -0.78188197
              12.32691285                3.86125994               63.48371440                0.00010000                1.02444887               -1.19853919               -2.94908370               -0.83886659                2.30339641                3.77657919
              13.33918946                3.43119406               63.13522409                0.00010000                1.49920234               -2.80209850               -4.23967592               -0.82515595                2.24406410                7.94306409
              14.35689689                2.99171114               62.79496343                0.00010000                2.99502102               -8.96477484               -5.43032711              -22.96537719               24.66835306               15.85517453
              15.39908988                2.05812439               62.89622214                0.00010000                1.84513192               -2.77937080               -5.66365482              -40.32687105               41.36100434               13.82856562
              16.39379953                1.17683063               62.85949767                0.00309395               -2.85592854                3.62040539               -5.23742956              -33.28124892               55.37084073               22.66926264
              17.34197131                0.36174136               63.21055567                0.47292778               -2.38842957                8.66527260               -1.85769793              -13.37162481               37.48187642               63.42306259
              18.34603094               -0.15709998               62.81797851                0.94637427                0.40596262                8.97331429               -1.52511013                1.29349456                0.37434762               63.72865500
               8.74085135                6.55528915               64.79720199                1.00000000               -0.31291744               -0.39534806                1.55744169               -0.04192639                0.30350553                0.90323545
               9.73772218                6.13478774               64.42621340                0.55137689               -0.13876927               -0.16420610                0.42269491                0.04518089                0.61229672               -0.38947948
              10.73807596                5.71457486               64.06111941                0.00010000                0.13874621                0.18111081               -0.75971371                0.13637885                1.51722536               -1.26784231
              11.74049710                5.29452488               63.70838382                0.00010000               -0.01745336               -0.85201150               -1.75683977               -2.20385378                7.35176280                2.83603887
              12.73772690                4.82921726               63.46142806                0.00010000                0.95410689               -3.11328652               -2.90512777               -3.94940483               12.32565426                7.32190074
              13.75957924                4.36301385               63.20506964                0.00010000                4.76711282               -7.36233807               -4.03544161               -7.36848848               16.14684933               14.09425495
              14.83306915                3.79923537               63.03047641                0.00010000                6.50067327              -15.07170805               -4.92825394              -19.84579347               24.56869897               22.51935231
              15.88959270                3.03512015               62.93557897                0.00010000                2.43133583               -3.26169056               -5.46117569              -31.95381895               34.97865408               12.32659948
              16.88169587                2.20992026               62.95894529                0.00010000               -1.55835952                2.04883823               -4.86157246              -33.95327913               43.71336521               13.00803903
              17.85842551                1.37013193               63.02429595                0.44024795               -0.67377126                0.79374455               -3.70194117              -16.07380554               23.41496815               -1.80866944
              18.86822044                0.85008755               62.63180224                1.00000000                0.97949323                0.68452222               -3.27395314                0.01307456               -0.30997877               -1.24572086
               9.15987396                7.55194908               64.68048357                0.91248854               -0.23069544               -0.26538954                1.29986514               -0.00486008                0.07971772                0.80385933
              10.15756701                7.13334674               64.30073469                0.33965544               -0.05955088               -0.14171120                0.16498434                0.15599045                0.65769236               -0.68598250
              11.15868294                6.71638098               63.93233475                0.00010000                0.12070002               -0.01718391               -1.02278219               -1.01219598                6.39267272               -2.14857295
              12.15998101                6.27139771               63.66726785                0.00010000                1.03764207               -2.01007197               -2.01963078               -3.27508484               12.80632844                4.15421452
              13.17943578                5.79899421               63.42582235                0.00010000                3.09102906               -3.31721578               -3.16758113               -5.14971312               15.98581644                5.75044640
              14.22180159                5.28394730               63.22267292                0.00010000                5.42194718               -6.92815357               -4.28345752               -9.77030207               20.02731622                8.97862344
              15.28787473                4.69027698               63.05891497                0.00010000                6.37635153               -8.87220654               -5.16278803              -19.18674425               24.74290746                9.57889237
              16.34932862                3.99289058               62.94662620                0.00010000                4.59237188               -4.38076545               -5.48261114              -27.49347891               29.44293072                7.74130965
              17.37972216                3.21780739               62.87437616                0.00010000                1.54996447               -0.04551450               -4.83816956              -31.26330934               32.37726955                1.40507578
              18.38032791                2.37761625               62.81605531                0.28794005                0.33295082                0.73658487               -2.60405717              -15.99698161               16.86112666               -4.04693603
              19.38638118                1.85659046               62.42886639                0.92867341                0.60532738                0.54017875               -2.49351848               -0.23890105               -0.01888255               -2.79744102
               9.57795883                8.54998136               64.56325413                0.88255151               -0.15487492               -0.15387763                1.04865316               -0.00969029                0.03021041                0.87153050
              10.57641009                8.13195352               64.17586885                0.30485691                0.09111172               -0.11332427               -0.06219791                0.08058899                0.33946115               -0.63965140
              11.57978107                7.71423118               63.79460123                0.00010000                0.79860426               -0.27538852               -1.34905022               -1.87112617                8.73978213               -2.74450348
              12.59238217                7.25432344               63.57546626                0.00010000                2.12009879               -1.54518762               -2.43656522               -4.47507928               17.49819468                0.79960306
              13.62218304                6.76287295               63.36893971                0.00010000                4.02541273               -3.15501422               -3.70305644               -7.45596609               19.35280191                3.46035678
              14.67289043                6.22445078               63.18552980                0.00010000                5.91039742               -4.99734237               -4.90767739              -12.41543217               21.93601572                5.02935176
              15.74039099                5.62179124               63.02779776                0.00010000                6.96511441               -5.76225330               -5.85342720              -19.02781421               24.33030320                5.43416450
              16.81219271                4.94750484               62.88902087                0.00010000                6.56565099               -4.18974090               -6.24151404              -24.99466146               25.37132350                3.60981132
              17.87170401                4.20900997               62.75167439                0.00010000                4.37550494               -1.26003789               -5.52836600              -30.13484378               24.34351396               -0.87351912
              18.89970281                3.38486363               62.60254817                0.15301973                1.68949918                2.58704931               -2.51232373              -16.92861421               11.93755967               -6.98180548
              19.90549400                2.86089113               62.22244812                0.78022784                0.57911845                1.23749828               -2.94592351               -1.96191165                0.54500113               -4.73398871
               9.99573584                9.54887153               64.44688027                0.87813558               -0.08068744               -0.07898473                0.78401683               -0.01738277                0.01265192                0.97445596
              10.99492897                9.13108025               64.05157320                0.32400604                0.15773261               -0.04891436               -0.28516098               -0.06404851               -0.00382746               -0.62467431
              11.99889049                8.71087321               63.65599237                0.00010000                1.34543434               -0.23677088               -1.51294866               -2.70046557               10.04269727               -2.80007418
              13.02183765                8.24049396               63.46330332                0.00010000                3.06493177               -1.23366935               -3.02415321               -5.99659437               20.66184725               -1.09351349
              14.06018913                7.73589393               63.28134383                0.00010000                4.63684996               -1.87336440               -4.50737834               -9.27973071               22.15229358                0.76336844
              15.11457465                7.18400045               63.11665115                0.00010000                6.20376282               -3.10848488               -5.87713511              -14.14363218               23.89947247                2.81415411
              16.18426438                6.57503191               62.96504635                0.00010000                7.38210041               -3.71763006               -7.00464314              -19.69498191               24.89146338                3.54780839
              17.26221666                5.90909576               62.81160063                0.00010000                7.77010574               -3.08187753               -7.75699495              -24.72500266               24.06246569                2.72989469
              18.33966650                5.19260663               62.63511664                0.00010000                6.38289011               -1.21048835               -7.70545303              -28.76840288               19.54475584               -0.17086196
              19.38987446                4.42935723               62.38674694                0.08658440                2.77107220                5.33449892               -5.27687717              -19.04215391               10.08442529              -10.51947578
              20.39508794                3.88134043               62.00442044                0.70666890                0.52134808                3.27652118               -6.21029969               -6.28160760                3.54649667               -9.25136407
              10.41319373               10.54840167               64.33078786                0.87731389               -0.00662973               -0.01363764                0.50588063               -0.01636927                0.01108937                1.03091370
              11.41312743               10.13097523               63.92716028                0.38463248                0.15821588                0.02585670               -0.49554168               -0.14817631               -0.33508413               -0.67130693
              12.41635805                9.70949576               63.51681249                0.01426810                1.71510655               -0.02070728               -1.48147864               -3.37349363               10.31323904               -2.74683755
              13.44742957                9.22965006               63.32857196                0.00010000                3.83619435                0.49312587               -3.98856118               -6.83117046               22.40333758               -6.97047258
              14.49308194                8.72540566               63.16204921                0.00010000                5.17251137               -0.13048933               -6.06487107              -10.08580834               24.89844305               -1.34767997
              15.55087979                8.16228108               63.02739627                0.00010000                6.41570573               -1.36454109               -7.05301657              -15.14793846               26.92169383                1.49628821
              16.62139605                7.54743864               62.89005550                0.00010000                7.46190742               -1.81850823               -8.59616017              -19.72040386               26.87810532                2.83033812
              17.70011794                6.88586729               62.73523515                0.00010000                7.73392152               -1.26139212              -10.06597308              -24.04567474               24.93418233                2.88831215
              18.77607448                6.18480020               62.53480437                0.00010000                6.50040010                0.40121271              -10.95233435              -25.87405298               19.24819377                0.40670104
              19.83012594                5.49155360               62.23769559                0.07016019                4.99104890                4.92425652              -12.08723836              -17.80473955               10.25700702               -8.74869851
              20.87589546                4.92642155               61.83621290                0.68473145                4.57695161                3.46052708              -12.94633530               -6.68087210                2.70668264               -9.90588653
              10.83026133               11.54859877               64.21473874                0.88132572                0.06100168                0.04794779                0.21830408               -0.00493974               -0.01564609                1.06444930
              11.83087134               11.13159738               63.80201856                0.52781378                0.12422335                0.10025810               -0.68265980               -0.14845693               -0.63556104               -0.75105502
              12.83274579               10.71045906               63.37727962                0.14155822                1.92165014                0.16068139               -1.12973382               -2.38114680                5.35685668               -2.34673857
              13.86930435               10.25035648               63.08535104                0.00010000                4.65480723                2.73839117              -11.60970190               -8.72528498               21.54430326              -12.40206810
              14.92584194                9.73328414               63.02109505                0.00010000                6.01392789                0.71838708               -6.64712542              -12.06176684               32.28494761               -2.64243953
              15.98958290                9.15670963               62.92778182                0.00010000                7.02140817               -0.26897403               -8.55290733              -14.45842050               30.88766214                0.89109259
              17.06627010                8.53866175               62.81252180                0.00010000                7.71793494               -0.02802153              -10.55027133              -17.38214370               30.01252180                2.35626820
              18.14394160                7.88386792               62.66708746                0.00010000                7.51145097                1.01542491              -13.14417030              -20.67841313               27.38117137                2.77894029
              19.21649912                7.20063089               62.45628743                0.00010000                7.41083587                2.92875338              -16.10038214              -21.75019367               20.16158549                0.99920627
              20.29215832                6.52784236               62.12092801                0.07964224                8.76177425                4.41427689              -21.70345196              -14.11629584               10.53467874               -9.08118393
              21.39173461                5.95055097               61.69033883                0.68350908                9.95762854                3.07691453              -22.42460110               -4.97878822                1.51159900              -12.03716717
              11.24709772               12.54936062               64.09877470                0.82584950                0.12002919                0.09361696               -0.10130202                0.00921693               -0.09470525                0.94845407
              12.24829801               12.13298039               63.67607975                0.75586290                0.14391527                0.16683093               -0.78760440               -0.08117307               -0.53433503               -0.63292983
              13.24997602               11.71270939               63.24491527                0.40113093                0.09003906                0.22826650               -0.77655379               -0.54546939               -0.83168778               -1.33280246
              14.25009879               11.28441788               62.81637642                0.00010000                4.77587114                1.86454584               -2.51213705               -8.24902425               23.21139278               -7.46796481
              15.34549344               10.73977340               62.87580380                0.00010000               10.31174914               -0.78027475               -8.76790595              -10.51589627               40.96729822               -2.08330228
              16.45633377               10.15690160               62.82771843                0.00010000               10.05507248               -0.04906825              -10.04336139               -9.74109904               35.13281357                0.50986297
              17.54659489                9.54687821               62.73563976                0.00010000                8.41233844                1.34107258              -12.73495759              -10.84948955               33.67111720                1.52460447
              18.62458054                8.90617578               62.60656345                0.00010000                7.52506337                3.31310134              -16.62839510              -12.92188633               31.03726246                1.96186247
              19.69709616                8.24337527               62.40138985                0.00010000                8.66497038                5.75969418              -22.56613127              -14.24616117               20.67125116                0.39442611
              20.79787995                7.57983914               61.99990497                0.10528607               11.69031631                8.73038291              -36.10105841               -9.11406832                8.53793792               -8.83703318
              21.93090249                6.98795984               61.52273823                0.68248319               13.30225389                7.23224309              -36.28802990               -2.37253307               -2.74764269              -11.53454606
              11.66320612               13.55047111               63.98023397                0.90749259                0.26929891                0.11104904               -0.43147828                0.05712986                0.48162489                0.83366159
              12.66589911               13.13493400               63.55384534                1.00000000                0.35963968                0.19536100               -0.89186790               -0.01222546                0.45975894               -0.52449923
              13.67039892               12.71502439               63.12768076                0.78766980                0.56803684                0.23150010               -1.17885915               -0.32204080                0.12866126               -0.71246658
              14.67725985               12.28764739               62.69947778                0.36642011                8.63206878                0.32295125               -1.75031468               -7.15118126               22.96367922               -0.37063580
              15.84304029               11.71767864               62.75184950                0.36070215               15.51981334               -2.20947579               -9.19178009               -6.84127135               42.72795362               -2.05735262
              16.98765612               11.15572827               62.73182162                0.36489014               12.84829163               -0.11733327              -11.57622380               -4.47753758               38.42791989               -0.17992478
              18.10000613               10.56548320               62.65769719                0.37910868               10.06753493                1.86049936              -14.86729048               -4.93879297               37.29775764                0.34109850
              19.18900681                9.95012994               62.54977468                0.40361318                7.89532065                4.39541583              -19.84564525               -6.04029396               35.86583282                0.26007355
              20.25791254                9.31582477               62.36644136                0.44656551                8.81427823                7.24495032              -27.60013584               -6.30235823               25.55468043               -1.34172980
              21.36529238                8.70245002               61.96191427                0.56547324               13.50650023               12.26108787              -49.31449867               -4.29020395                9.46138771              -11.50820786
              22.52804254                8.09519583               61.47362644                0.84320610               16.27501636               10.72359861              -49.96192134               -1.01141354               -2.79823561              -14.35990406
               7.83060995                3.69677702               66.16391172                1.00000000               -0.50366063               -0.62835101                2.19777533               -0.20642992               -0.50257113                0.61423658
               8.82557334                3.26166132               65.79059717                1.00000000               -0.35350878               -0.30583862                1.14309709               -0.16261163               -0.61759423                0.08567049
               9.82353977                2.82592540               65.41433812                1.00000000               -0.05659308                0.00657171                0.10228072               -0.15902197               -0.61065768               -0.08966551
              10.82444148                2.38902628               65.04099452                0.59632277                0.16327885                0.35646439               -0.96223943               -0.26082991               -0.30667286               -0.52457424
              11.82680535                1.94911263               64.67111697                0.49082630                0.40050216                0.76418952               -2.15366413               -0.30257362                0.11804523               -0.22257036
              12.83245152                1.50627866               64.30673997                0.31513188                0.55448690                1.13161306               -3.37373240               -0.55658132                0.72581870               -0.59062942
              13.83789509                1.05557742               63.95034149                0.00010000              -13.02849056                1.58972034               -4.44323601              -23.29206772               14.95170818               -1.19310043
              14.57188171                0.14584799               63.87455706                0.00010000              -16.56277104                5.41701143               -5.29209233              -22.14042816               22.51499270                4.56220608
              15.50663967               -0.76565021               63.62880111                0.00010000                4.53510419                3.35287199               -4.91584548              -17.64790137                6.21599794               18.60859888
              16.66258380               -1.69421017               63.21022521                1.00000000                8.16352846                0.77155575               -2.31157776              -20.09278241               -1.01739046                0.18173996
              17.66991024               -2.22495592               62.81074713                1.00000000                0.73264399                0.94835468               -2.87609617                0.02396955               -0.18593755               -0.04088103
               8.26366134                4.69049351               66.04448788                1.00000000               -0.42883084               -0.58033029                1.95695725               -0.04486885                0.00385883                0.86377195
               9.25937303                4.25860294               65.67098464                1.00000000               -0.26971311               -0.27275999                0.90111928               -0.00644087                0.05897558                0.13022833
              10.25826708                3.82599112               65.29804181                1.00000000                0.04332678                0.03692673               -0.14191086                0.00616961                0.10120026               -0.27388235
              11.26023957                3.39259092               64.92532877                0.52717959                0.34431719                0.38598013               -1.20448870               -0.06166180                0.62042034               -0.56757320
              12.26515342                2.95675453               64.56321350                0.50098294                0.67068752                0.75048362               -2.44981344               -0.08347601                1.04222783               -0.29548694
              13.27365332                2.51759479               64.19982342                0.34462509                1.00181628                1.12044995               -3.68135543               -0.30807463                1.23215291               -0.61956591
              14.28518975                2.07147462               63.84315106                0.00010000               -0.62810363                1.39527853               -4.84633393              -21.34947586               17.34563180               -0.94152616
              15.26109125                1.20001810               63.80469722                0.00010000               -1.75000079                0.98777727               -5.63600526              -29.64365327               30.43378760                9.19162729
              16.25018973                0.26787851               63.68941275                0.00010000               -3.48912101                3.44673730               -5.33214661              -30.14486261                4.08210963               21.91141065
              17.19130883               -0.68649461               63.09011143                0.13788752               -2.46470270               12.40356246               -3.08552506              -20.51035634               -9.82184095               61.11548030
              18.20089568               -1.21547237               62.69057579                1.00000000                0.95868528               13.14936666               -3.64841563                0.64109122                0.02931395               61.39144065
               8.69349371                5.68517041               65.92916507                1.00000000               -0.35467960               -0.47156952                1.70372048               -0.05009072                0.18422656                1.03262843
               9.68994691                5.25620612               65.55192895                1.00000000               -0.19092605               -0.20875224                0.64971549               -0.01334687                0.38464446                0.04517714
              10.68967519                4.82666394               65.17825884                0.49740625                0.12489646                0.11358183               -0.39867003                0.00792634                0.81111274               -0.69624606
              11.69244484                4.39674588               64.80960301                0.00010000                0.52283875                0.50589381               -1.40463869               -0.16270079                1.75764247               -0.73472240
              12.70013196                3.96412230               64.45537427                0.00010000                0.95625495               -1.15963276               -2.70722675               -0.76988387                2.08593459                3.86775867
              13.71156994                3.52868766               64.09443674                0.00010000                1.41751506               -2.72677072               -3.89996934               -0.66990924                2.11473378                8.11767784
              14.72848226                3.08348299               63.74260280                0.00010000                3.55174108               -8.69465707               -5.01831248              -21.61385170               24.88880181               16.19265723
              15.78260476                2.16560353               63.83902587                0.00010000                3.08864338               -2.84863286               -6.00673842              -38.25826684               41.50707983               14.89736344
              16.79025513                1.30328453               63.80869812                0.02547629               -2.34386056                3.88229500               -5.60934102              -29.44209014               57.05443659               24.11076017
              17.73572755                0.55386108               64.19089924                0.44276937               -2.47837771               12.27611911               -2.43367686              -10.20422802               38.88197868               64.52668592
              18.74068757                0.03803142               63.80171275                0.89713067                0.49600259               12.90408018               -2.02060220                1.18119895                0.33775154               65.36033146
               9.12058810                6.68106211               65.81225638                1.00000000               -0.29755298               -0.34985666                1.44988636               -0.03389085                0.30688254                0.87942487
              10.11761257                6.25442789               65.43035706                0.54141032               -0.13511219               -0.16317044                0.40682135                0.05714029                0.59144586               -0.39072511
              11.11788585                5.82826276               65.05381270                0.00010000                0.09573101                0.13720664               -0.69134064                0.18093387                1.56086880               -1.29543824
              12.11952719                5.40270880               64.69145940                0.00010000               -0.00359436               -0.76500200               -1.61183269               -2.03053803                7.33998306                2.78730208
              13.11781397                4.93356187               64.43219175                0.00010000                1.06836319               -2.90857756               -2.91220229               -3.69242738               12.10127255                7.50181476
              14.14089445                4.46305938               64.16441869                0.00010000                4.90914380               -7.02065251               -4.08946379               -6.93061316               15.86680408               14.43922713
              15.21599684                3.89758148               63.98039027                0.00010000                6.76149559              -14.42514119               -5.11100244              -18.64672339               24.23560448               23.41774516
              16.27612436                3.14304544               63.88075494                0.00010000                2.85467706               -3.00830939               -5.67522375              -29.86865646               35.15258330               14.08306230
              17.27309038                2.34552441               63.91217796                0.00010000               -1.18234894                2.47807721               -4.87233729              -30.26753129               44.95632499               15.32252601
              18.25247738                1.55902777               64.00128452                0.55861041               -0.84557006                0.35294279               -1.53220938              -13.48891766               24.21490339               -0.39671423
              19.25617898                1.04260923               63.61285004                1.00000000                0.37015979                0.31626142               -1.20780358               -0.06236573               -0.14203672                0.08488802
               9.54608433                7.67817328               65.69300564                0.90760703               -0.21952583               -0.21889028                1.20174818                0.00805567                0.07525029                0.77876037
              10.54388907                7.25294272               65.30244654                0.34881274               -0.05356853               -0.14790931                0.17787272                0.16609003                0.61817730               -0.66391262
              11.54501296                6.82940807               64.92250871                0.00010000                0.13229456               -0.08474430               -0.92635869               -0.83079974                6.34344740               -2.15413391
              12.54653496                6.38144584               64.64651806                0.00010000                1.04599358               -1.76946047               -2.08281718               -2.89996620               12.63262544                4.13626422
              13.56593283                5.90595075               64.39324955                0.00010000                3.12015517               -2.97217084               -3.31366321               -4.81434187               15.60224178                5.85665078
              14.60893807                5.38827461               64.17873173                0.00010000                5.48144468               -6.44683313               -4.51047301               -9.29723385               19.57707066                9.31482318
              15.67556173                4.79498016               64.00637898                0.00010000                6.41753166               -8.25238396               -5.40952567              -18.23449869               24.51371696               10.42539410
              16.73728870                4.10543734               63.89216221                0.00010000                4.66802255               -3.90633069               -5.56676841              -25.66033386               29.97544324                9.45192128
              17.76892218                3.35284608               63.83013903                0.00010000                1.57878348               -0.28292282               -4.28919545              -27.91588419               34.23309272                4.10063148
              18.76886437                2.56091993               63.80014087                0.39785727                0.16775768                0.04436527               -1.20280047              -13.86087704               17.93852704               -1.79741929
              19.77227733                2.04435665               63.41430940                1.00000000                0.34129601                0.06345722               -1.08578937               -0.04815987               -0.06993177               -1.11409095
               9.97121033                8.67668431               65.57327097                0.88223626               -0.15107579               -0.10870805                0.95186513                0.00178792                0.02873738                0.82872261
              10.96969957                8.25146971               65.17544626                0.32934228                0.07782029               -0.11713556               -0.02312245                0.08557133                0.25509836               -0.58784369
              11.97276674                7.82656787               64.78205117                0.00010000                0.76428042               -0.26934989               -1.12862694               -1.52137690                8.53684557               -2.57049683
              12.98498518                7.36731959               64.55071354                0.00010000                2.09658111               -1.23128279               -2.49894381               -3.93569162               17.09344963                0.84523105
              14.01469836                6.87411846               64.33079074                0.00010000                4.04675909               -2.66011473               -3.90155367               -7.02194403               18.75138264                3.50958606
              15.06592036                6.33412271               64.13505928                0.00010000                5.97228871               -4.47914277               -5.18262388              -11.78922708               21.33280147                5.29646617
              16.13414413                5.73253380               63.96845017                0.00010000                6.95657039               -5.23761436               -6.06717894              -17.83545295               24.04091285                6.13071035
              17.20505177                5.06491883               63.82798493                0.00010000                6.25729878               -3.78943288               -6.10024384              -23.02804490               25.98947162                4.89715380
              18.25929011                4.33986595               63.70361171                0.00010000                3.93487533               -1.54181239               -4.51798901              -26.43390596               26.79609790                1.22194763
              19.28374928                3.55991507               63.58780590                0.26672705                1.45261275               -0.25526406               -1.10405300              -13.53631183               13.51846058               -3.36462983
              20.28834236                3.04387838               63.20577198                0.88755901                0.45930859               -0.24012923               -1.18941082               -0.26204022                0.02171642               -2.61875599
              10.39654929                9.67599912               65.45422469                0.88081954               -0.08323560               -0.04096128                0.68387977               -0.00009473                0.01423589                0.90034484
              11.39571694                9.25060000               65.04909611                0.36399787                0.10931255               -0.04422055               -0.21321609                0.00800446               -0.04531294               -0.54291551
              12.39873554                8.82402107               64.64279581                0.00010000                1.22768056               -0.12691560               -1.14326881               -2.11822636                9.64148337               -2.32790041
              13.42027055                8.35682018               64.43305614                0.00010000                2.99776403               -0.47270035               -2.96139704               -5.10393106               19.83034248               -1.31615273
              14.45869083                7.85274846               64.23483718                0.00010000                4.72338163               -1.31481555               -4.73524539               -8.84909940               21.24621197                0.55429638
              15.51473818                7.29869175               64.05643552                0.00010000                6.46828628               -2.73342672               -6.11562023              -13.47310202               23.08105489                2.98085960
              16.58805655                6.69022788               63.89413261                0.00010000                7.73287346               -3.44405912               -7.17568109              -18.19985799               24.28987803                4.02011754
              17.66939565                6.02964869               63.73594306                0.00010000                7.85956309               -3.02686137               -7.46636269              -22.17075951               23.98366292                3.58376093
              18.74524781                5.32200983               63.56463224                0.00010000                6.23650287               -1.55361406               -6.32306079              -25.61624249               21.40583600                1.07391105
              19.79412571                4.55581465               63.36150293                0.20721454                2.69310532               -0.02633247               -1.53910878              -13.51433809               10.29039235               -5.97287133
              20.79910992                4.03955406               62.97992647                0.81781939                0.49842107               -0.38588303               -1.42121819               -0.87551896                1.20411515               -4.87624375
              10.82200666               10.67586508               65.33530357                0.88156530               -0.01689530                0.00914040                0.40247658                0.01241899                0.01702190                0.92223240
              11.82183770               10.25058530               64.92283429                0.44466435                0.10876876                0.04010755               -0.37880138                0.01260707               -0.25547624               -0.53790344
              12.82418203                9.82402956               64.50506571                0.06803869                1.61707355                0.08642130               -0.99272997               -2.09465537                9.30099283               -2.02455012
              13.85417917                9.35786558               64.28502028                0.00010000                3.58313842                1.49194374               -4.65457627               -6.79853811               20.69054841               -9.52602784
              14.89584480                8.84782214               64.10132561                0.00010000                5.23998648               -0.01376838               -5.75881057              -10.47222102               24.02233364               -1.51518525
              15.95897890                8.27945418               63.95534824                0.00010000                7.16726196               -1.32011074               -7.26161803              -14.57698659               25.97022752                1.47312482
              17.03919004                7.66365262               63.80306147                0.00010000                8.54378609               -1.95075775               -8.72022209              -18.14336476               25.65749702                3.04881079
              18.12985463                7.00438160               63.63631298                0.00010000                9.08046258               -1.82059357               -9.61550710              -21.25942675               23.99848649                3.24520407
              19.22079929                6.30879367               63.43437628                0.00010000                8.30318300               -0.82179150               -9.26505446              -24.33207311               18.52012516                1.53075549
              20.29591829                5.55938842               63.14238583                0.20165652                4.12769392                0.71468376               -5.49696440              -12.96977751                8.97656359               -8.18991825
              21.30335317                5.03616072               62.74825972                0.80449598                0.74348834               -0.15486956               -4.46259402               -1.37724878                1.59619558               -7.14252934
              11.24735725               11.67618192               65.21634447                0.88629158                0.04473555                0.04583763                0.11612970                0.03642435               -0.01837130                0.89629965
              12.24780460               11.25140216               64.79621164                0.61426322                0.11024535                0.11085504               -0.49840677                0.05763359               -0.37009648               -0.51022465
              13.24956215               10.82574950               64.36923732                0.22126047                0.63512996                0.17373873               -0.68253442               -0.69561936                1.34209594               -1.55135965
              14.26050720               10.38665906               63.98350115                0.00010000                3.90478254                2.08778016               -6.44232253               -7.56287671               19.71506360              -10.62704975
              15.32765781                9.85247309               63.95511951                0.00010000                7.34303868                0.32114603               -6.50908868              -12.22201252               33.55105790               -2.98846374
              16.40736798                9.27228954               63.84114627                0.00010000                8.63020134               -0.66084916               -8.56446507              -13.84481826               29.35891829                0.55315247
              17.50026183                8.65121272               63.70555466                0.00010000                9.58490430               -0.64264077              -10.62952485              -16.07076064               27.92299634                2.35208423
              18.59906606                7.99323681               63.53767157                0.00010000               10.16688473               -0.17270951              -12.41155793              -18.52322806               24.98642688                2.77201852
              19.70359953                7.30557400               63.31210875                0.00010000               10.41485248                0.28775749              -13.28465584              -21.49237146               16.22560705                0.82458091
              20.80736311                6.57010833               62.93092845                0.21787989                5.72104155                1.34793704              -10.82972261              -11.43252229                6.84031138               -9.32862127
              21.81802036                6.03645667               62.52384548                0.81202182                1.06572463                0.17417808               -8.32046517               -1.03367952                0.56795414               -7.31991929
              11.67229468               12.67678184               65.09706016                0.82706628                0.11281209                0.08160760               -0.19781965                0.04292173               -0.03989331                0.73142282
              12.67342280               12.25280240               64.66993497                0.85293851                0.13590325                0.14672176               -0.51857747                0.05958760               -0.21022054               -0.33012277
              13.67501274               11.82750433               64.23953291                0.49672040                0.13876248                0.16628524               -0.47377089               -0.09690579               -0.38851062               -0.82074000
              14.67619805               11.39962118               63.80902807                0.00010000                4.53806626                0.70759460               -0.52829557               -6.46113740               20.69052707               -2.98631442
              15.76577407               10.85424506               63.79845640                0.00010000               10.35724296               -1.40657285               -6.92997206               -9.45088082               38.13990327               -2.39163225
              16.88334291               10.26623720               63.72487884                0.00010000               11.55267405               -0.77002826              -10.01566328               -9.33080865               33.21622479                0.11906200
              17.99682755                9.65079980               63.60639398                0.00010000               11.08429386                0.29624537              -12.77565938              -10.07109117               30.39268113                1.43492945
              19.10502878                9.00092741               63.44275017                0.00010000               10.86263991                1.54604892              -15.62819782              -12.10681141               26.20982684                1.74828821
              20.21408035                8.31454882               63.19653826                0.00010000               11.56781935                2.61862282              -18.31634441              -15.28770993               12.63096242               -0.05506184
              21.33638517                7.58634717               62.71929351                0.22657186                6.79512748                2.30797903              -15.77239608               -9.96793795                3.13283694              -10.12411522
              22.34998290                7.03964428               62.31276181                0.80340166                1.35977252                0.79383061              -10.79888631               -0.18438626                0.05347039               -7.00931136
              12.09617456               13.67781408               64.97535901                0.90704348                0.20992973                0.10322390               -0.47478954                0.04023977                0.44670246                0.59373344
              13.09827386               13.25433659               64.54677117                1.00000000                0.23153470                0.15341936               -0.62612839                0.04816230                0.42339764               -0.19843344
              14.10080525               12.82907520               64.11882760                0.83188703                0.31349333                0.15708700               -0.75872569               -0.09703101                0.32093575               -0.41392896
              15.10454372               12.40081095               63.69086117                0.36620000                8.56094612                0.11897666               -0.69093369               -7.40211096               20.65549468               -0.30360421
              16.27202418               11.82434163               63.67404240                0.36067486               15.98266707               -2.99034307               -7.09670232               -6.57108801               39.14761051               -1.40496444
              17.42419707               11.25688897               63.61329849                0.36474319               14.60628082               -0.93482226              -11.43802376               -4.27478446               35.13524961               -0.38591534
              18.56414979               10.65713763               63.50590327                0.37812426               13.44918747                0.63378272              -15.02288113               -4.90433463               32.30334138                0.26490512
              19.69318081               10.02415779               63.34986460                0.40148642               12.41378906                2.32303818              -19.17373741               -6.14435559               28.39442828                0.05685556
              20.81242557                9.35794646               63.10846805                0.43311981                9.48640400                4.33976366              -23.80561297              -10.55997155               10.27028631               -1.27139534
              21.88290889                8.61626791               62.53928785                0.61451427                4.76564160                2.99207433              -24.60961263              -10.62828653               -3.37744557              -14.46425596
              22.90773841                8.05233328               62.13172238                0.89695445                2.48295113                1.26890023              -18.98641092               -0.61791187               -3.29541808              -10.80422913
               8.20429213                3.82346586               67.18513983                1.00000000               -0.47081572               -0.58292939                2.04437356               -0.18983974               -0.48011192                0.59630467
               9.19958397                3.38331750               66.80171030                1.00000000               -0.33323090               -0.28885632                1.07892406               -0.14972631               -0.58708005                0.08061775
              10.19762751                2.94257832               66.41547755                1.00000000               -0.06114493               -0.00365030                0.12748022               -0.14619957               -0.58585254               -0.08385045
              11.19836107                2.50076218               66.03193166                0.59611763                0.14146881                0.31510884               -0.84594437               -0.23913603               -0.35409171               -0.50348461
              12.20045689                2.05616573               65.65069940                0.48345560                0.35291208                0.68552835               -1.92400488               -0.28506766               -0.01089610               -0.24359723
              13.20541931                1.60875408               65.27461133                0.29504279                0.41071633                1.02136469               -3.03953186               -0.61110822                0.64551699               -0.60120081
              14.20867121                1.15230408               64.90790953                0.00010000              -12.26329893                1.51349456               -4.02604663              -22.16388730               14.80134903               -1.30651668
              14.96015333                0.26012705               64.81974286                0.00010000              -15.28978462                4.99442477               -5.47652999              -21.34931131               22.48831747                3.84553299
              15.90287552               -0.64170281               64.57797569                0.00010000                5.18442460                3.75461710               -5.10344414              -17.04944165                8.46582686               17.58109408
              17.06384183               -1.56944235               64.18818940                1.00000000                8.40748895                0.79043984               -2.14736139              -19.97960576                0.68260064                0.10536266
              18.07102530               -2.10226635               63.78317934                1.00000000                0.71834723                0.97508116               -2.70556206                0.04761212               -0.11017115               -0.09025465
               8.64254209                4.81763657               67.06338094                1.00000000               -0.40116083               -0.53628733                1.81878058               -0.04204699                0.01343757                0.84026720
               9.63853048                4.38042894               66.67975421                1.00000000               -0.25494572               -0.25777656                0.85276446               -0.00652559                0.07546782                0.12088644
              10.63744317                3.94254181               66.29680613                1.00000000                0.03227633                0.02423137               -0.10255065                0.00487616                0.11328714               -0.27386449
              11.63917601                3.50391327               65.91391304                0.54390410                0.30835429                0.34253436               -1.07368070               -0.05719840                0.53481140               -0.52971035
              12.64361026                3.06302101               65.53990410                0.51149968                0.60315236                0.67355673               -2.20414653               -0.08023111                0.87057203               -0.30065683
              13.65123905                2.61896773               65.16473962                0.34364237                0.88677993                1.00991348               -3.32311924               -0.33728453                1.08355725               -0.59698748
              14.66134586                2.16743903               64.79679648                0.00010000               -0.37876917                1.30104991               -4.40544612              -20.37419257               17.20237254               -0.92882000
              15.64366367                1.31007129               64.74702373                0.00010000               -0.70900288                0.99434455               -5.78690329              -28.43064191               30.14672426                8.67878977
              16.64716580                0.39584336               64.63321851                0.00010000               -2.46680659                3.89917209               -6.48756098              -29.57349339                4.79825431               20.51471427
              17.59432754               -0.56153795               64.06020881                0.14850765               -2.14201879               15.52721671               -3.07054582              -21.28022330               -8.33637586               61.59390989
              18.60432542               -1.09251554               63.65515007                1.00000000                0.99978863               16.50493761               -3.62791056               -0.09107618                0.11654376               62.44318515
               9.07786644                5.81274011               66.94558636                1.00000000               -0.33182292               -0.42997435                1.57873220               -0.04553751                0.18653912                1.00014362
              10.07454821                5.37816197               66.55826209                1.00000000               -0.18128704               -0.19866483                0.61764989               -0.01064426                0.39006392                0.03600147
              11.07424070                4.94306294               66.17454295                0.43673171                0.10948472                0.09372059               -0.34073233                0.00993679                0.83515039               -0.71778602
              12.07673791                4.50761287               65.79620821                0.00010000                0.47785523                0.47213033               -1.26679093               -0.18421876                1.66035321               -0.67751153
              13.08379780                4.06963686               65.42956986                0.00010000                0.87588491               -1.08213642               -2.44448629               -0.77388600                1.89412582                3.84274120
              14.09425560                3.62895235               65.05722471                0.00010000                1.31429961               -2.57321651               -3.53152202               -0.69170155                1.99292963                8.08704316
              15.11008380                3.17832508               64.69459718                0.00010000                3.44402813               -8.18124631               -4.56853416              -20.44196422               24.56579378               16.19867133
              16.16313617                2.28001394               64.77608737                0.00010000                3.64655488               -2.32131173               -6.21799743              -36.24257215               40.77439366               15.33219203
              17.18301489                1.43628063               64.74731085                0.00010000               -1.82699547                4.95432527               -7.98492998              -26.28924788               56.60093320               24.68507808
              18.12659626                0.74110199               65.16188213                0.32076347               -2.59279688               15.72469806               -5.94898810               -8.03621334               40.74549059               62.65243852
              19.13115896                0.22783240               64.77756647                0.77514116                0.45626993               16.58521027               -4.79590756                0.56920351               -0.00127248               63.95429872
               9.51078762                6.80903708               66.82619972                1.00000000               -0.27928572               -0.31152126                1.33808034               -0.02660804                0.30708035                0.84219245
              10.50799476                6.37645564               66.43434982                0.53636419               -0.12983060               -0.15913399                0.39235488                0.06292067                0.56577028               -0.38465878
              11.50819101                5.94441622               66.04729260                0.00010000                0.04614740                0.09984460               -0.60661196                0.20699568                1.59264399               -1.30251235
              12.50891771                5.51335588               65.67614716                0.00010000               -0.06989766               -0.63720108               -1.40076349               -1.89415860                7.22563247                2.65671724
              13.50679306                5.04137828               65.40318401                0.00010000                0.98995450               -2.60543142               -2.79757219               -3.51916712               11.57248655                7.40444887
              14.52871680                4.56750340               65.12328037                0.00010000                4.73259663               -6.46745916               -4.10597993               -6.58031072               15.27898578               14.35287865
              15.60144499                4.00381410               64.92825636                0.00010000                6.60699384              -13.38000588               -5.34384722              -17.46117719               23.55488280               23.65197678
              16.66085668                3.26364506               64.82207449                0.00010000                2.94239017               -2.26574609               -6.16116295              -27.34714907               35.02793486               15.41858018
              17.66029279                2.49492986               64.86149855                0.00010000               -0.94025904                3.60528192               -6.00353607              -26.86492955               47.29698126               17.08714804
              18.64205150                1.75295601               64.99365176                0.62314315               -0.90220629                0.70222478               -0.51383540              -11.37046851               26.13591179                1.24242691
              19.64224867                1.23918866               64.60764616                1.00000000                0.01971683                0.67771520               -0.33014417               -0.10240761               -0.02494066                1.46028036
               9.94249715                7.80650969               66.70451853                0.90486208               -0.20696734               -0.18501587                1.10165971                0.01672999                0.07162427                0.72981539
              10.94042748                7.37497929               66.30429215                0.36178855               -0.05083874               -0.14542818                0.18907922                0.16436199                0.57212870               -0.62931762
              11.94148038                6.94505983               65.91380757                0.00010000                0.07325986               -0.09410414               -0.80231885               -0.65253790                6.15859902               -2.06077005
              12.94189268                6.49486885               65.62561151                0.00010000                0.88932812               -1.43329474               -2.03273786               -2.54688645               12.17361391                3.91733121
              13.95926694                6.01752823               65.35954908                0.00010000                2.91604464               -2.49506206               -3.35782628               -4.45968891               14.93679821                5.66882983
              15.00021357                5.49960317               65.13246346                0.00010000                5.27258265               -5.74135435               -4.70118636               -8.68165204               18.80139890                9.25201548
              16.06471859                4.91072496               64.95072446                0.00010000                6.24319274               -7.35811414               -5.75714377              -16.90327694               24.01888112               10.79481457
              17.12507742                4.23469901               64.83529083                0.00010000                4.58433783               -3.09890004               -6.03892791              -23.31873879               30.58934971               10.57669975
              18.15640535                3.50838627               64.78859225                0.00010000                1.49253302                0.20129278               -4.37543407              -24.60201620               36.49193755                6.02633441
              19.15492809                2.75514648               64.79199930                0.47342638                0.01200740                0.16264811               -0.70801950              -12.05696501               19.46125233               -0.83565843
              20.15664550                2.24138670               64.40715060                1.00000000                0.17174135                0.18551349               -0.61523615                0.01139713               -0.08471350               -0.37568213
              10.37418302                8.80533676               66.58229143                0.88327541               -0.14511577               -0.08319331                0.85770753                0.01005999                0.02813166                0.74741162
              11.37273186                8.37354708               66.17540640                0.35233897                0.05338395               -0.10726920                0.00960058                0.11107423                0.21104447               -0.52200005
              12.37525069                7.94253414               65.77202869                0.00010000                0.63898641               -0.18795906               -0.89117936               -1.12886717                8.17195943               -2.26784156
              13.38551159                7.48468998               65.52548738                0.00010000                1.88071316               -0.75023420               -2.49468381               -3.32733206               16.34169370                0.75304286
              14.41286496                6.99147704               65.29090864                0.00010000                3.81877226               -2.05416205               -4.00721470               -6.47733146               17.85401175                3.21887896
              15.46188703                6.45267631               65.08187733                0.00010000                5.77093235               -3.81372409               -5.38649564              -10.90692358               20.41759807                5.17067119
              16.52828360                5.85665182               64.90645418                0.00010000                6.74667845               -4.49509981               -6.36619283              -16.25867211               23.53649754                6.31034870
              17.59682060                5.20166706               64.76701600                0.00010000                5.97606984               -3.11280441               -6.30438357              -20.56916200               26.71268034                5.54763802
              18.64780500                4.49895572               64.66131461                0.00010000                3.55455800               -1.25329871               -4.37587207              -22.98200428               29.38375694                2.58462296
              19.66791176                3.75620897               64.58046711                0.36003788                1.10955817                0.00866976               -0.64445092              -11.52983966               15.21854469               -1.70902406
              20.66999617                3.24289893               64.19865990                0.98024506                0.20844047               -0.00294472               -0.57965596               -0.04712074               -0.06219442               -1.22300055
              10.80627772                9.80484582               66.46055787                0.88522581               -0.08261339               -0.03051150                0.59663655                0.01329473                0.01449107                0.77720375
              11.80545158                9.37283391               66.04730888                0.39508846                0.07412063               -0.02227220               -0.15655345                0.09893717               -0.02911091               -0.44513209
              12.80776013                8.94130065               65.63312699                0.01586554                1.04757764                0.00145558               -0.85924716               -1.40142627                9.12470552               -1.86629278
              13.82640314                8.47986416               65.40407538                0.00010000                2.69869256                0.19972535               -2.89202208               -4.26933043               18.63189042               -2.04996785
              14.86173398                7.97644499               65.18663892                0.00010000                4.52485912               -0.83287114               -4.73360069               -8.30998923               19.98862948                0.27768361
              15.91690032                7.42332869               64.99433875                0.00010000                6.44102122               -2.28217442               -6.21455862              -12.44802869               21.94229495                2.71474930
              16.99055441                6.82082297               64.82153273                0.00010000                7.72449829               -2.98295104               -7.32038273              -16.27940562               23.36865902                3.94410847
              18.07139029                6.17244293               64.66227337                0.00010000                7.58344712               -2.63121027               -7.37344312              -19.27752073               24.08645250                3.69566412
              19.14222335                5.48332029               64.50865542                0.00010000                5.44988948               -1.55084596               -5.36493372              -21.22619576               23.90677033                1.44225632
              20.18038808                4.75531988               64.35596477                0.32514337                2.00499065                0.10603709               -0.51749342              -10.70652346               11.74713341               -2.01597227
              21.18232316                4.24132781               63.97599607                0.93275140                0.19350869               -0.16234869               -0.31330766               -0.09543566                0.10343771               -1.78535802
              11.23847274               10.80472653               66.33883739                0.88772135               -0.02169697               -0.00388222                0.32926494                0.03160303                0.01191382                0.75974061
              12.23825577               10.37310163               65.91958425                0.48018455                0.08595864                0.07291515               -0.29596344                0.14808516               -0.15755691               -0.39034242
              13.24019191                9.94256325               65.49695789                0.09708356                1.33624351                0.18320107               -0.74270966               -0.99395382                7.70259362               -1.49049378
              14.26498064                9.48868449               65.23548044                0.00010000                3.15043690                1.69717627               -3.96421863               -5.82116754               18.65502445               -9.23883354
              15.30320065                8.97481962               65.04687300                0.00010000                5.17839212               -0.00304610               -5.19652298              -10.20838396               23.20702299               -2.06689154
              16.36854848                8.40703282               64.88216391                0.00010000                7.51903016               -1.25433049               -7.19369688              -13.42005092               24.33814356                1.13160904
              17.45358125                7.79699280               64.71565106                0.00010000                9.01121891               -1.92260232               -8.63762126              -16.01698256               24.02403856                2.77716677
              18.54877286                7.14904285               64.54292501                0.00010000                9.34114413               -1.97859161               -9.06279851              -18.16641166               22.70133323                3.07067706
              19.64040414                6.46793880               64.34950328                0.00010000                7.35004565               -1.41798854               -7.42546470              -19.25910516               19.76781045                1.25864413
              20.69577377                5.75832972               64.12775630                0.34989146                2.78337255                0.45211863               -0.98377166               -9.57235458                8.86440818               -1.74400636
              21.69607159                5.23965196               63.74696102                0.94749445                0.02978132               -0.08386603               -0.06657528               -0.12095142                0.51428706               -1.51188882
              11.67015957               11.80476818               66.21706133                0.89246225                0.04169938                0.01240025                0.06585511                0.05627804               -0.02585093                0.69647609
              12.67057657               11.37429221               65.79205043                0.64468563                0.10693135                0.13583843               -0.38563986                0.17807895               -0.19645400               -0.29386077
              13.67229820               10.94496467               65.36362893                0.24590085                0.35734281                0.20705273               -0.55247257                0.12181356                0.70223594               -1.03751799
              14.67772342               10.51380769               64.95650459                0.00010000                3.34598845                1.43235410               -1.58941125               -6.42877052               18.51061542               -8.94868421
              15.73921797                9.97638407               64.89091327                0.00010000                7.43013492               -0.09008759               -5.71150077              -11.31627623               31.53146810               -2.99373421
              16.82632612                9.39824208               64.75649252                0.00010000                9.44933793               -0.99510994               -8.21223549              -12.49204725               27.18422387                0.18594828
              17.92820473                8.78237092               64.59993131                0.00010000               10.53949654               -1.08823037              -10.24117557              -14.11875236               25.24825056                2.00604415
              19.03711605                8.13287109               64.41885630                0.00010000               10.97748277               -1.00471621              -11.22167879              -15.87752321               21.98187070                2.57561100
              20.14775438                7.45496052               64.19059431                0.00010000                9.00558848               -1.10120342              -10.02941773              -16.78704582               16.21903311                0.98445568
              21.21722782                6.76436225               63.90433356                0.39594251                3.47526302                0.53338631               -1.56454186               -8.33853336                6.09663878               -1.58990217
              22.21725964                6.23965049               63.52392953                0.98248739                0.00318218                0.01223760                0.06279272               -0.02299033                0.84987808               -0.92901666
              12.10055023               12.80497454               66.09481830                0.82993351                0.10706167                0.04899498               -0.20163608                0.04220116                0.01681815                0.54225043
              13.10162085               12.37581840               65.66570820                0.84819743                0.12812346                0.15003613               -0.41628982                0.10258411               -0.04735416               -0.12537616
              14.10311270               11.94670431               65.23543985                0.49057967                0.16824919                0.15958736               -0.42952333                0.09713010               -0.07230800               -0.49910399
              15.10498584               11.51733157               64.80581051                0.00010000                4.46640170                0.20507146               -0.26440378               -5.81274626               18.03636186               -1.66662499
              16.19244074               10.97301787               64.73720436                0.00010000               10.38674256               -1.89883611               -5.53699002               -8.29318669               33.72604112               -1.98147686
              17.31272069               10.38713063               64.62740516                0.00010000               12.20682259               -1.35357040               -9.28956818               -8.28077755               29.72530160               -0.14117737
              18.43657719                9.77522819               64.48012657                0.00010000               12.29560546               -0.53040951              -12.07293911               -8.84399889               26.35384616                1.15929096
              19.55863280                9.12894853               64.29399950                0.00010000               11.82974372                0.20835540              -13.78310269              -10.60494577               21.23312777                1.58935251
              20.67317206                8.44591473               64.03506296                0.00010000                9.28401716                0.57883829              -12.95008180              -11.69052296               12.29634267                0.63806273
              21.74431314                7.76899744               63.68445704                0.41002646                3.59316188                0.44069904               -1.97285401               -7.43783489                2.81686294               -1.84257135
              22.74503530                7.23989671               63.30676050                0.98053805                0.07221631                0.07698102               -0.29540092                0.09020112                0.79162525               -0.59934341
              12.52931586               13.80574808               65.97073818                0.90735841                0.15826156                0.07735405               -0.41977716                0.03104829                0.39103368                0.42193016
              13.53089848               13.37729293               65.54132277                1.00000000                0.17058858                0.14745292               -0.55169839                0.04817986                0.38921803               -0.01727488
              14.53272763               12.94815642               65.11250625                0.80875498                0.21282312                0.14521143               -0.62042234               -0.00769773                0.48337015               -0.22338778
              15.53515494               12.51790912               64.68565911                0.36596010                8.54137741                0.05775470               -0.44550472               -7.47054328               18.02623243               -0.18420067
              16.70355518               11.93840735               64.60991545                0.36075084               16.16726525               -3.46105185               -5.84603189               -6.22547808               33.77783262               -1.00915486
              17.85850024               11.37117067               64.50306115                0.36442507               15.29758325               -1.59599555              -10.43352636               -3.75427500               30.11122328               -0.41793442
              19.00950685               10.77176273               64.35723956                0.37718633               14.79151760               -0.34654606              -14.09457946               -4.41365767               26.29088467                0.23162303
              20.15433060               10.13703820               64.16629993                0.39931122               13.21940816                0.80896742              -16.85810420               -5.69149201               20.20573788                0.30827130
              21.27389501                9.46653729               63.89032910                0.42796346                6.00792721                2.06225565              -17.37507960               -8.12080401                7.40198210               -0.56265713
              22.27448914                8.77317623               63.46972202                0.69698255                0.16850569                0.41787886               -3.88743761               -8.24975862               -1.56172104               -3.01518274
              23.27726512                8.24119011               63.09389822                0.97727264                0.27759825                0.12933965               -2.11738411                0.02437008               -0.53002535               -1.01367320
               8.58786678                3.95222090               68.20479920                1.00000000               -0.43727451               -0.53685798                1.88551098               -0.17182761               -0.45795059                0.57660562
               9.58349403                3.50718586               67.81217566                1.00000000               -0.31327071               -0.27169780                1.01408537               -0.13516780               -0.55755775                0.07555134
              10.58160136                3.06159122               67.41688773                1.00000000               -0.06781209               -0.01427934                0.15604451               -0.13233808               -0.56125730               -0.07859041
              11.58213779                2.61499383               67.02407563                0.59747603                0.11532025                0.27263399               -0.72175173               -0.21799176               -0.38950558               -0.48197140
              12.58390777                2.16583130               66.63263687                0.47736320                0.30069751                0.60396336               -1.68306602               -0.26673764               -0.11803261               -0.26101866
              13.58815174                1.71399805               66.24594933                0.27577590                0.24413847                0.90436102               -2.68634225               -0.67987089                0.57443824               -0.60450988
              14.58879054                1.25167319               65.86982056                0.00010000              -11.82849186                1.45373785               -3.57312560              -21.47380083               14.38549715               -1.42099749
              15.35158190                0.36819691               65.76502646                0.00010000              -14.06404379                4.90524750               -5.32341266              -21.20717867               22.30545227                3.15608288
              16.30750966               -0.52451397               65.52673223                0.00010000                5.97251300                3.33516110               -4.86565639              -17.67092568               11.11421332               15.14491165
              17.47103216               -1.43614174               65.16727798                1.00000000                8.51086422                0.78325985               -2.00535472              -19.14766698                2.50734136                0.07426844
              18.47772694               -1.97070248               64.75663588                1.00000000                0.66947828                0.97066831               -2.56888092                0.10563488               -0.10785915               -0.09069816
               9.03118354                4.94685232               68.08086349                1.00000000               -0.37263494               -0.49331964                1.67615098               -0.03803121                0.02156814                0.81320547
              10.02745719                4.50446888               67.68803992                1.00000000               -0.24047742               -0.24276558                0.80456510               -0.00531630                0.08910121                0.11157698
              11.02637399                4.06144842               67.29599079                1.00000000                0.01903190                0.01152697               -0.05843276                0.00410028                0.12337487               -0.27194811
              12.02783783                3.61772017               66.90385516                0.56297137                0.26821431                0.29838494               -0.93421857               -0.05451449                0.46178734               -0.49413678
              13.03173828                3.17187093               66.51913057                0.52341860                0.52971268                0.59329581               -1.94456661               -0.07941508                0.72536645               -0.30091250
              14.03843209                2.72304166               66.13336104                0.34277419                0.76074077                0.89448649               -2.94649722               -0.37054469                0.95003623               -0.57204402
              15.04695310                2.26621057               65.75504214                0.00010000               -0.54141945                1.21616714               -3.93402757              -19.68236658               16.77008726               -0.92220683
              16.02760370                1.41724939               65.68895916                0.00010000               -0.69916834                1.44998477               -5.67426932              -28.17879308               29.08519875                8.26196311
              17.03296973                0.50883764               65.55966154                0.00010000               -1.24769749                4.66100188               -8.23647549              -30.82945792                5.45245587               17.19801280
              18.00264975               -0.42830914               65.02870051                0.13042801               -0.98128472               15.48043234               -3.24981476              -21.02419305               -5.97512178               59.15987205
              19.01334404               -0.96099580               64.61801758                1.00000000                1.06942887               16.76618918               -3.81334724               -1.69034069                0.11382784               61.22545808
               9.47187303                5.94235451               67.96073971                1.00000000               -0.30814346               -0.39392623                1.45156352               -0.04009913                0.18738746                0.96211586
              10.46879160                5.50233054               67.56428195                1.00000000               -0.17204789               -0.18821085                0.58732506               -0.00774260                0.39243612                0.02700043
              11.46843208                5.06182176               67.17144419                0.37546837                0.09166963                0.07497341               -0.27726200                0.00991914                0.85025399               -0.72957530
              12.47062499                4.62096153               66.78426719                0.00010000                0.42829495                0.43598362               -1.11675396               -0.19069792                1.57311613               -0.57343901
              13.47699798                4.17769721               66.40648454                0.00010000                0.78881088               -1.00996492               -2.16794561               -0.93407706                1.72850009                3.78211102
              14.48640121                3.73188778               66.02380630                0.00010000                1.19687503               -2.40817328               -3.14655070               -0.93654752                1.88046730                7.86682235
              15.50093548                3.27599653               65.65123212                0.00010000                2.94888796               -7.58584119               -4.09365104              -19.66719473               24.05224664               15.82107611
              16.54537897                2.39719661               65.71466592                0.00010000                1.77717769               -1.25179009               -6.69914459              -34.57266441               38.35772205               14.91416911
              17.53647903                1.56870606               65.64899952                0.00010000               -1.24986162                6.85741673               -8.06524305              -25.46233450               54.38996180               25.92338690
              18.52038174                0.87346690               66.07191948                0.07101422               -1.35927928               19.10341421              -31.90032438               -8.88432542               41.83011035               53.52667240
              19.50929344                0.36462130               65.70579460                0.55621167               -1.10882924               20.16132566              -29.44574122               -0.16719442                6.88693447               49.00702927
               9.91042949                6.93897379               67.83901798                1.00000000               -0.25943938               -0.28383202                1.22654865               -0.02208578                0.30444008                0.79727276
              10.90783509                6.50070466               67.43820416                0.53116354               -0.12440451               -0.15153800                0.37972193                0.06125537                0.53948814               -0.37543779
              11.90794139                6.06294789               67.04168046                0.00010000                0.01566629                0.08174096               -0.51346161                0.20843426                1.65464220               -1.28278915
              12.90814842                5.62643984               66.66344413                0.00010000               -0.29054525               -0.52546437               -0.81141820               -1.88177600                6.57029076                2.59550346
              13.90213049                5.15167163               66.37624031                0.00010000                0.66267006               -2.30472444               -2.61937321               -3.53713927               10.71388381                7.03049962
              14.92140182                4.67487819               66.08229909                0.00010000                4.30849415               -5.85849086               -4.02991924               -6.48942158               14.38191203               13.87972822
              15.98830037                4.11449374               65.87351332                0.00010000                6.10195285              -12.16589472               -5.54259631              -16.52440514               22.53528342               23.12603474
              17.04344088                3.39221358               65.75753168                0.00010000                2.95761838               -1.25833860               -6.93832331              -25.13394171               34.14985390               15.67294616
              18.04745274                2.64598597               65.79210724                0.00010000               -0.71964374                5.24253203               -8.67010678              -21.64405053               50.97024442               19.24274055
              19.02904800                1.95375914               65.99100781                0.57433249               -0.98806922                4.19622523               -0.34331870               -9.23029651               29.27685055                6.15669505
              20.02769136                1.44223071               65.60624716                1.00000000               -0.13566443                4.06039814               -0.19556446                0.39650782                0.16188506                5.51869872
              10.34796959                7.93667787               67.71503883                0.90402370               -0.19269771               -0.16902922                1.00606503                0.01786870                0.06750400                0.66942897
              11.34604261                7.49929978               67.30622813                0.36858833               -0.05520023               -0.13458425                0.19426261                0.15634119                0.53472262               -0.59131318
              12.34686558                7.06345658               66.90646233                0.00010000               -0.08884386               -0.05281354               -0.66863619               -0.53319979                5.91797018               -1.90563580
              13.34426573                6.61045224               66.60586330                0.00010000                0.54756283               -1.12616346               -1.81777010               -2.35315823               11.61495027                3.39593553
              14.35781684                6.13160272               66.32609302                0.00010000                2.47624683               -2.01327204               -3.24774583               -4.12380590               14.04918134                5.13167144
              15.39379067                5.61471796               66.08470801                0.00010000                4.76475714               -4.96086682               -4.74410036               -8.07995626               17.73058666                8.81707292
              16.45311198                5.03267864               65.89123610                0.00010000                5.87086183               -6.32806201               -6.12287044              -15.56265436               23.07507012               10.64714075
              17.51120791                4.37202983               65.77138365                0.00010000                4.44702401               -2.16622678               -7.00981096              -20.90589294               30.96453900               10.92746778
              18.54205246                3.67355670               65.74263035                0.00010000                1.41615793                1.27546313               -5.30817075              -21.42885185               39.00329960                7.72452827
              19.53953106                2.95739141               65.78598048                0.45942538               -0.08860026                0.40049911               -0.57644547              -10.30002822               21.34893192               -0.33081779
              20.54028046                2.44582926               65.40200467                1.00000000                0.07493924                0.41710900               -0.47242510               -0.00513767               -0.06926347                0.09994972
              10.78554302                8.93559321               67.59042512                0.88613775               -0.13598175               -0.08403144                0.77858991                0.01035146                0.02564766                0.65424382
              11.78418320                8.49801298               67.17563827                0.36211132                0.02909606               -0.08901346                0.02880251                0.14106977                0.20515798               -0.45929800
              12.78612494                8.06189162               66.76422758                0.00010000                0.43779497               -0.08452807               -0.71090389               -0.82494160                7.72085639               -1.97894618
              13.79293910                7.60391657               66.50081987                0.00010000                1.46318539               -0.23122337               -2.38900487               -2.76773698               15.38126452                0.38408583
              14.81538865                7.11140619               66.25064645                0.00010000                3.28938388               -1.46324758               -3.93119658               -5.89362533               16.79661192                2.66485874
              15.85872678                6.57566086               66.02732937                0.00010000                5.21733801               -3.10089017               -5.40165317               -9.92870427               19.25665380                4.69705194
              16.91973541                5.98793250               65.84112631                0.00010000                6.28590834               -3.63827311               -6.64829479              -14.61943426               22.66593325                6.03129888
              17.98444495                5.34888905               65.70189726                0.00010000                5.68893580               -2.21884390               -6.99931267              -18.18215841               27.05895794                5.72229995
              19.03351413                4.67149523               65.61609427                0.00010000                3.31649637               -0.54452071               -5.17276272              -19.97402812               31.95076511                3.15971993
              20.05077488                3.96176912               65.57491688                0.36780624                0.85993840                0.54073070               -0.60714258               -9.93628384               17.08306527               -1.00526296
              21.05071290                3.45057289               65.19417886                0.99077365               -0.00619804                0.48582605               -0.44955066               -0.07784279               -0.05398959               -0.46647278
              11.22333709                9.93499724               67.46615742                0.89082590               -0.07714914               -0.05183896                0.54198226                0.01263675                0.00948418                0.65133398
              12.22256559                9.49751951               67.04596504                0.40222662                0.05630346                0.00119617               -0.12780687                0.15758156                0.00883466               -0.36208707
              13.22446316                9.06176601               66.62561087                0.00010000                0.84154145                0.09130633               -0.70715696               -0.77394842                8.46636318               -1.54682044
              14.23939642                8.60582777               66.37521570                0.00010000                2.18684466                0.83715653               -2.79701000               -3.75013944               17.30355026               -2.36700061
              15.26820005                8.10233777               66.14016516                0.00010000                3.96469253               -0.45981139               -4.44287141               -7.76072391               18.74413089               -0.20144778
              16.31869027                7.55270016               65.93214435                0.00010000                5.96475279               -1.78641335               -6.08239170              -11.20938316               20.56277252                2.15861418
              17.38749510                6.95991317               65.74772495                0.00010000                7.26558659               -2.35675616               -7.35083605              -14.29364518               22.18298204                3.49990817
              18.46400201                6.32765296               65.58847420                0.00010000                7.10983602               -1.98384150               -7.64802495              -16.58313833               24.09101127                3.43745627
              19.52969182                5.66266629               65.45733356                0.00010000                4.88628611               -0.97337829               -5.60640283              -18.08184255               26.45203529                1.69870726
              20.56172773                4.96820602               65.35115306                0.35969912                1.57121184                0.71851928               -0.61618293               -9.10733368               13.75072502               -1.16492679
              21.56111606                4.45554578               64.97366032                0.97273278               -0.06116667                0.37082968               -0.30058998               -0.04019531               -0.00842566               -0.76845009
              11.66075120               10.93455643               67.34188887                0.89466743               -0.01851433               -0.04333547                0.30954961                0.02429405               -0.00065043                0.61531329
              12.66056606               10.49803690               66.91691502                0.47692074                0.07932582                0.09407364               -0.26697832                0.19518246               -0.08163171               -0.28146461
              13.66233772               10.06371775               66.49021152                0.08690534                0.83992496                0.23755822               -0.67028195               -0.13438182                6.93716043               -1.17033146
              14.67736456                9.62065970               66.20573591                0.00010000                2.54820355                1.57637638               -2.09958917               -4.87345224               17.28391002               -8.44108439
              15.71330179                9.10220996               65.99739515                0.00010000                4.97995803               -0.00353644               -4.62603643               -9.53139625               21.64376454               -2.33244609
              16.77696372                8.53993259               65.81147430                0.00010000                7.28039597               -1.09664548               -6.79198047              -11.90342186               22.44760276                0.56424635
              17.85890971                7.94079738               65.63030904                0.00010000                8.65326741               -1.65275435               -8.31326035              -13.76762061               22.24288701                2.25488018
              18.95002907                7.30921222               65.45505701                0.00010000                8.62072502               -1.69892042               -8.66493478              -15.23656234               22.02448955                2.66817881
              20.03132421                6.65202767               65.28586698                0.00010000                6.28598205               -1.14814291               -6.32876940              -16.01308015               21.85070934                1.55965304
              21.07574871                5.97613951               65.12271039                0.41677448                2.19526296                0.67017581               -0.50688235               -7.99026192               10.75392863               -0.70094077
              22.07522947                5.45798949               64.74692821                1.00000000               -0.05192390                0.12655345               -0.04228263               -0.07950647                0.09845748               -0.49993644
              12.09686203               11.93413053               67.21766157                0.89964286                0.04458957               -0.03032196                0.08923610                0.03204792               -0.02834048                0.55189604
              13.09730793               11.49940099               66.78849884                0.61057635                0.11453424                0.14928156               -0.37706090                0.18373796               -0.08203313               -0.16474601
              14.09915272               11.06651718               66.35818787                0.20530925                0.30636182                0.24635924               -0.60028768                0.45404353                1.06830050               -0.73305302
              15.10343516               10.63735530               65.95171292                0.00010000                2.95732604                0.82372305                0.45697208               -5.32269578               16.77908421               -7.73859498
              16.15829924               10.10226704               65.84088950                0.00010000                6.92996294               -0.32983082               -4.47479055              -10.05948028               28.25364534               -3.01990414
              17.24203442                9.53076725               65.67690156                0.00010000                9.22819129               -1.15437865               -7.53647062              -10.87229744               24.49277765               -0.23491436
              18.34286306                8.92685809               65.50073115                0.00010000               10.30030238               -1.20600078               -9.46598073              -11.93461336               22.63504552                1.56044277
              19.44804047                8.29367455               65.31323800                0.00010000                9.98199341               -1.19706939               -9.94457554              -13.12143853               20.52210561                2.32797132
              20.54250293                7.63970343               65.11152040                0.00010000                7.39601005               -1.22261901               -7.22398404              -13.69197822               17.99913249                1.73130796
              21.59596067                6.98160954               64.89963762                0.50282183                2.66615229                0.39838839               -0.37228051               -6.81751974                8.26075908               -0.31773841
              22.59582598                6.45807685               64.52510133                1.00000000               -0.01346943               -0.01503865                0.08589708               -0.05431784                0.13705817               -0.10149855
              12.53085124               12.93394999               67.09302744                0.83339464                0.10029263                0.01411962               -0.12484057                0.00545496                0.06764642                0.42521756
              13.53185417               12.50102253               66.66160917                0.74542671                0.13065185                0.16804842               -0.47693979                0.08385835                0.09894413               -0.02253484
              14.53346428               12.06864493               66.23094244                0.38617611                0.16533056                0.19787401               -0.54248940                0.15476200                0.31574321               -0.30012737
              15.53516078               11.63713416               65.80374000                0.00010000                4.26179798                0.00372222               -0.05167392               -5.44037914               15.82872495               -1.44995233
              16.61870024               11.09561335               65.68771660                0.00010000                9.98829748               -2.17653463               -4.34228990               -7.42047992               29.35225330               -2.07663288
              17.73492673               10.51684502               65.53908748                0.00010000               11.93049520               -1.67744659               -8.29827507               -7.09364927               25.85228453               -0.36717140
              18.85731014                9.91667736               65.36493520                0.00010000               11.99141120               -0.96569882              -10.78104935               -7.38542708               22.59291254                0.90233608
              19.97475495                9.28527083               65.16708812                0.00010000               10.61197559               -0.39760969              -11.56066586               -8.64682542               18.89160785                1.54966476
              21.06954965                8.62757529               64.93753663                0.00010000                7.31349695               -0.17711945               -8.46518438               -9.33116787               14.34727288                1.56921004
              22.12102489                7.98410728               64.67983643                0.55244336                2.58294162                0.19123839               -0.32484676               -5.88709481                5.90893769               -0.21930677
              23.12120848                7.45768871               64.30685379                1.00000000                0.01835947               -0.01462394                0.01493814                0.00611913                0.11940458                0.06083939
              12.96282605               13.93441292               66.96696347                0.90792990                0.14640994                0.04629279               -0.31572797                0.03238501                0.36648480                0.32137559
              13.96429015               13.50276196               66.53573720                0.94440612                0.16551350                0.17394259               -0.65029316                0.04668566                0.45682721                0.07556097
              14.96613632               13.07047466               66.10641915                0.72658024                0.16845066                0.18297265               -0.68785961                0.00059407                0.80446482               -0.09145178
              15.96765917               12.63742974               65.68195107                0.36572559                8.20212309                0.02955813               -0.21844902               -7.33707652               15.79123639               -0.14132898
              17.13017879               12.05873635               65.55712177                0.36074105               15.57191274               -3.68769959               -4.70692276               -5.86271656               28.65806106               -1.22566804
              18.27909742               11.49721831               65.40462796                0.36433819               14.82749603               -1.96267007               -9.15980457               -3.14254266               24.87527149               -0.36231915
              19.42672871               10.90754411               65.22401168                0.37631392               14.25543077               -0.91332528              -12.28991275               -3.63294149               20.92319710                0.30004780
              20.56420604               10.28572235               65.01270251                0.39731954               11.51572103                0.04515234              -13.67541765               -4.62404485               16.18663005                0.62503625
              21.65704313                9.63616104               64.76096646                0.42588903                4.19496559                0.85857544              -10.77808780               -6.26505485                9.88910611                0.62305638
              22.64810535                8.98543431               64.46153910                0.76831958               -0.41288209                0.13270309               -0.53428560               -6.21078754                3.67472656               -0.30890363
              23.64878549                8.45778437               64.08937470                1.00000000                0.06801368                0.00956608               -0.27959214               -0.00729329               -0.08038949                0.02624177
               8.98038020                4.08286938               69.22285005                1.00000000               -0.40359118               -0.49092216                1.72385855               -0.15290025               -0.43732097                0.55694698
               9.97634428                3.63309999               68.82199201                1.00000000               -0.29389049               -0.25458014                0.94941781               -0.11935867               -0.53047828                0.07082394
              10.97450239                3.18280037               68.41859844                1.00000000               -0.07612364               -0.02539902                0.18710002               -0.11750940               -0.53803101               -0.07384130
              11.97482181                2.73156370               68.01749663                0.60023484                0.08600724                0.22752757               -0.59239120               -0.19710389               -0.41348905               -0.46141101
              12.97622253                2.27795796               67.61703808                0.47284121                0.24512921                0.51971257               -1.43399440               -0.24724308               -0.20438116               -0.27527100
              13.97972440                1.82184048               67.22088448                0.25715245                0.05407486                0.78294006               -2.32118545               -0.76546905                0.52298486               -0.60115823
              14.97730403                1.35344096               66.83644702                0.00010000              -11.51868449                1.41423619               -3.09322248              -20.93831306               13.84423823               -1.54746273
              15.74935071                0.47538331               66.71327460                0.00010000              -12.71978819                5.02877790               -4.88920082              -20.76545353               22.70328936                3.18102245
              16.72290826               -0.40466319               66.48066256                0.00010000                6.73671459                2.21995166               -4.41217158              -18.95273854               13.46604827               11.45998266
              17.88408500               -1.29080205               66.14808231                1.00000000                8.36220215                0.78200394               -1.83040359              -17.87062049                4.14638793                0.05327102
              18.89015231               -1.82684371               65.73180172                1.00000000                0.60673097                0.96786234               -2.38946528                0.17738660               -0.09749070               -0.08900535
               9.42862058                5.07796016               69.09690396                1.00000000               -0.34353825               -0.45207197                1.53124688               -0.03312059                0.02797144                0.78566432
              10.42518520                4.63055419               68.69584552                1.00000000               -0.22625737               -0.22811235                0.75680212               -0.00328039                0.09972931                0.10341812
              11.42409544                4.18254638               68.29563748                1.00000000                0.00433878               -0.00093031               -0.01106122                0.00214685                0.13106416               -0.26858513
              12.42527198                3.73383898               67.89522867                0.58463153                0.22581369                0.24957111               -0.78726060               -0.05266131                0.40111246               -0.46148658
              13.42861171                3.28315509               67.50101277                0.53709477                0.45281143                0.51056890               -1.67534617               -0.07814654                0.60515153               -0.29880231
              14.43432821                2.82966988               67.10580968                0.34178043                0.62688860                0.77551328               -2.55830442               -0.40893937                0.83277602               -0.54590402
              15.44114948                2.36758332               66.71811593                0.00010000               -0.67899783                1.14172279               -3.44594259              -19.05168566               16.19190997               -0.92440012
              16.42074825                1.52567109               66.63353834                0.00010000               -1.23379622                1.71707404               -5.48074688              -28.34372488               27.32376335                7.27025948
              17.41647356                0.61753632               66.46848900                0.00010000               -0.21395980                6.34829289               -9.46082082              -30.90003930                8.13369262               17.28315108
              18.41646905               -0.28298201               65.99521252                0.08609048                0.57471416                7.00650923               -3.45360644              -20.61915123               -2.81476782               34.13111224
              19.42796784               -0.81716509               65.57888313                1.00000000                1.14987882                2.32935634               -4.01120080                2.13144681                0.10118745               38.04244655
               9.87452973                6.07382794               68.97461764                1.00000000               -0.28372719               -0.36383719                1.32410877               -0.03484587                0.18752086                0.92386365
              10.87169245                5.62853774               68.57000859                1.00000000               -0.16345949               -0.17767423                0.55829489               -0.00546656                0.39264960                0.01978183
              11.87126054                5.18278177               68.16899771                0.00010000                0.07337129                0.05979602               -0.21109280               -0.00170829                0.86125412               -0.73275392
              12.87315988                4.73655512               67.77387313                0.00010000                0.37840804                0.49154311               -0.96294748               -0.70603590                1.50124809               -0.09997952
              13.87882870                4.28816934               67.38621095                0.00010000                0.69787472               -1.03876464               -1.88096392               -1.28001588                1.58659834                3.65024320
              14.88711737                3.83735075               66.99429369                0.00010000                1.07202053               -2.27368114               -2.75059732               -1.35700508                1.77832924                7.51023710
              15.90026911                3.37627542               66.61272416                0.00010000                2.27029188               -7.06262544               -3.60890223              -19.59286865               22.70574581               15.11263963
              16.93252321                2.50972479               66.64210448                0.00010000                0.66457349               -0.26424159               -7.02523886              -32.47305798               37.82023363               13.80498983
              17.91356058                1.72230266               66.58600599                0.00010000               -1.30599118                8.43087580               -9.71799963              -31.53243299               33.57781495               23.74121730
              18.90640339                0.84932814               66.52387564                0.00010000                4.37934177               22.25054574              -45.92754913              -25.27898576               20.82675845               62.06804403
              20.00114741                0.21974341               66.18865165                0.27630302                9.47440243               23.52588261              -46.21294683              -13.60648086                8.98746836               61.81372811
              10.31850406                7.07068341               68.85073069                1.00000000               -0.23820179               -0.26684071                1.11722740               -0.02132527                0.30154450                0.75440827
              11.31612205                6.62700070               68.44194426                0.51989275               -0.12300862               -0.14094101                0.36776926                0.05324337                0.51787302               -0.36800445
              12.31604389                6.18374230               68.03702336                0.00010000               -0.51791807                0.08091182               -0.41628553                0.28066064                2.09275431               -1.25024359
              13.30576368                5.74366984               67.65991880                0.00010000               -0.69140604               -0.55716523                0.26462460               -1.99806954                6.20795515                1.53145354
              14.30221577                5.26237980               67.35079655                0.00010000                0.66591718               -2.12069117               -2.49322345               -3.84482082                9.66936117                6.70820669
              15.31908203                4.78419626               67.04268198                0.00010000                3.73511471               -5.32182000               -3.77453830               -6.67420653               13.42743512               13.13017605
              16.37691806                4.22633082               66.81740444                0.00010000                5.30889085              -11.01103142               -5.52615791              -16.22673754               21.10731849               21.96000966
              17.42525984                3.52038626               66.68330803                0.00010000                3.46517442               -0.04209982               -7.94848668              -23.98631173               31.66565948               14.97650817
              18.44622155                2.78615384               66.68809641                0.00010000               -0.59056274                5.82935659              -12.43689914              -17.50217103               53.61630518               18.35842645
              19.41344859                2.16202891               66.98678538                0.40859614               -1.56069387               15.76464597               -1.37805088               -5.83361310               34.10071954               33.04350411
              20.41500768                1.65335256               66.60373488                1.00000000                0.15590856               21.78552922               -0.86156076               -4.76441279                0.47853396               31.15506844
              10.76146864                8.06849113               68.72463984                0.90467323               -0.17702088               -0.16901820                0.91769908                0.01106041                0.06104251                0.61677412
              11.75969843                7.62571892               68.30817740                0.36357184               -0.06320143               -0.11882479                0.19268882                0.14096955                0.51306374               -0.56137731
              12.76020461                7.18440000               67.90043485                0.00010000               -0.25687192                0.00321900               -0.54895919               -0.59323851                5.74427494               -1.76216595
              13.75456099                6.72541182               67.58925611                0.00010000                0.06006237               -1.03252685               -1.67447578               -1.88450809               11.02965969                2.37896954
              14.76140586                6.24575552               67.29459416                0.00010000                1.75606145               -1.58388610               -2.96211824               -3.72127746               13.06342481                4.49053596
              15.78968222                5.73091435               67.03758146                0.00010000                3.90692478               -4.25076253               -4.55977685               -7.61212544               16.54705882                8.17588089
              16.83954436                5.15605479               66.82826705                0.00010000                5.16458652               -5.27709344               -6.24227224              -14.59576160               21.59177489               10.01851445
              17.89297395                4.50888280               66.69509461                0.00010000                4.11650755               -1.06818761               -8.29184105              -18.96965204               30.26620822               10.65388524
              18.92187451                3.83888980               66.68242883                0.00010000                1.47792247                3.06465337               -7.84700637              -18.83413047               41.72856741                9.52685431
              19.92253240                3.16462106               66.78047039                0.34217470                0.06686711                0.44511146               -0.72416735               -8.26979542               23.91045607               -0.33533765
              20.92321185                2.65545400               66.39770210                0.98020373                0.06794458                0.42806366               -0.46282571               -0.14746909               -0.10818652                0.16948109
              11.20426968                9.06730305               68.59786323                0.89086385               -0.12371196               -0.10411868                0.71624921                0.00129185                0.02060026                0.58423217
              12.20303256                8.62462421               68.17598245                0.35425257                0.01082722               -0.07017539                0.03363292                0.14900150                0.21902809               -0.41554834
              13.20448622                8.18380668               67.75781061                0.00010000                0.18427230               -0.00098485               -0.60230084               -0.69863898                7.26297669               -1.78527729
              14.20671801                7.72301930               67.47770729                0.00010000                0.89007343                0.10981452               -2.16058395               -2.48728765               14.43422142               -0.18229011
              15.22228769                7.23070207               67.21228471                0.00010000                2.49111203               -1.00440893               -3.63073042               -5.27781039               15.79765198                2.00468542
              16.25654025                6.69918101               66.97384426                0.00010000                4.23733450               -2.42791544               -5.14523128               -8.94996843               18.03374460                4.01612335
              17.30703438                6.12078895               66.77348829                0.00010000                5.32457757               -2.72081953               -6.70173140              -13.09093288               21.33204924                5.50087983
              18.36303180                5.49902251               66.62702974                0.00010000                5.33831494               -1.04252476               -7.94923820              -16.13570479               26.52550585                5.53157647
              19.41380068                4.84744691               66.55785936                0.00010000                3.42283410                0.43159654               -7.50273484              -17.06903422               34.04475263                3.15795565
              20.43148848                4.17093114               66.56832426                0.26856312                0.82958665                0.98033847               -1.06554145               -8.44948269               19.41622652               -0.89917677
              21.43039241                3.66191383               66.18966889                0.88855652               -0.10960655                0.88777282               -0.58738141               -0.20531592                0.01752545               -0.25864473
              11.64685216               10.06640875               68.47139751                0.89757427               -0.06773331               -0.08872031                0.51676694               -0.00244604                0.00178497                0.57561718
              12.64617483                9.62431541               68.04475274                0.38459288                0.04922878                0.01571685               -0.12611338                0.16197401                0.05565256               -0.31634121
              13.64783674                9.18438031               67.61898385                0.00010000                0.58725095                0.13864713               -0.65300182               -0.55396493                7.82536473               -1.37539957
              14.65791985                8.72760811               67.34813518                0.00010000                1.59256038                1.01731368               -2.41106927               -3.09778795               16.11840212               -2.25027268
              15.67968795                8.22566734               67.09778150                0.00010000                3.13380663               -0.16278575               -3.95899937               -6.86011083               17.67820840               -0.76940983
              16.72059598                7.68235604               66.87269091                0.00010000                4.90981266               -1.28102358               -5.64324474               -9.79912722               19.18856045                1.45156747
              17.77788420                7.10163840               66.67451601                0.00010000                6.15029585               -1.58523727               -7.15277423              -12.32509157               20.73585893                2.87295447
              18.84360190                6.48803230               66.50931287                0.00010000                6.53504960               -1.06899397               -8.08957416              -14.17218804               23.44997042                3.09092873
              19.90858519                5.84752173               66.39652737                0.00010000                4.77369610               -0.12509395               -7.66088254              -15.39201090               28.17877116                1.79595968
              20.93907582                5.18422783               66.34364111                0.27208622                1.42774717                1.24476041               -1.35798543               -7.80048182               15.97941261               -0.94357717
              21.93714014                4.67320945               65.96998427                0.88717804               -0.19356857                0.81491926               -0.59476039               -0.14120320                0.09322399               -0.44514225
              12.08840744               11.06552864               68.34502838                0.90310378               -0.01069482               -0.08706112                0.32880829               -0.00570637               -0.00986274                0.55284976
              13.08830049               10.62493854               67.91424469                0.43819434                0.08533975                0.09938615               -0.28523150                0.16428808                0.00280782               -0.23577028
              14.09011423               10.18657963               67.48355225                0.00010000                0.75873627                0.25961945               -0.70109592                0.05202088                7.04283933               -1.01988613
              15.10347521                9.74336558               67.19348865                0.00010000                2.01116582                1.67117966               -1.31969322               -4.32248193               16.50826369               -7.48831085
              16.13033755                9.22744636               66.95435227                0.00010000                4.05557146               -0.00014035               -3.77951854               -8.51953759               19.84778708               -2.65664197
              17.18458664                8.67356054               66.74632430                0.00010000                6.22593706               -0.82127124               -6.09499446              -10.13090588               20.66594907               -0.11503393
              18.25485629                8.08908420               66.54938585                0.00010000                7.45590340               -1.13423906               -7.73435486              -11.46164529               20.52211710                1.59378052
              19.33370471                7.47764263               66.36962631                0.00010000                7.74543244               -1.03164441               -8.52443119              -12.54860770               21.31542055                2.44313202
              20.40976494                6.84494503               66.22292789                0.00010000                5.80432032               -0.48023448               -7.44678429              -13.45320289               24.05663650                1.94409975
              21.44979112                6.19582635               66.11761865                0.33395373                1.99200801                0.83268069               -0.80817310               -6.84732800               13.22236434               -0.40938475
              22.44960510                5.67821222               65.74611537                0.94661011               -0.01860192                0.22427426               -0.19995603               -0.16475035                0.08828725               -0.27032961
              12.52791823               12.06466753               68.21884605                0.90792793                0.04913760               -0.06758260                0.15432667               -0.01982620               -0.01762936                0.51269588
              13.52840961               11.62630314               67.78450921                0.53227512                0.12659455                0.15953998               -0.44733166                0.11447050                0.05953031               -0.12750638
              14.53045013               11.18957269               67.35162317                0.00010000                0.10969328                0.29454240               -0.75745863                0.59555384                2.49436656               -0.58266231
              15.53060348               10.76103170               66.96564403                0.00010000                2.43260541                0.73643997                3.43537224               -5.12986008               16.89972294               -8.61247771
              16.57910223               10.22566453               66.80141746                0.00010000                6.28682728               -0.60967102               -3.63227858               -9.06501579               24.95360465               -3.15221268
              17.65634002                9.66593061               66.60576310                0.00010000                8.27334847               -1.07498680               -6.50026639               -8.93748892               22.02981766               -0.79981133
              18.74456920                9.07895362               66.41061169                0.00010000                9.02144488               -0.95449091               -8.43357306               -9.64763422               20.51518326                1.06287151
              19.83676892                8.46739941               66.21996479                0.00010000                8.83841063               -0.85826578               -9.12043756              -10.54388835               19.80436082                2.27150868
              20.92133742                7.83791704               66.04611463                0.00010000                6.60465744               -0.85460803               -7.09199672              -11.44568527               20.99748247                2.24744026
              21.96886207                7.20088144               65.89688795                0.43337849                2.38679814                0.34417400               -0.36427049               -5.84192440               11.05223279               -0.04189887
              22.96907338                6.67769494               65.52564747                1.00000000                0.02113105               -0.06860427                0.02409533               -0.12947123                0.01894632               -0.01478909
              12.96473970               13.06417699               68.09232149                0.83705432                0.09450355               -0.01820011               -0.01222181               -0.04577169                0.10876182                0.40314220
              13.96568473               12.62812934               67.65616941                0.59209454                0.12785223                0.21224786               -0.64858741                0.02316039                0.33896545               -0.00948331
              14.96729674               12.19247047               67.22459007                0.00010000               -0.04492803                0.29006312               -0.81112962                0.10589814                1.16857116               -0.18914845
              15.96478617               11.75809437               66.80477703                0.00010000                3.84207889               -0.11856574                3.40953816               -5.37719774               17.00841121               -3.99968455
              17.04413832               11.21525294               66.65035856                0.00010000                9.38808024               -2.52904397               -3.41787532               -6.55481468               26.66434587               -2.57071181
              18.15254778               10.65206080               66.46143966                0.00010000               10.81482420               -1.65436446               -6.97243988               -5.62414073               22.49956832               -0.60589152
              19.26043480               10.06999438               66.26450559                0.00010000               10.56578733               -0.96714462               -9.21822742               -5.81282264               19.86331692                0.63852179
              20.36386353                9.46047731               66.06278618                0.00010000                9.34671994               -0.45446379               -9.90964659               -6.89010096               18.05585138                1.63120531
              21.44736920                8.82785287               65.86575928                0.00010000                6.46556010               -0.28891445               -7.21455495               -7.81321783               18.00464165                1.90527273
              22.49317473                8.20270983               65.67796011                0.51453853                2.30097367                0.13556947               -0.20931131               -5.01496824                9.13973447                0.03044859
              23.49338868                7.67684013               65.30705927                1.00000000                0.02139502               -0.05109016                0.02078336               -0.04133120               -0.00035554                0.05901355
              13.39909810               14.06430353               67.96442362                0.90876229                0.14812412                0.01265363               -0.17855602                0.06029639                0.37620511                0.30338064
              14.40057934               13.63054809               67.52831691                0.83577985                0.17524808                0.24187503               -0.88738067                0.04298175                0.70825717                0.08266199
              15.40260306               13.19537396               67.09874906                0.61805043               -0.01511410                0.29034837               -0.94668468               -0.06375390                1.66475788               -0.00206185
              16.40027706               12.75866039               66.68129013                0.36551874                7.57182284                0.05660124                3.43146896               -7.46542699               19.29844580               -4.28508206
              17.55403951               12.17508365               66.51577700                0.36077795               14.44193537               -4.01692858               -3.78943782               -5.30073379               25.38340232               -0.95574752
              18.68911576               11.63284332               66.31986506                0.36418635               13.29283623               -1.92174766               -7.51550397               -2.11684794               20.69547985               -0.31110386
              19.81989624               11.05961073               66.11144131                0.37552934               12.59963272               -1.03836576              -10.11321972               -2.78051592               17.27756221                0.39091957
              20.94110842               10.45831014               65.89279158                0.39524055               10.14721532               -0.21671749              -11.05410556               -3.64910970               14.81389394                0.93946587
              22.02284055                9.83213875               65.67476734                0.42361913                3.92335092                0.42858812               -8.29336324               -5.18873115               14.49993536                1.23453176
              23.01957544                9.20359283               65.45903631                0.75990176               -0.14272048                0.08830049               -0.25711671               -5.13320978                7.74809845                0.02509287
              24.01998614                8.67667314               65.08830638                1.00000000                0.04107004               -0.01669992               -0.09001884               -0.03222360               -0.00482469                0.04233573
               9.38083645                4.21525203               70.23927637                1.00000000               -0.37003626               -0.44540044                1.56162343               -0.13332957               -0.41953984                0.53884603
              10.37713608                3.76089532               69.83116401                1.00000000               -0.27501619               -0.23746648                0.88538553               -0.10256861               -0.50717974                0.06662063
              11.37533612                3.30603630               69.42062973                1.00000000               -0.08538613               -0.03588601                0.21938810               -0.10208950               -0.51750084               -0.06981088
              12.37542836                2.85030153               69.01222781                0.60400974                0.05480849                0.18124100               -0.46093544               -0.17734646               -0.42732292               -0.43910700
              13.37643229                2.39237651               68.60395699                0.46942945                0.18870710                0.43455063               -1.18415438               -0.22605107               -0.26884481               -0.28657327
              14.37920250                1.93212449               68.19952562                0.23911088               -0.15735581                0.65898776               -1.95263026               -0.87132543                0.49482073               -0.59292724
              15.37328518                1.45738611               67.80795611                0.00010000              -10.88851792                1.40593025               -2.60128042              -20.06398382               13.31883229               -1.67930295
              16.16143214                0.59128989               67.66724244                0.00010000              -11.56311268                4.25348128               -4.19354416              -20.19029161               23.13637270                3.14135367
              17.14202292               -0.27096720               67.43848880                0.00010000                7.06943095                2.01244362               -3.91756247              -16.83668378               15.82219246                7.33588996
              18.30282076               -1.12933674               67.13066991                1.00000000                8.31576936                0.78565106               -1.65905443              -16.46996041                5.67764477                0.02809511
              19.30833831               -1.66664541               66.70884658                1.00000000                0.55175462                0.96486145               -2.20261627                0.23795879               -0.09366372               -0.09237058
               9.83385986                5.21079802               70.11148843                1.00000000               -0.31415984               -0.41234894                1.38571911               -0.02748225                0.03211860                0.76015114
              10.83071826                4.75852066               69.70317597                1.00000000               -0.21238666               -0.21339437                0.70956539                0.00039256                0.10684841                0.09640702
              11.82961212                4.30567744               69.29576957                1.00000000               -0.01167330               -0.01277552                0.03793514                0.00248907                0.13819579               -0.26491954
              12.83048479                3.85211394               68.88810995                0.60859385                0.18240887                0.19851409               -0.63666293               -0.04735365                0.35392741               -0.43326066
              13.83326030                3.39672202               68.48562365                0.55216629                0.37498265                0.42708919               -1.40290460               -0.07612444                0.50801089               -0.29167599
              14.83798445                2.93871436               68.08219495                0.34050863                0.49011665                0.65478648               -2.16629563               -0.45122597                0.73106335               -0.51969413
              15.84306264                2.47144542               67.68612329                0.00010000               -0.71392798                1.07873493               -2.95372194              -18.54676125               15.39100498               -0.93874821
              16.82370589                1.63382470               67.57934422                0.00010000               -0.45466167                1.61184129               -5.23910934              -27.76092544               25.06377967                6.56308887
              17.83396940                0.74915723               67.37044512                0.00010000                0.61271882                4.74451019               -9.23153783              -28.55318480               10.36654355               13.90267473
              18.83596026               -0.12148023               66.95962839                0.07498524                0.70285815               12.62958320               -3.65927120              -18.73517732                0.57710496               18.28410512
              19.84802656               -0.65699680               66.53779357                1.00000000                1.20663015               12.13447636               -4.19833554               -0.99403153                0.09732940               20.65887391
              10.28484154                6.20700505               69.98722189                1.00000000               -0.25770223               -0.33791320                1.19721231               -0.02909321                0.18631064                0.89024328
              11.28226451                5.75662743               69.57544784                1.00000000               -0.15244566               -0.16724467                0.52936243               -0.00213195                0.38955463                0.01316751
              12.28179262                5.30578079               69.16722234                0.00010000                0.05861008                0.04142207               -0.14279859               -0.00729020                0.86267856               -0.72890178
              13.28343672                4.85427181               68.76500824                0.00010000                0.32583768               -0.52140013               -0.80328968               -0.84064803                1.43852227                0.90570842
              14.28830938                4.40091829               68.36886527                0.00010000                0.60089336               -0.96347317               -1.58903320               -1.47786839                1.46925489                3.41852875
              15.29545458                3.94522021               67.96879435                0.00010000                0.94651166               -2.22602069               -2.34939112               -1.82996464                1.67678370                7.13065918
              16.30723961                3.47896081               67.57905408                0.00010000                1.65236179               -6.66471834               -3.12068208              -19.74677171               21.30327119               14.23066475
              17.32850182                2.62352672               67.57416115                0.00010000                0.95122761                0.24644540               -7.03454121              -33.63408044               33.91028965               12.10111461
              18.32626416                1.82392300               67.45463953                0.00010000                0.28847137                8.37872109              -12.22035823              -25.89698564               20.35477893               20.13091723
              19.33427125                1.12325492               67.15336850                0.00010000                1.66133215               23.97573560              -39.92956748              -14.42076109                9.70736756               62.68481101
              20.35949081                0.57604412               66.78153566                0.06877977                2.52195593               25.66392141              -46.78993536               -6.95425595                3.15586406               68.86508345
              10.73403323                7.20403976               69.86136253                1.00000000               -0.21333496               -0.25621227                1.01026277               -0.02271136                0.29801346                0.72277895
              11.73189988                6.75517576               69.44555955                0.50187088               -0.11056399               -0.12966935                0.35409595                0.03552415                0.50203025               -0.36557403
              12.73182195                6.30650589               69.03335475                0.00010000               -0.66827714                0.08226072               -0.31415870               -0.73050377                3.05444707               -1.21620883
              13.71853433                5.84168593               68.66873662                0.00010000               -0.95337092               -0.70143338                0.17948423               -2.08952197                6.35017315                1.33962252
              14.71275453                5.37745255               68.32637584                0.00010000                0.24041508               -2.04965044               -2.12921062               -3.25206896                8.42955598                6.35608075
              15.72334264                4.89419395               68.00680832                0.00010000                2.85330859               -4.90734583               -3.34498933               -7.18485625               12.73596997               12.31549625
              16.76982070                4.33815105               67.76299017                0.00010000                4.13597275              -10.09978692               -5.17995529              -16.76228115               19.44059459               20.49948840
              17.80606209                3.63875361               67.59856195                0.00010000                2.32403925                0.89295525               -8.24989901              -24.37754632               27.46964767               13.22376192
              18.81630148                2.91673165               67.54336925                0.00010000               -0.53190821                8.52039217              -15.91668743              -15.78676301               54.11466886               18.40740553
              19.79542393                2.35803448               67.96344679                0.20698976               -0.64692155               12.29454289              -12.27430743               -4.61271743               39.42784459               44.14717741
              20.80336305                1.85628163               67.58901594                0.79677853                0.79391280               14.36203766               -7.32638239               -2.96715958                2.47202198               46.33350591
              11.18211530                8.20188080               69.73339281                0.90706554               -0.16064322               -0.17597914                0.83377699               -0.00050792                0.05185360                0.58742206
              12.18050887                7.75403405               69.31008191                0.34610705               -0.07214636               -0.10245478                0.18708740                0.11308569                0.50388734               -0.54581154
              13.18067238                7.30742601               68.89548315                0.00010000               -0.49046313                0.05655929               -0.45209057               -0.79766039                5.48248074               -1.66644395
              14.17069961                6.84024314               68.57237378                0.00010000               -0.49561970               -0.01471197               -1.52294265               -1.94428104               10.57707938                1.16453549
              15.17075998                6.35992528               68.26685066                0.00010000                1.01796760               -1.45699923               -2.60451450               -3.53598273               12.50441032                4.07259655
              16.19105896                5.84707330               67.99351247                0.00010000                2.83371711               -3.66600405               -4.13592659               -7.40523749               15.63158103                7.45001722
              17.22743433                5.27696507               67.76639066                0.00010000                3.56556629               -4.32249561               -5.98900075              -14.11586308               19.92976526                9.16187388
              18.26237029                4.64138582               67.60554683                0.00010000                3.19068548                0.32743522               -8.76589817              -17.90561620               28.27598906               10.08670128
              19.29124804                3.99433084               67.58569023                0.00010000                2.00483167                5.19120775              -12.75228849              -15.77134340               43.55215280               10.82739835
              20.30246692                3.36914578               67.77149714                0.17229541                0.62026368                1.12901940               -4.37232839               -5.95900146               26.96459339               -1.99297956
              21.30365331                2.86328487               67.39274816                0.79473086                0.11863875                0.84180951               -1.81179343               -0.33553605               -0.39467042               -1.55030695
              11.62971658                9.20052018               69.60475011                0.89607028               -0.11001970               -0.12681856                0.66242915               -0.01200014                0.01462835                0.55912288
              12.62861639                8.75312667               69.17631093                0.33173926               -0.00284694               -0.05517940                0.02979167                0.13501635                0.24381532               -0.39856704
              13.62965964                8.30763707               68.75218156                0.00010000               -0.07334750                0.05451865               -0.54074914               -0.74096688                6.90033587               -1.69536561
              14.62714944                7.84139169               68.45760819                0.00010000                0.27725357                0.23989051               -1.83459888               -2.35286459               13.68999909               -0.41954467
              15.63520472                7.34831257               68.17803184                0.00010000                1.55243299               -0.75216352               -3.16528006               -4.70346629               15.04885001                1.43519607
              16.65819810                6.82087387               67.92442474                0.00010000                2.89930998               -1.89109145               -4.65107122               -8.09717115               17.10021287                3.34679338
              17.69319092                6.25170114               67.70709168                0.00010000                3.61929500               -1.77451867               -6.40696101              -11.87077785               20.02562377                4.77607010
              18.73058400                5.64530232               67.54291249                0.00010000                3.99618721                0.27445692               -8.47591469              -14.12627799               24.99296895                5.32243368
              19.77311466                5.02055581               67.46603958                0.00010000                3.83529376                1.95930518              -10.78420371              -14.84982353               35.54666547                2.71046119
              20.80728987                4.38061487               67.55360605                0.11437751                1.76297450                1.54471566               -7.64592574               -7.10229167               21.98152737               -0.75637106
              21.80837415                3.87311782               67.18243123                0.72290142                0.10842786                1.34557964               -3.53698663               -0.41765931                1.48713763               -0.98595854
              12.07666232               10.19934443               69.47649276                0.90649937               -0.05700165               -0.11776465                0.49886021               -0.02115994               -0.00505831                0.56992592
              13.07609231                9.75293046               69.04344277                0.35155113                0.04628454                0.02191786               -0.13767602                0.13269507                0.11327375               -0.31344624
              14.07758801                9.30851638               68.61255083                0.00010000                0.34372580                0.15218160               -0.65070833               -0.67993081                7.47169035               -1.33164130
              15.08296682                8.84504095               68.32699431                0.00010000                0.98102357                0.59964709               -1.91165251               -2.70269939               15.26888400               -2.18606108
              16.09720848                8.34488201               68.06098517                0.00010000                2.13800742               -0.14357056               -3.35162474               -5.67861556               16.74414876               -0.98707399
              17.12572697                7.80925147               67.81927945                0.00010000                3.41909184               -0.81570755               -4.98542120               -8.31781444               18.09445415                0.78561515
              18.16559032                7.24147470               67.60466947                0.00010000                4.26315428               -0.75619150               -6.67028579              -10.47586950               19.52725533                2.14487947
              19.21099006                6.64687496               67.42668271                0.00010000                4.66743462                0.10603148               -8.29662509              -11.78731572               21.92937170                2.59539245
              20.25893901                6.03351695               67.30411591                0.00010000                4.84345100                1.03832954               -9.78743849              -12.77424639               29.39664008                1.72061286
              21.30785908                5.40004009               67.32399335                0.11596979                2.56775994                1.70450549              -10.32627750               -6.68009198               18.23158343                0.00444179
              22.31029421                4.89019646               66.96176511                0.72234272                0.24351366                1.19009383               -6.33091920               -0.40298123                3.58710445               -0.29759014
              12.52212133               11.19816488               69.34846504                0.91191622               -0.00229938               -0.11265512                0.34680088               -0.03394578               -0.01214786                0.58001930
              13.52209834               10.75356502               68.91121039                0.38469543                0.09146013                0.09978390               -0.31976513                0.10724631                0.10722906               -0.25450196
              14.52395054               10.31068070               68.47618960                0.00010000                0.73157379                0.26548699               -0.78986723               -0.49315852                7.12840281               -1.01786267
              15.53672982                9.85338464               68.17934204                0.00010000                1.67356752                0.43882080               -1.19117340               -2.82855179               15.82918071               -4.25006130
              16.55742189                9.34544116               67.92180478                0.00010000                2.92596529               -0.08327590               -2.96658708               -6.43905752               18.43354528               -2.87260674
              17.59524912                8.80455972               67.68957441                0.00010000                4.43140744               -0.47979072               -5.18386010               -8.05771359               19.07842608               -0.69450635
              18.64605004                8.23657731               67.47562194                0.00010000                5.37731567               -0.42394616               -6.95250421               -9.18810235               19.11858866                0.86814474
              19.70279543                7.64742295               67.28456838                0.00010000                5.92072825               -0.04650520               -8.33279044               -9.88101080               20.02834210                1.81623079
              20.76446460                7.04132240               67.13693130                0.00010000                5.71065412                0.41519518               -9.42852831              -10.30637803               25.61180642                2.63517807
              21.81700852                6.41470498               67.10654693                0.15569502                2.77685913                1.01950069               -6.60895276               -5.73946449               15.26658465                0.38132820
              22.82000178                5.89691970               66.74292909                0.76314707                0.29932658                0.33203552               -3.13613139               -0.35894560                1.68931464               -0.09467190
              12.96518313               12.19709133               69.22074811                0.91736850                0.05382862               -0.08648101                0.20396879               -0.05605388               -0.00445376                0.57594106
              13.96572141               11.75492614               68.77955221                0.44432010                0.13610520                0.17300703               -0.53033693                0.05006765                0.23401307               -0.19123905
              14.96790523               11.31382612               68.34303869                0.00010000                1.29569599                0.35276886               -0.97821668               -0.84156146                6.17109144               -0.60232782
              15.99163533               10.85381737               68.02042037                0.00010000                2.46735114               -0.59451313                3.01294852               -2.88894683               16.45822427               -5.12709855
              17.01725225               10.34321650               67.76824393                0.00010000                4.09006077               -0.78007912               -2.55280017               -5.81295378               20.36788301               -3.34559620
              18.07343655                9.79965565               67.54689624                0.00010000                6.08563962               -0.69672427               -5.31228220               -6.73493852               20.08970664               -1.21332920
              19.13896505                9.23299578               67.33205969                0.00010000                6.75940993               -0.39795638               -7.27792613               -7.32654358               18.73835617                0.44947047
              20.20862475                8.64594486               67.13082925                0.00010000                7.32821879               -0.11773992               -8.53094520               -7.96760352               18.88739250                1.81454239
              21.28552942                8.04182085               66.96968046                0.00010000                6.44238707               -0.21471859               -9.07589720               -8.77553980               22.96359485                3.21091237
              22.33747249                7.42043010               66.89235221                0.22794236                2.65782174                0.39314557               -2.39971816               -4.97363034               13.46886088                0.47069252
              23.33868586                6.89683717               66.52558324                0.83710959                0.12133685               -0.03548135               -0.53729040               -0.20922931               -0.00957815                0.00115526
              13.40533064               13.19643526               69.09278300                0.84233596                0.10342582               -0.04075303                0.06884006               -0.07198707                0.10288837                0.48690449
              14.40636490               12.75702517               68.64863742                0.44480650                0.14487162                0.25970282               -0.80901402               -0.01453658                0.62297844               -0.12497565
              15.40822808               12.31773608               68.21471985                0.00010000                2.15978006                0.41446602               -1.15234205               -1.84888783                5.69360681               -0.21777399
              16.44956050               11.84149437               67.87193076                0.00010000                4.35482232               -2.75577258                4.11107352               -2.14658497               16.86552450               -3.45583417
              17.49532452               11.32983957               67.61935909                0.00010000                6.06052831               -1.72159835               -2.21140305               -3.44247479               21.32670276               -2.50168690
              18.57077107               10.79062523               67.39963868                0.00010000                7.89527200               -1.27551036               -5.44892945               -3.86576172               20.01449605               -0.83661802
              19.65322996               10.22861818               67.18057065                0.00010000                8.19236101               -0.57523603               -7.61602451               -4.25843490               17.71076725                0.26137079
              20.73461829                9.64506815               66.96889518                0.00010000                8.06192958               -0.07219895               -8.80936530               -5.15285084               17.33223665                1.43566235
              21.81446855                9.03702803               66.79324553                0.00010000                6.39506492                0.05073445               -8.72317422               -6.36162881               20.37621406                2.66135765
              22.86251959                8.42256789               66.67565021                0.30221872                2.42672531                0.16768335               -0.79761362               -4.43810831               12.04400444                0.43824701
              23.86300306                7.89621007               66.30726946                0.90660528                0.04834723               -0.03501580               -0.05122232               -0.06263249               -0.25142279                0.02366649
              13.84256358               14.19627627               68.96339235                0.90990885                0.15662810               -0.01589941               -0.06738454                0.10768621                0.35786346                0.40021146
              14.84412986               13.76012019               68.51798959                0.73789076                0.19473409                0.30950281               -1.10048272                0.06845478                1.11068185               -0.07598975
              15.84645827               13.32211544               68.08748546                0.51931912                4.62351373                0.43793608               -1.28130425               -4.24789502                6.47771464               -0.01385802
              16.93660014               12.79870192               67.75058045                0.36528015                7.64068172               -4.27924583                3.62988885               -1.96258206               18.63963619               -3.22826455
              17.99927190               12.30878453               67.48133301                0.36082826                8.03712844               -2.10550449               -2.32185157               -0.83308572               19.71215750               -0.79715346
              19.09734271               11.77414545               67.25431788                0.36398319               10.00407663               -1.64797838               -5.64836906               -1.70750983               17.98051197               -0.23564423
              20.19935343               11.22149106               67.02174728                0.37457226                9.99075863               -0.71271229               -7.85959526               -1.86988164               14.70337461                0.34749842
              21.29715788               10.64450088               66.79162040                0.39315733                9.07218358               -0.05672704               -9.11913096               -2.67881680               13.68201329                1.09484141
              22.38079710               10.04283554               66.59509919                0.42043756                4.61851990                0.58075115               -9.19923392               -4.40300030               17.17586935                2.18135121
              23.38952828                9.42378377               66.45639676                0.66194800                0.46758676                0.12158841               -0.76921355               -4.63406517               11.36393765                0.54703905
              24.39014884                8.89613686               66.08757432                0.96019569                0.06205607               -0.00732146               -0.20858404               -0.05011369                0.02533199                0.03701824
               9.78821411                4.34922217               71.25408252                1.00000000               -0.33667803               -0.40045155                1.40069426               -0.11399145               -0.40573887                0.52356707
              10.78484733                3.89040849               70.83969972                1.00000000               -0.25627684               -0.22099937                0.82231885               -0.08551525               -0.48910630                0.06305535
              11.78308857                3.43112447               70.42298620                1.00000000               -0.09496180               -0.04690896                0.25163479               -0.08588038               -0.50104566               -0.06697850
              12.78294809                2.97101728               70.00827792                0.60857705                0.02296224                0.13760470               -0.33016169               -0.15672894               -0.43446675               -0.41813138
              13.78354782                2.50889318               69.59335500                0.46684345                0.13367982                0.35201100               -0.94068201               -0.20478868               -0.31537291               -0.29464399
              14.78562169                2.04464329               69.18183187                0.22184239               -0.37919815                0.53639780               -1.59285718               -0.98581809                0.49294313               -0.58315567
              15.77596386                1.56352054               68.78442141                0.00010000              -10.20381108                1.41898505               -2.10402056              -18.94617713               12.94308550               -1.81397691
              16.58154547                0.71400684               68.62940372                0.00010000              -10.00196036                3.60073281               -3.34782512              -18.65327453               23.51631265                2.93461249
              17.57592465               -0.12185804               68.40231131                0.00010000                7.28673215                0.12971262               -3.30964885              -16.34863531               17.93382544                4.07283996
              18.72728011               -0.94815710               68.11490122                1.00000000                7.80005224                0.81586053               -1.50427064              -14.89809416                6.93294148                0.04334694
              19.73192569               -1.48658510               67.68774939                1.00000000                0.46455813                0.99084106               -1.99801947                0.32303644               -0.05135748               -0.05501251
              10.24588788                5.34521766               71.12461834                1.00000000               -0.28468502               -0.37317346                1.24105190               -0.02242042                0.03396163                0.73864994
              11.24304103                4.88819850               70.71003682                1.00000000               -0.19812535               -0.19954887                0.66280413                0.00367430                0.11033179                0.09036653
              12.24192537                4.43065538               70.29639618                1.00000000               -0.02722904               -0.02529616                0.08757701                0.00299842                0.14369271               -0.26144563
              13.24249645                3.97239333               69.88249541                0.63478880                0.13807772                0.15126689               -0.48715434               -0.04513941                0.31886646               -0.40657444
              14.24468693                3.51241329               69.47295467                0.56855443                0.29766901                0.34472716               -1.13399211               -0.07531002                0.43248786               -0.28207015
              15.24844983                3.05000727               69.06248377                0.33894821                0.35666918                0.53536322               -1.78146222               -0.49301772                0.64356334               -0.49512628
              16.25182031                2.57771039               68.65904149                0.00010000               -0.53739088                1.02506486               -2.46724914              -17.74946113               14.48898448               -0.95998134
              17.23770201                1.75001416               68.52875615                0.00010000               -0.41500250                0.92612593               -4.78739622              -27.23366079               23.00299145                5.79723391
              18.24352026                0.87943909               68.28385825                0.00010000                1.14803457                3.69274556               -7.20188863              -26.22442490               11.65394145               11.40762708
              19.26066270                0.06000151               67.92202710                0.23221157                1.50319013                2.36815241               -3.80590927              -15.48706444                3.33010644               -0.22623218
              20.27358406               -0.47667669               67.49491642                1.00000000                1.29213608                1.62039060               -4.33232889                0.13241350                0.05125685               -2.61293804
              10.70180403                6.34175871               70.99856188                1.00000000               -0.23209317               -0.31247960                1.07154653               -0.02499842                0.18321214                0.86448074
              11.69948310                5.88641751               70.58059584                1.00000000               -0.14251595               -0.15716677                0.50030885               -0.00053817                0.38394859                0.00615591
              12.69895371                5.43061855               70.16614174                0.00010000                0.04021501                0.02509677               -0.07439153               -0.01722519                0.86034240               -0.71674564
              13.70028740                4.97404262               69.75780733                0.00010000                0.27369856               -0.46482913               -0.63582790               -0.87906058                1.38383752                1.11713178
              14.70442768                4.51578772               69.35443029                0.00010000                0.50884199               -1.04486344               -1.30072621               -1.53219047                1.37059643                3.34623743
              15.71046424                4.05535055               68.94730587                0.00010000                0.82700289               -2.21095998               -1.95133091               -2.15143081                1.58020622                6.78171761
              16.72096774                3.58402184               68.55031052                0.00010000                1.23396592               -6.43631928               -2.63768906              -20.03325912               19.37273198               13.36023848
              17.73514355                2.73252935               68.50141365                0.00010000                1.02405342                0.17308272               -6.57547044              -33.77266328               31.05745012               11.09212402
              18.74144881                1.95199687               68.34159882                0.00010000                1.92555253                7.19060807              -12.90157692              -35.66067898                4.30898872               16.67822926
              19.77365461                1.09920595               67.72528429                0.00010000                3.32407799               18.34211538              -26.15419356              -25.52390374               -9.45892389               47.86405203
              20.80793037                0.54582271               67.25285294                0.12673889                3.42757609               22.27434364              -29.42457766               -8.35203663               -3.45860406               55.49105008
              11.15607030                7.33896807               70.87093594                1.00000000               -0.18998712               -0.24533576                0.90446354               -0.02511546                0.29217602                0.70578011
              12.15417043                6.88505516               70.44902618                0.47687582               -0.10572679               -0.11831001                0.34027600                0.01959979                0.49566320               -0.36838169
              13.15395576                6.43115731               70.03074019                0.00010000               -0.72121827                0.08128836               -0.21944534               -0.66748864                3.21823689               -1.19068767
              14.13974606                5.96309675               69.66350848                0.00010000               -1.06102888               -0.71058308               -0.63154998               -2.25968082                6.30002538                2.16391992
              15.13273518                5.49151602               69.30821234                0.00010000               -0.12794806               -2.01181383               -1.69507852               -3.56904894                7.95714337                5.94590043
              16.13718710                5.00578807               68.97578220                0.00010000                2.06205728               -4.65261427               -2.87070700               -7.51112046               12.25745028               11.60850843
              17.17397633                4.44898400               68.71380533                0.00010000                2.85433046               -9.44155432               -4.64576683              -17.35873423               18.49476556               19.08068545
              18.19427371                3.75347582               68.51831005                0.00010000               -0.51731225                1.68684616               -7.91961689              -26.08410714               23.42737469               12.42702620
              19.16363009                3.02325125               68.36976266                0.00010000               -1.89574577                9.03852839              -14.90283974              -22.05567782               49.02356477               15.52696733
              20.15635879                2.42684382               68.74129924                0.05981702                2.48398661               21.76981293              -47.80014936               -8.66646694               44.82106031               52.44395153
              21.21330982                1.96881018               68.45720723                0.65106449                5.69510234               24.26049307              -50.05112599               -2.55906223               22.67388066               56.67531504
              11.60912753                8.33685199               70.74131537                0.91112064               -0.14416868               -0.17912523                0.74980097               -0.01155220                0.04170287                0.58466694
              12.60768584                7.88405131               70.31191915                0.32235913               -0.07825907               -0.08815806                0.18046154                0.08496533                0.50155603               -0.54458814
              13.60756235                7.43224431               69.89139304                0.00010000               -0.64753851                0.08371864               -0.37043034               -0.84902175                5.31863734               -1.63462942
              14.59473507                6.95983096               69.55879725                0.00010000               -0.86034849               -0.15444332               -1.21281477               -2.08856097               10.32439641                0.89620108
              15.59035538                6.47555145               69.24250387                0.00010000                0.40193847               -1.31222714               -2.27003476               -3.69098691               12.26151636                3.65640945
              16.60277384                5.96229827               68.95486293                0.00010000                1.78749620               -3.27190893               -3.65636117               -7.40315666               15.20428418                6.76670214
              17.62610530                5.39519075               68.70848703                0.00010000                1.82101611               -3.54762320               -5.54282376              -14.04746064               19.28264053                8.28880734
              18.63919417                4.76626628               68.51977665                0.00010000                0.04309741                1.54297369               -8.62697280              -17.63768666               25.60357844                9.25920559
              19.62696725                4.13276744               68.42738306                0.00010000                0.77860855                7.99895969              -15.49911692              -14.06268597               46.07183112               11.16214484
              20.65476634                3.53460221               68.69302382                0.01830577                2.29245709                8.82318421              -29.36390364               -5.16831462               36.22140398               -0.85472206
              21.67281639                3.03103257               68.36146623                0.62436970                1.80500571                5.21837669              -26.17210571               -0.89821451               13.90995286               -1.49833727
              12.06144061                9.33538556               70.61111181                0.90360711               -0.09631990               -0.13798246                0.60404400               -0.02318431                0.00776868                0.57478692
              13.06047741                8.88329200               70.17657829                0.30392292               -0.01224642               -0.04521431                0.02603648                0.10712565                0.26850116               -0.40569845
              14.06119568                8.43283169               69.74699563                0.00010000               -0.29048506                0.07475644               -0.50007705               -0.85637306                6.66854926               -1.70107488
              15.05466771                7.96000788               69.44101531                0.00010000               -0.23737725                0.11610353               -1.51111836               -2.37160487               13.22537983               -0.52644343
              16.05644814                7.46527148               69.14897911                0.00010000                0.74084769               -0.66992598               -2.69409236               -4.38637966               14.63072390                1.10674835
              17.06948466                6.94034989               68.88082284                0.00010000                1.63054869               -1.46897991               -4.13748780               -7.56065040               16.69574003                2.75701280
              18.08905911                6.37803154               68.64534907                0.00010000                1.72293109               -0.95925111               -5.97761809              -11.05469280               19.57731569                4.02146335
              19.10394329                5.78433529               68.45751145                0.00010000                1.24906620                1.60089906               -8.68904513              -12.56261879               24.07823180                4.51402966
              20.11404043                5.18323044               68.34217528                0.00010000                2.53920442                3.91374104              -12.92021378              -10.43938445               35.03449795                3.80178779
              21.15472737                4.60330750               68.41540575                0.00010000                4.42221866                4.83867861              -24.45278359               -5.93803881               26.86291635               -7.83953216
              22.20248481                4.07317771               68.11892916                0.57542975                4.77574336                3.78636096              -22.15756585                0.01313704               14.82702147               -5.72309998
              12.51285097               10.33409234               70.48137472                0.91552035               -0.04687383               -0.12559403                0.46559668               -0.03287314               -0.00940198                0.61253016
              13.51238223                9.88314703               70.04199922                0.31676712                0.04340184                0.02235366               -0.14431560                0.09450982                0.16723918               -0.34354499
              14.51371901                9.43373944               69.60596968                0.00010000                0.12404770                0.14514107               -0.66410468               -0.88195229                7.31674323               -1.39957411
              15.51486319                8.96215303               69.30990213                0.00010000                0.42833849                0.24652061               -1.56069750               -2.59052861               14.78101969               -1.79032044
              16.52228578                8.46215293               69.03074900                0.00010000                1.19687935               -0.12680025               -2.80962295               -4.84532051               16.11432454               -0.97390696
              17.53880077                7.93291867               68.77298249                0.00010000                1.93701345               -0.41481313               -4.36707795               -7.16469333               17.49964659                0.30545560
              18.56102605                7.37600573               68.54111029                0.00010000                2.19710565                0.05126667               -6.15520126               -9.07297156               19.10654382                1.35209558
              19.58274289                6.79828426               68.34338037                0.00010000                1.90906544                1.27427087               -8.32692367               -9.79722755               21.78703407                1.76340619
              20.59920736                6.21104226               68.20077860                0.00010000                3.16577023                2.44267983              -11.50452724               -9.04631959               26.76861700                1.40265085
              21.64605829                5.63137578               68.13711556                0.00010000                6.70656765                1.58932777              -22.01532551               -5.49424158               19.52293547               -0.19250170
              22.73333871                5.10675979               67.84336589                0.57212811                8.72804171                1.96614711              -20.42727746               -2.05448619               13.01109042               -0.33666111
              12.96267378               11.33287368               70.35196440                0.92222668                0.00467299               -0.11119776                0.33307847               -0.04496126               -0.01068358                0.65441129
              13.96272051               10.88373907               69.90784938                0.33663133                0.09384281                0.09521476               -0.33545305                0.06389395                0.19598087               -0.31891218
              14.96455063               10.43573451               69.46775491                0.00010000                0.58615735                0.26282250               -0.87941965               -0.97579977                7.49214410               -1.15610126
              15.97444365                9.96493829               69.16966519                0.00010000                1.21127261                0.18739929               -1.10238038               -2.66497464               15.41318228               -2.72273715
              16.98877608                9.46273547               68.89502053                0.00010000                1.89471712               -0.04773180               -2.53957126               -4.75932092               17.10200970               -2.25608813
              18.01233800                8.93205363               68.64264710                0.00010000                2.67290035               -0.06594556               -4.38541762               -6.40804905               18.00023737               -1.08426568
              19.04223409                8.37905687               68.41033576                0.00010000                3.03121023                0.34942969               -6.21928199               -7.39278247               18.50894118                0.04687999
              20.07296220                7.80982071               68.20297050                0.00010000                2.88942137                1.05396009               -8.12213214               -7.64098611               19.59080466                0.86600081
              21.10002252                7.23208404               68.03435732                0.00010000                3.80814078                1.73893959              -10.67883343               -7.74238274               25.23622459                1.16037167
              22.14912502                6.63509406               67.98543960                0.00010000                5.53022750                0.49081163              -18.96710123               -4.16525831               18.73007059                7.54549498
              23.21062707                6.11250066               67.68339274                0.58977383                6.15020535                0.33089439              -17.27893998               -3.80528766               11.30463787                5.84249998
              13.41022096               12.33186839               70.22292543                0.92773301                0.05783206               -0.08014213                0.20194477               -0.06096393               -0.00076059                0.67917833
              14.41079928               11.88505132               69.77390247                0.37059075                0.13914141                0.17266879               -0.56021307                0.03072298                0.36025339               -0.31713988
              15.41300379               11.43899589               69.33205884                0.00010000                1.18817225                0.39668591               -1.17794114               -1.29126976                7.50552915               -0.77855100
              16.43456273               10.96590102               69.02590300                0.00010000                2.34901162               -0.30603431               -0.18793578               -2.73919188               15.46079531               -2.57387962
              17.45998402               10.46119829               68.75036146                0.00010000                2.98778311               -0.53026778               -1.90798658               -4.00564431               17.85297607               -2.50158593
              18.49431839                9.93159976               68.49951746                0.00010000                3.77096452               -0.20734164               -4.31281509               -4.94579106               18.20067980               -1.46776859
              19.53540332                9.38299432               68.26505317                0.00010000                4.12888028                0.32386654               -6.25471865               -5.45383714               17.82953149               -0.32805310
              20.57689600                8.81936346               68.04934588                0.00010000                4.18415196                0.92893488               -8.04096476               -5.61510430               17.89919742                0.84592340
              21.61908635                8.24582105               67.86459669                0.00010000                5.27202561                1.17886226              -10.21627766               -6.50277517               24.93348014                2.18803108
              22.68233651                7.64119201               67.84889358                0.02876105                4.16667002                0.61680765              -15.87661627               -3.07687543               17.65973976                7.14469889
              23.70241975                7.11337768               67.51490166                0.62560561                2.00832450                0.14108630              -13.80281675               -2.05670128                7.37797776                4.90958674
              13.85508863               13.33127084               70.09369829                0.84820755                0.11188337               -0.03896603                0.07348445               -0.06584279                0.07057317                0.61411427
              14.85620746               12.88719245               69.63998913                0.33068867                0.13934588                0.26363252               -0.83855748                0.01489831                0.83609049               -0.31399707
              15.85787554               12.44366823               69.20154322                0.00010000                2.06249788                0.52848386               -1.42973547               -2.09060741                7.79410710               -0.37707822
              16.89745742               11.95881761               68.88699850                0.00010000                4.25444553               -1.45526517                0.30130245               -2.34393050               15.20641693               -1.48814076
              17.94296445               11.45213012               68.60613050                0.00010000                4.70843630               -1.30027695               -1.52821464               -2.31748009               17.72098276               -1.61437802
              18.99162614               10.92790679               68.35246107                0.00010000                5.12145973               -0.64138600               -4.18537584               -2.63012885               17.64077530               -1.04808250
              20.04539365               10.38553420               68.11218510                0.00010000                5.31036193                0.06065525               -6.21216245               -2.91247446               16.50642557               -0.26665346
              21.09783338                9.82839941               67.88659887                0.00010000                5.13724065                0.76965365               -7.91727020               -3.26860720               16.08950810                0.68934746
              22.14813846                9.25566129               67.69129579                0.00010000                6.10987514                1.31186913               -9.87444633               -4.92369920               23.05915993                2.36774837
              23.22003088                8.64743021               67.66200784                0.07050379                3.84916287                0.59242426              -13.15020492               -3.41481750               15.24735524                4.93680498
              24.22512172                8.11532238               67.30603482                0.66608469                0.50908344                0.17130510              -10.39191396               -0.42488726                3.95661963                4.11422931
              14.29706089               14.33108907               69.96307593                0.91164018                0.16389737               -0.01817743               -0.05153361                0.12071710                0.33177124                0.55330511
              15.29869986               13.89032397               69.50630726                0.66509329                0.12527982                0.31315234               -1.11378076                0.17306561                1.51143769               -0.32448128
              16.29956649               13.44956557               69.07312297                0.44511722                4.02611832                0.58973421               -1.57540293               -3.50731872                8.29777113               -0.17651780
              17.37922223               12.93679571               68.75388790                0.36498061                7.24893744               -2.20218946               -0.32787590               -2.54215961               14.58407932                0.16902234
              18.44454523               12.43519275               68.46933997                0.36082025                6.45447492               -1.69373660               -1.45236224               -0.74310550               16.78359228               -0.63558581
              19.50831173               11.91877204               68.20689768                0.36369514                6.60579894               -0.91347548               -4.00854734               -0.88070770               15.70523843               -0.30081535
              20.57666121               11.38420743               67.95424940                0.37377828                6.65425222               -0.13267774               -5.83887287               -1.07401880               13.55730975                0.09922370
              21.64139677               10.83475653               67.71040896                0.39114271                6.24601776                0.63571263               -7.35640591               -1.25111041               12.00124576                0.84226527
              22.70158157               10.27205844               67.49078267                0.41688365                5.64911456                1.63971511               -9.23793914               -3.74149093               18.73261005                2.04352514
              23.75437906                9.65304050               67.44365204                0.54510582                2.82780471                0.56102911              -12.63969693               -4.32791495               13.73047280                6.40262481
              24.75813766                9.11680378               67.08413470                0.84135589                0.37585994                0.14813970              -10.09510154               -0.32207763                2.53141750                6.41216890
              10.20148727                4.48465173               72.26729025                1.00000000               -0.30369919               -0.35600686                1.24247427               -0.09546612               -0.39631373                0.51209644
              11.19845028                4.02148222               71.84761039                1.00000000               -0.23751325               -0.20503550                0.76033876               -0.06907113               -0.47700473                0.06022667
              12.19673701                3.55787677               71.42566242                1.00000000               -0.10400271               -0.05837774                0.28319730               -0.06987689               -0.49009079               -0.06477350
              13.19637023                3.09350392               71.00562457                0.61434816               -0.00830652                0.09491156               -0.20213821               -0.13628449               -0.43883015               -0.39930626
              14.19657088                2.62728427               70.58514335                0.46530029                0.08123623                0.27210494               -0.70549585               -0.18223389               -0.34949061               -0.29889681
              15.19799495                2.15915759               70.16766848                0.20524896               -0.59979198                0.41802512               -1.24675829               -1.09349787                0.52219132               -0.57231533
              16.18457504                1.67186642               69.76587569                0.00010000               -9.20632295                1.44902579               -1.61820709              -17.19452559               12.75838220               -1.95938663
              17.01386849                0.85127728               69.60028594                0.00010000               -8.46865531                2.64821721               -2.68679775              -16.71548809               23.96292186                2.67885694
              18.01520193                0.04739573               69.37229582                0.00010000                7.10865091               -0.93734640               -2.86852340              -13.84240631               19.33209845                3.12864430
              19.15604151               -0.74272156               69.10058450                1.00000000                7.32064396                0.63336062               -1.71721403              -12.92750124                7.90168039               -0.27717808
              20.16161481               -1.28207971               68.66888619                1.00000000                0.55733006                0.77206083               -2.12108980                0.23000894                0.04049354               -0.42266094
              10.66370213                5.48109166               72.13630947                1.00000000               -0.25550710               -0.33373352                1.09833540               -0.01845062                0.03408472                0.72255435
              11.66114705                5.01943187               71.71643205                1.00000000               -0.18373667               -0.18605131                0.61633525                0.00573344                0.11130032                0.08606758
              12.66002739                4.55729299               71.29752111                1.00000000               -0.04217122               -0.03874461                0.13663190                0.00360682                0.14748315               -0.25853822
              13.66030363                4.09445303               70.87836686                0.66281594                0.09471560                0.10487277               -0.34014696               -0.04164876                0.29315818               -0.38235419
              14.66192170                3.63000532               70.46294380                0.58587783                0.22326354                0.26505537               -0.87281532               -0.07316511                0.37584629               -0.27196719
              15.66476890                3.16333784               70.04656570                0.33711727                0.23241173                0.41992740               -1.41017766               -0.52325623                0.56926693               -0.47247167
              16.66656994                2.68635668               69.63677831                0.00010000               -0.29099718                0.97676606               -1.99836991              -16.47834796               13.58389365               -0.99961874
              17.65894896                1.87775945               69.48359629                0.00010000                0.36036746                0.22690126               -4.19259660              -25.19201917               21.93377340                5.59503087
              18.67377729                1.03802226               69.22640735                0.00010000                1.62776310                1.20937205               -4.87734733              -22.03880193               13.29151034                8.26798013
              19.69150422                0.26361205               68.88351020                0.74763117                1.47478841                0.19926884               -3.24664086              -11.72921138                4.66991393               -2.11959197
              20.70327306               -0.27435910               68.45114699                1.00000000                1.17688366                0.28270098               -3.69250113               -0.11878415               -0.17930510               -2.52012168
              11.12443786                6.47797706               72.00865282                1.00000000               -0.20742329               -0.28448974                0.94728822               -0.02187962                0.17981547                0.84696016
              12.12236363                6.01776119               71.58545402                1.00000000               -0.13249406               -0.14735221                0.47060449               -0.00066745                0.37819326                0.00160152
              13.12178798                5.55710187               71.16573451                0.00010000                0.02306467                0.00739245               -0.00873947               -0.02414150                0.86186703               -0.70561806
              14.12282492                5.09560137               70.75229168                0.00010000                0.22173953               -0.52393089               -0.46940732               -0.88787156                1.34627516                1.12233399
              15.12622277                4.63258538               70.34285074                0.00010000                0.41767767               -1.08541735               -1.02034368               -1.51716290                1.29048096                3.24169195
              16.13117847                4.16755614               69.92976774                0.00010000                0.71818503               -2.22653885               -1.56383995               -2.15269465                1.48303577                6.45395357
              17.14058647                3.69140174               69.52630030                0.00010000                1.35920240               -6.23842146               -2.17291052              -19.05613051               17.85125186               12.51614153
              18.15836252                2.85581530               69.44265174                0.00010000                2.39934131               -0.44141560               -5.78598557              -33.00576373               26.87427568               10.89368576
              19.18857330                2.07158317               69.19660799                0.00010000                3.77380651                5.17322484              -12.80864264              -34.72725913                4.25936457               15.20473488
              20.23383865                1.26126382               68.63028462                0.07061944                2.33040689                8.77809669               -4.62790012              -21.75562574               -5.29019856               25.90410063
              21.23518143                0.72357431               68.19304411                0.64707535                0.13427819                7.77668731               -2.89357189                2.31863027               -0.58983325               27.27483426
              11.58369627                7.47540187               71.87945180                1.00000000               -0.16873757               -0.22893952                0.79863314               -0.02650718                0.28838083                0.70097028
              12.58200889                7.01648482               71.45236507                0.45133170               -0.09959431               -0.10855079                0.32614760                0.00688364                0.49363536               -0.37472047
              13.58170438                6.55744084               71.02896585                0.00010000               -0.74731005                0.06880533               -0.13974385               -0.70656820                3.19660362               -1.18144566
              14.56706269                6.08397441               70.65610562                0.00010000               -1.10403512               -0.74705186               -0.70584500               -2.29460419                6.19679797                1.97206523
              15.55962368                5.60829697               70.29247427                0.00010000               -0.20820225               -2.01493376               -1.49531320               -3.57327418                7.73076737                5.68982315
              16.56289865                5.11880706               69.94939418                0.00010000                1.87822402               -4.50947188               -2.53594317               -7.43628574               12.01174639               10.94020296
              17.59718816                4.56158825               69.67007483                0.00010000                2.78768019               -9.01021272               -4.30584485              -17.11444905               17.84427703               17.85739663
              18.61865225                3.86893114               69.44016961                0.00010000               -1.17022864                1.57766126               -7.82628023              -26.14590894               22.88971989               11.57408357
              19.57378359                3.14148676               69.24531246                0.00010000               -0.71258430                8.67889756              -12.85359598              -28.94464826               25.52462357               17.14378191
              20.60440057                2.43917398               69.00744381                0.00010000               12.56205476               20.83405022              -65.97979537              -20.06694679               19.81633313               31.10511040
              21.82502468                1.88117464               68.58799342                0.58243249               22.06241182               22.40109426              -73.70630602               -5.31062821                7.86308117               33.17244806
              12.04174181                8.47339827               71.74838883                0.91710903               -0.12794809               -0.17226470                0.66240467               -0.01867229                0.03075500                0.59879089
              13.04046233                8.01559018               71.31369114                0.29995807               -0.07873957               -0.07760979                0.17557456                0.05867044                0.50060778               -0.55412433
              14.04016702                7.55847798               70.88807454                0.00010000               -0.71928160                0.07990438               -0.29342545               -0.90203097                5.22588279               -1.65362402
              15.02607670                7.08066034               70.54811749                0.00010000               -1.01211920               -0.21082330               -1.01695231               -2.17902072               10.13197049                0.69543425
              16.01992464                6.59228670               70.22144996                0.00010000                0.15423934               -1.30472829               -2.02277112               -3.74528258               12.04613168                3.31353190
              17.02916149                6.07736670               69.92038525                0.00010000                1.41243881               -3.04562508               -3.37280401               -7.41224648               15.08426615                6.15631757
              18.04817341                5.51119748               69.65553418                0.00010000                1.31921709               -3.10405512               -5.36996824              -13.95688572               19.06921760                7.50191878
              19.05554583                4.88736853               69.43300737                0.00010000               -0.43679634                2.15240232               -8.73453980              -18.46830997               25.01792463                8.45946442
              20.03943749                4.24516112               69.27570789                0.00010000                1.86330031                9.08546336              -17.38165049              -13.36484873               33.83812048                9.05778086
              21.09281183                3.67794482               69.18421906                0.00010000               10.27650313               17.02792507              -43.79315926               -5.50855861               26.38192243               12.29199422
              22.24496755                3.17159619               68.86930605                0.51222358               15.21557147               19.77907589              -46.67141280               -6.99270929               17.22853882               16.37294275
              12.49893901                9.47195658               71.61683099                0.91257521               -0.08364169               -0.13279088                0.53341835               -0.02822223                0.00253363                0.60963854
              13.49810260                9.01493263               71.17683166                0.28020323               -0.01727020               -0.04008576                0.02887141                0.07310688                0.28194217               -0.42662361
              14.49859361                8.55903893               70.74218002                0.00010000               -0.42145200                0.06438193               -0.45714872               -0.96608638                6.52364550               -1.77538846
              15.48967356                8.07975795               70.42738582                0.00010000               -0.52909711               -0.00378349               -1.28153761               -2.45526587               12.94926388               -0.58573539
              16.48801167                7.58220241               70.12415000                0.00010000                0.30346916               -0.64621250               -2.39081110               -4.26867040               14.38362274                0.88786923
              17.49574294                7.05789456               69.84167499                0.00010000                1.00184761               -1.19151884               -3.85281887               -7.32490706               16.59239810                2.29078213
              18.50804862                6.49950714               69.58753932                0.00010000                0.97897391               -0.38337853               -5.86750750              -10.83827382               19.58543195                3.28488345
              19.51532242                5.91197919               69.36913159                0.00010000                0.39308506                2.46577493               -9.15978081              -12.23972560               24.32651705                3.66383832
              20.51591032                5.32319603               69.20763530                0.00010000                2.62359525                6.21134003              -15.19767853               -8.55540102               28.70397738                2.64366937
              21.56779432                4.77973248               69.06455038                0.00010000                9.09787205                7.41056922              -32.21498060               -4.17606039               20.84267207               -1.39328244
              22.69786776                4.27675616               68.73927991                0.48763984               13.00734388                7.37017325              -35.50062168               -4.64524183               12.60939207               -0.68190075
              12.95522527               10.47074245               71.48580469                0.92683084               -0.03831486               -0.11270891                0.40886924               -0.03546529               -0.01180660                0.66800572
              13.95484212               10.01478846               71.04055646                0.28952511                0.03973509                0.01754525               -0.13438722                0.05740069                0.19392954               -0.38819109
              14.95601997                9.55976562               70.59926874                0.00010000               -0.05171104                0.12152994               -0.65671514               -1.04098953                7.26561456               -1.54567391
              15.95380790                9.08058467               70.29578036                0.00010000                0.01973232                0.15855378               -1.37116207               -2.61744388               14.51678845               -1.57535198
              16.95641462                8.57936245               70.00479272                0.00010000                0.57753553               -0.07477363               -2.51508722               -4.42899190               15.71363050               -0.91812930
              17.96535861                8.05353632               69.73193790                0.00010000                1.04543485               -0.07775656               -4.03673165               -6.58184225               17.26566662               -0.04024853
              18.97732331                7.50352991               69.48156544                0.00010000                1.08519113                0.70324440               -6.00170141               -8.44977314               19.28594269                0.63707752
              19.98706243                6.93668403               69.26014424                0.00010000                1.16264268                2.33991326               -8.75611592               -8.94372210               22.08110198                0.87426918
              21.00057617                6.36938792               69.07402537                0.00010000                3.43340311                3.87578586              -13.83446386               -6.98590691               23.98229267                0.32235706
              22.05573049                5.82615621               68.88368684                0.00010000                7.87195962                3.70521838              -24.31611051               -3.78040355               16.80211620               -0.26187093
              23.15801536                5.31899966               68.55321956                0.48486162               10.22848652                3.27388826              -28.00033674               -3.09963028                9.02325562                0.84723156
              13.41013769               11.46970240               71.35512661                0.93467642                0.00897553               -0.09007273                0.28344736               -0.04245882               -0.00959700                0.72501174
              14.41022744               11.01528353               70.90450133                0.30253025                0.09199630                0.08275653               -0.31471855                0.03590381                0.22970671               -0.39373456
              15.41197762               10.56146952               70.45860121                0.00010000                0.37501990                0.23505835               -0.90897521               -1.11795941                7.68341966               -1.39545327
              16.41772784               10.08292902               70.15729444                0.00010000                0.72512778                0.22108962               -1.29695602               -2.60109341               15.27598949               -2.05727962
              17.42648017                9.58070694               69.87101335                0.00010000                1.11053956                0.13561746               -2.39079725               -4.11534489               16.41316981               -1.90915075
              18.43993863                9.05633943               69.60186606                0.00010000                1.47126400                0.34749912               -3.99063704               -5.48675388               17.45715704               -1.30091249
              19.45590545                8.51357203               69.35123630                0.00010000                1.53256669                1.05277341               -5.90167930               -6.45790200               18.53001145               -0.68157123
              20.47058997                7.95877745               69.12212574                0.00010000                1.54072747                2.12754639               -8.34627628               -6.64287713               20.25461833               -0.30729104
              21.48672000                7.40071175               68.92335463                0.00010000                3.59922731                2.96275425              -12.43421214               -6.04327204               21.76152236                0.43588816
              22.54257451                6.85383685               68.72720491                0.00010000                8.17341277                3.02998170              -24.02180527               -3.69230028               15.22421577                3.84172824
              23.65018826                6.34223393               68.39735029                0.49045564               10.76137417                2.66935846              -27.19858524               -1.34959783                9.05365424                5.22383108
              13.86321383               12.46894100               71.22478700                0.93928784                0.05792437               -0.05676763                0.15354059               -0.04860313               -0.00178746                0.75935394
              14.86379307               12.01644359               70.76834794                0.32264842                0.14007311                0.15284551               -0.51811734                0.02700619                0.37475976               -0.43438360
              15.86601529               11.56446679               70.31947987                0.00010000                0.93777746                0.38304305               -1.25266719               -1.31569532                8.05168945               -1.07621576
              16.88254862               11.08500646               70.01666165                0.00010000                1.73410123                0.04088148               -1.13887748               -2.55091302               15.61980667               -1.95872461
              17.90069731               10.58207480               69.73008419                0.00010000                2.01049084               -0.10667151               -2.12138934               -3.33593583               16.61888325               -2.02084588
              18.92275844               10.06048630               69.46063993                0.00010000                2.25149704                0.29719674               -3.78467798               -3.99480363               17.25779569               -1.61941051
              19.94572725                9.52458538               69.20696532                0.00010000                2.21533704                1.02584210               -5.69985812               -4.39680621               17.56636002               -1.07031966
              20.96706518                8.97923496               68.97000995                0.00010000                1.94620356                1.95072858               -7.95493697               -4.46172925               18.69951107               -0.43188543
              21.98465132                8.42864301               68.76535491                0.00010000                3.66485660                2.87426357              -11.44949447               -3.94781617               20.16253193                0.85614810
              23.04036231                7.88675584               68.57481988                0.00010000                8.47889650                3.63543414              -24.74010722               -2.30515139               13.45218136                5.68019285
              24.15422925                7.37238683               68.24952690                0.50273186               11.38669463                3.35138455              -26.06115064               -1.24223982                9.17335306                7.83972405
              14.31416044               13.46856704               71.09425269                0.85493595                0.10813430               -0.01769529                0.02105939               -0.04653353                0.05191959                0.70637704
              15.31524178               13.01834044               70.63186627                0.25899917                0.14702027                0.22753596               -0.74371486                0.05409258                0.87690862               -0.46543567
              16.31710084               12.56913038               70.18612514                0.00010000                1.69298912                0.54794034               -1.54059606               -1.78880169                8.62284908               -0.67484056
              17.34910156               12.08374665               69.87795681                0.00010000                3.35903812               -0.83514480               -1.13817617               -2.05203843               15.62314938               -1.21918175
              18.38428161               11.57857351               69.58879480                0.00010000                3.42152088               -0.62104600               -1.87945159               -2.01133149               16.35439072               -1.29934397
              19.41753198               11.06228337               69.31593117                0.00010000                3.24695346               -0.06151848               -3.49706551               -2.03525130               16.50358483               -1.14434519
              20.44922068               10.53408887               69.05632740                0.00010000                2.98828881                0.73807672               -5.33324680               -2.16151246               16.15755844               -0.81787418
              21.47729776                9.99779202               68.81054978                0.00010000                2.55110566                1.72455293               -7.42213106               -2.11537497               16.67034027               -0.30501939
              22.50024279                9.45819702               68.59575660                0.00010000                3.77149531                2.80446439              -10.68437039               -1.68457924               18.50769094                0.92144316
              23.55272766                8.92654553               68.41264611                0.00010000                7.69193498                5.08960149              -23.39419252               -0.92560050               12.29765276                5.12367072
              24.65408149                8.40926162               68.09943118                0.51827667               10.13538242                4.78968218              -23.30150597               -1.44926167                8.81188177                7.30805998
              14.76273636               14.46858709               70.96236168                0.91367383                0.15752176                0.00200494               -0.10777305                0.09831430                0.33492098                0.66073456
              15.76431158               14.02099431               70.49571397                0.62073401                0.10483388                0.26538722               -0.95865020                0.24890482                1.66887514               -0.50179680
              16.76483304               13.57542559               70.05597740                0.39845244                3.38765741                0.62952080               -1.78816677               -2.86131789                9.50210039               -0.57941442
              17.83206473               13.06830356               69.74402293                0.36481966                5.85504652               -1.54430920               -1.11407004               -1.99226900               15.41784848               -0.33444052
              18.88193397               12.56965388               69.45228577                0.36088726                4.72366557               -0.89196224               -1.72535005               -0.68714487               15.67382813               -0.38969488
              19.92653804               12.05925594               69.17414694                0.36355382                4.25271880               -0.30274298               -3.04299508               -0.61474248               15.10936782               -0.41739912
              20.96698835               11.53934692               68.90496983                0.37294560                3.70557468                0.52580421               -4.53127532               -0.49972894               13.79775691               -0.24661840
              22.00064953               11.01372601               68.64449228                0.38922332                2.76089397                1.59339918               -6.11787960               -0.39555352               13.21825023                0.08799091
              23.02220623               10.48473229               68.41034041                0.41323823                3.50680820                2.65352771               -8.67480254                0.93743670               13.89880405                1.01638384
              24.07078570                9.98854787               68.20360282                0.47090803                6.88028150                6.20023375              -20.87133698                0.97821223                8.95627478                4.90950925
              25.15981186                9.46818047               67.88567229                0.76367055                8.90261584                5.89188542              -20.69855021               -1.46370333                5.85125469                7.07588285
              10.61964756                4.62142567               73.27893201                1.00000000               -0.27124979               -0.31194931                1.08780924               -0.07791250               -0.39084905                0.50429251
              11.61693507                4.15396970               72.85490650                1.00000000               -0.21874952               -0.18934841                0.69929163               -0.05366936               -0.47026572                0.05818825
              12.61527257                3.68611163               72.42865014                1.00000000               -0.11222487               -0.06990952                0.31357573               -0.05439026               -0.48436290               -0.06280678
              13.61469057                3.21754659               72.00423516                0.62067655               -0.03792366                0.05325507               -0.07807663               -0.11522965               -0.44188152               -0.38194226
              14.61451410                2.74731433               71.57924508                0.46467973                0.03213000                0.19522210               -0.47993226               -0.15811120               -0.37519789               -0.30132985
              15.61533317                2.27540254               71.15689671                0.18983005               -0.80000301                0.30560394               -0.91590185               -1.17258738                0.57380434               -0.56413910
              16.59851404                1.78252758               70.75205727                0.00010000               -8.04746936                1.47658290               -1.15732406              -14.92660806               12.56222607               -2.11616457
              17.45438378                1.00096327               70.57566777                0.00010000               -6.81229885                1.85857141               -2.41650283              -14.26532354               23.86649220                2.14715424
              18.46226806                0.23249180               70.34494084                0.00010000                6.71697851               -1.20052730               -2.71889110              -11.30891684               20.05121400                2.81219587
              19.58872335               -0.51955207               70.08055694                1.00000000                6.69320575                0.74616065               -2.29694993              -10.54278730                8.46806489               -0.26113082
              20.59613218               -1.05955992               69.64532760                1.00000000                0.74088266                0.83228804               -2.59209501               -0.14156530                0.05768486               -0.38650975
              11.08632441                5.61830618               73.14658505                1.00000000               -0.22690150               -0.29350484                0.95824707               -0.01547774                0.03310272                0.71155492
              12.08405540                5.15207622               72.72236353                1.00000000               -0.16920915               -0.17265872                0.56993349                0.00682791                0.11068411                0.08318960
              13.08294023                4.68541253               72.29912882                1.00000000               -0.05592378               -0.05250889                0.18346837                0.00418674                0.15076337               -0.25616650
              14.08293692                4.21807914               71.87569247                0.69172382                0.05323918                0.06019781               -0.19780535               -0.03699414                0.27576906               -0.35920214
              15.08400501                3.74926655               71.45549837                0.60394622                0.15318731                0.18883836               -0.62332974               -0.06867060                0.33315939               -0.26247476
              16.08600067                3.27845858               71.03428021                0.33563327                0.12312915                0.30993034               -1.05622695               -0.53154531                0.50069440               -0.45434750
              17.08646759                2.79729341               70.61907409                0.00010000                0.03738868                0.92602792               -1.55340184              -14.61574312               12.73171553               -1.06402283
              18.08674844                2.01954898               70.44490422                0.00010000                1.14844839               -0.35667583               -3.49772724              -21.44346474               21.28808023                5.04685752
              19.10943656                1.22048652               70.18631130                0.00010000                2.12864494                0.23473307               -3.66034866              -17.74521473               14.11947297                5.57007118
              20.12932134                0.48790954               69.85709428                1.00000000                1.26439101                0.64532124               -2.06668687               -9.45162015                5.51613350               -0.32469808
              21.13472438               -0.05123704               69.42106640                1.00000000                0.54030438                0.70164431               -2.33866113               -0.19053033               -0.20059470               -0.53960680
              11.55179793                6.61555558               73.01750765                1.00000000               -0.18326619               -0.25273605                0.82417261               -0.01955640                0.17628944                0.83619273
              12.54996527                6.15051653               72.59000793                1.00000000               -0.12222739               -0.13762901                0.43949461               -0.00102177                0.37301834               -0.00136797
              13.54935339                5.68506145               72.16596695                0.00010000                0.00656964               -0.01120816                0.05333150               -0.02794634                0.86732093               -0.69710098
              14.55009667                5.21875054               71.74841919                0.00010000                0.17039294               -0.56834448               -0.30904064               -0.83668363                1.32034936                1.07052415
              15.55276125                4.75109110               71.33402341                0.00010000                0.32893659               -1.12766430               -0.75321282               -1.35462198                1.22560690                3.06619755
              16.55667540                4.28160115               70.91602907                0.00010000                0.61737636               -2.22419803               -1.19268756               -1.81110754                1.38486298                6.02393861
              17.56510877                3.80104814               70.50685231                0.00010000                2.28229893               -6.01976817               -1.72509475              -16.70762726               16.12846582               11.49871205
              18.60232138                2.99382975               70.38569394                0.00010000                3.69472191               -1.24735627               -5.50839076              -28.68898238               23.32653106                9.99947232
              19.63900321                2.23718646               70.08542597                0.00010000                3.45465696                3.32702324               -8.77399645              -25.15317974                7.28699298               13.69757742
              20.67141452                1.49335436               69.63272629                1.00000000                1.58057634                0.35510225                0.04246186              -10.10151701               -0.79476919                0.51189705
              21.67061474                0.95447296               69.19498150                1.00000000               -0.07997772                0.36171227               -0.00878049               -0.15074828               -0.06114554                0.29687434
              12.01601138                7.61325146               72.88690861                1.00000000               -0.14822936               -0.20534770                0.69214525               -0.02577765                0.28507376                0.70244423
              13.01452909                7.14932364               72.45554913                0.43036223               -0.09320488               -0.10071441                0.30992363               -0.00080365                0.49273090               -0.38136640
              14.01414728                6.68518837               72.02794531                0.00010000               -0.71777447                0.04481049               -0.06694798               -0.71555607                3.12559641               -1.18126783
              15.00017360                6.20671225               71.64939158                0.00010000               -1.00426584               -0.81455501               -0.63248507               -2.22863519                6.06445336                1.85607808
              15.99406197                5.72671326               71.27830607                0.00010000               -0.01760655               -2.04723691               -1.36857045               -3.32443098                7.51999659                5.33375839
              16.99982147                5.23397462               70.92506333                0.00010000                2.30122378               -4.42286655               -2.39586603               -6.80578321               11.54227720               10.19171446
              18.04008644                4.67689805               70.62768843                0.00010000                3.85045047               -8.66417551               -4.30800426              -15.48070010               16.57501174               16.40704087
              19.07683048                3.99460186               70.36178444                0.00010000                3.33809593                0.63319168               -7.62635181              -23.64067429               20.56461674               11.00582319
              20.10684836                3.28702699               70.11269074                0.00010000                6.65870085                5.72068799              -14.49799753              -29.30377579                4.71218579               14.53946760
              21.21000449                2.49501158               69.42170333                0.00010000                5.13119236               11.49905817              -29.21630996              -20.68188373               -4.26590755               22.57899456
              22.20947221                1.95599720               68.98308111                0.53375448               -0.05322856               12.63659857              -30.17352535               -5.07151489               -2.71648444               25.94892999
              12.47913803                8.61144862               72.75456347                0.92547396               -0.11257351               -0.15444919                0.57049343               -0.02071023                0.02064474                0.61698081
              13.47801229                8.14850224               72.31543064                0.28261780               -0.07421861               -0.07147164                0.17367639                0.03735831                0.49702755               -0.56663279
              14.47765365                7.68595766               71.88552453                0.00010000               -0.70066133                0.04706779               -0.21623916               -0.95378263                5.09887205               -1.70024588
              15.46399906                7.20245944               71.53845821                0.00010000               -0.93216996               -0.30409737               -0.94211748               -2.21509420                9.88516001                0.55509553
              16.45901026                6.71014636               71.20204845                0.00010000                0.31879408               -1.35135777               -1.92667035               -3.67730856               11.71819912                3.00717146
              17.47037495                6.19314382               70.88740685                0.00010000                1.79286383               -2.96808677               -3.33952204               -7.21299468               14.57306903                5.59446448
              18.49486753                5.62776463               70.60108767                0.00010000                2.45020031               -2.96000502               -5.52990679              -13.67127629               18.21158811                6.80101132
              19.51937895                5.00649359               70.34508585                0.00010000                2.88252183                1.79366649               -9.28354407              -19.13086225               21.06933745                7.74674891
              20.55251797                4.35160022               70.07975005                0.00010000                3.47138375                7.53796814              -17.62257772              -19.86526164               23.82546368                8.05890312
              21.58880663                3.72333552               69.81716063                0.00010000                4.73476192               19.04812439              -31.75167707              -15.72317884               16.40151904               25.01419914
              22.64721321                3.20720493               69.42803797                0.46001878                5.84065793               20.98144905              -37.06339270               -6.82599033                2.85461402               27.98244009
              12.94148995                9.61016247               72.62178018                0.92366412               -0.07227264               -0.11458929                0.45189583               -0.02816325               -0.00125015                0.64264335
              13.94076722                9.14789420               72.17715572                0.26595388               -0.01877591               -0.03943527                0.03969708                0.03758675                0.27568705               -0.44994667
              14.94111443                8.68612972               71.73785265                0.00010000               -0.45421022                0.02235606               -0.39711978               -1.05550794                6.37285184               -1.88273055
              15.93168301                8.20063030               71.41538456                0.00010000               -0.56415021               -0.08610346               -1.18135016               -2.53838504               12.65151193               -0.64340769
              16.92983142                7.69968611               71.10116289                0.00010000                0.31301422               -0.66096863               -2.29853383               -4.23134099               14.00346313                0.72700070
              17.93794330                7.17461288               70.80376646                0.00010000                1.17398619               -1.06105940               -3.84993565               -7.25108619               16.13634636                1.94627897
              18.95331115                6.61769795               70.52799892                0.00010000                1.62171744               -0.13571690               -6.12557164              -11.02333362               18.83886317                2.80511139
              19.97037765                6.03047519               70.27431583                0.00010000                1.96950234                2.81409524               -9.81024628              -13.36927761               21.91394113                3.07096538
              20.99270119                5.43778635               70.03822171                0.00010000                3.47792772                7.50849284              -16.72906673              -12.58542379               22.82051624                3.68376210
              22.03993620                4.87597407               69.77110614                0.00010000                5.62561926               12.00741566              -26.11795072               -7.40301875               15.51913318                1.71152847
              23.10521358                4.37562618               69.40891672                0.45218219                6.52773765               12.92145537              -29.75811722               -3.65853023                6.07711415                2.60789814
              13.40311130               10.60915684               72.48955210                0.93993847               -0.03145257               -0.08854336                0.33446362               -0.03220797               -0.01268461                0.70960150
              14.40279678               10.14771353               72.03931148                0.27519044                0.03480475                0.00893477               -0.10719188                0.01603812                0.18175794               -0.42870169
              15.40380740                9.68640478               71.59283538                0.00010000               -0.15608999                0.07422938               -0.60081112               -1.13323349                7.15665919               -1.71523190
              16.39967498                9.20073737               71.28247889                0.00010000               -0.17032732                0.11405548               -1.32095165               -2.68047538               14.25863956               -1.50279462
              17.40040085                8.69692698               70.98044726                0.00010000                0.38332013               -0.02125648               -2.44998311               -4.30891560               15.30095527               -0.90315006
              18.40734138                8.17192263               70.69224786                0.00010000                0.90688513                0.13602279               -4.03125214               -6.42809032               16.83779980               -0.24555708
              19.41853856                7.62505029               70.42107627                0.00010000                1.22818092                1.11638116               -6.22889558               -8.49418213               18.77839315                0.23443024
              20.43190500                7.06277549               70.16825805                0.00010000                1.83860263                3.16669947               -9.56676339               -9.38608127               20.67945906                0.42211666
              21.45531061                6.50177007               69.92408932                0.00010000                3.55007109                5.58429561              -15.00711518               -8.09095244               20.34037217                0.04111711
              22.50290642                5.96348383               69.65079335                0.00010000                5.97138876                7.24107544              -21.91792944               -4.82292843               13.28372170               -0.44764930
              23.57473838                5.46563404               69.28335915                0.45132853                7.18319614                7.25218770              -25.20852787               -2.47518922                5.86083205               -0.09537357
              13.86373239               11.60839161               72.35763334                0.94796906                0.01076456               -0.06137284                0.21257504               -0.03426941               -0.00720000                0.76734387
              14.86384004               11.14807290               71.90155501                0.28637435                0.08467617                0.06425859               -0.26351601                0.00137678                0.19868094               -0.45162912
              15.86542592               10.68761431               71.44957541                0.00010000                0.18556307                0.17714344               -0.84301395               -1.16225071                7.68638351               -1.65342494
              16.86755130               10.20291141               71.14372607                0.00010000                0.35209699                0.26633891               -1.37236500               -2.58368847               15.15477649               -1.91086048
              17.87246786                9.69926098               70.84720458                0.00010000                0.68534409                0.30364687               -2.42213736               -3.87977582               15.96339510               -1.76404971
              18.88125818                9.17733334               70.56283436                0.00010000                1.00533920                0.66119089               -3.96381473               -5.19918011               16.99999751               -1.42932712
              19.89257464                8.64002557               70.29230218                0.00010000                1.23390303                1.57232682               -6.04186507               -6.23511097               18.23234798               -1.12429477
              20.90593624                8.09380918               70.03604498                0.00010000                1.87995802                2.97631109               -8.99347005               -6.49808409               19.37841415               -0.90124427
              21.93017380                7.54947226               69.78567308                0.00010000                3.68387123                4.43859846              -13.88599276               -5.53985690               18.66319604               -0.48081609
              22.97961367                7.02079558               69.50500349                0.00010000                6.06177906                5.29354168              -20.56532403               -3.22503027               12.07175797                0.29890895
              24.05140938                6.52066994               69.13942103                0.45312471                7.17957146                5.12286147              -23.86555587               -1.92584493                5.09271502                1.48541519
              14.32306333               12.60792938               72.22599624                0.95245149                0.05382781               -0.02839507                0.08517248               -0.03469445               -0.00215743                0.79816915
              15.32360161               12.14899870               71.76354013                0.30255844                0.13302703                0.12224043               -0.43012840                0.00257080                0.28885190               -0.50976134
              16.32572387               11.68994765               71.30700550                0.00010000                0.63764647                0.30297878               -1.15006651               -1.20592399                8.19359807               -1.38319239
              17.33635454               11.20606415               71.00312545                0.00010000                1.13297666                0.20806399               -1.38472584               -2.36241420               15.72414012               -1.85311455
              18.34838341               10.70299992               70.70793367                0.00010000                1.31193220                0.23403443               -2.28349703               -3.06538254               16.20581284               -1.88414925
              19.36259318               10.18514644               70.42382390                0.00010000                1.44885455                0.70897759               -3.73310755               -3.67980169               16.76475943               -1.73431475
              20.37736050                9.65649683               70.15105601                0.00010000                1.49517217                1.55733183               -5.67543270               -4.07465850               17.42831099               -1.54663434
              21.39249663                9.12230171               69.89024714                0.00010000                2.00832836                2.70037568               -8.33345029               -4.00400213               18.11702972               -1.28130059
              22.41752706                8.59054204               69.63560680                0.00010000                3.73557575                3.98161905              -13.06447997               -3.34624472               17.49632078               -0.49251535
              23.46720814                8.06935467               69.35409144                0.00010000                5.94728547                5.01625488              -20.10605363               -1.98775403               11.38706671                0.84736995
              24.53647277                7.56809127               68.99367865                0.45716415                6.92646315                5.23341289              -23.57589147               -1.30734827                4.44552719                2.42807494
              14.78089985               13.60782371               72.09411948                0.86332421                0.09733323                0.00782040               -0.04710005               -0.03103052                0.04692538                0.74504494
              15.78187319               13.15051771               71.62511483                0.23276474                0.16710678                0.17969682               -0.59862418                0.03551053                0.76632576               -0.54636592
              16.78424199               12.69367389               71.17073130                0.00010000                1.26887773                0.41625527               -1.41562196               -1.39346796                8.92895109               -1.04073536
              17.80725074               12.20707269               70.86423498                0.00010000                2.39179609               -0.40447496               -1.39484070               -1.74079615               16.01500146               -1.27527539
              18.83207791               11.70394167               70.56854147                0.00010000                2.34572490               -0.12914987               -2.09146987               -1.80227045               16.12856886               -1.24207196
              19.85416524               11.19151289               70.28251976                0.00010000                2.09241456                0.44230365               -3.37504474               -1.87738094               16.19101388               -1.23080180
              20.87392620               10.67117221               70.00552016                0.00010000                1.88228744                1.27466881               -5.11224078               -1.93928460               16.30094001               -1.17094191
              21.89181099               10.14781669               69.73815625                0.00010000                2.11348739                2.31648177               -7.48455175               -1.70865008               16.57992611               -0.99815615
              22.91619595                9.62910464               69.47760838                0.00010000                3.52491864                3.63382233              -11.87256173               -1.18879848               15.86076178               -0.45408975
              23.96230936                9.12112068               69.19412399                0.00010000                5.57966312                4.99812925              -19.38210880               -0.64009550               10.40287468                0.53372604
              25.02778921                8.62533819               68.84000470                0.46232441                6.54798525                5.88739735              -23.43819525               -0.85069575                4.33374867                2.10087849
              15.23705472               14.60808579               71.96092047                0.91669541                0.14069217                0.02620813               -0.17473776                0.06617187                0.33929489                0.70085932
              16.23846164               14.15259264               71.48713425                0.60429703                0.21224061                0.20749332               -0.75827164                0.16819376                1.52194980               -0.57945401
              17.24129953               13.69827275               71.03735964                0.37866966                2.64045972                0.45988666               -1.73700564               -2.02514521               10.11382083               -1.09161726
              18.29127084               13.19797465               70.73160650                0.36450472                4.32991322               -0.90980377               -1.26915351               -1.49078190               16.14615203               -0.41851629
              19.32789780               12.70041692               70.43483297                0.36096312                3.32720936               -0.35247424               -1.80902158               -0.61711821               15.82905017               -0.48641679
              20.35781502               12.19399252               70.14603778                0.36338626                2.71866047                0.24796276               -2.84718462               -0.55635747               15.39492417               -0.51536152
              21.38227101               11.68199021               69.86362390                0.37209436                2.12880845                1.08179979               -4.19204321               -0.43357822               14.90970960               -0.53423036
              22.40039119               11.16863135               69.58805137                0.38732478                1.90880504                2.08146578               -5.96967916               -0.08056545               14.59359414               -0.50414344
              23.42044711               10.66321849               69.31728661                0.40968879                2.88907454                3.41138463               -9.51609025                0.45941085               13.72727820               -0.17869481
              24.45817268               10.16931725               69.02622530                0.44061032                4.52883611                4.81965743              -15.87737328                0.71736854                8.53261969               -0.73996267
              25.51102383                9.68583922               68.67016370                0.73303316                5.28511461                6.05010230              -19.70104040               -0.02434204                2.97686515                0.95435805
              11.04172132                4.75943150               74.28904644                1.00000000               -0.23944868               -0.26843760                0.93730532               -0.06136808               -0.38835724                0.49914279
              12.03932683                4.28773192               73.86159622                1.00000000               -0.20001139               -0.17376968                0.63897571               -0.03939774               -0.46754909                0.05674181
              13.03772109                3.81566328               73.43193394                1.00000000               -0.11945845               -0.08104272                0.34193568               -0.03981134               -0.48261797               -0.06084498
              14.03693766                3.34295044               73.00406304                0.62771988               -0.06578618                0.01345173                0.04046149               -0.09442911               -0.44474833               -0.36517359
              15.03640537                2.86875110               72.57554470                0.46462896               -0.01394057                0.12263954               -0.26607285               -0.13295373               -0.39551231               -0.30234382
              16.03665885                2.39310780               72.14935044                0.17551399               -0.96784321                0.20107273               -0.60315038               -1.20725899                0.64398636               -0.55949797
              17.01704850                1.89550948               71.74272921                0.00010000               -6.91720458                1.47716926               -0.72421571              -12.51484337               12.16688448               -2.30583543
              17.89831476                1.15574746               71.55195588                0.00010000               -5.28557313                1.29229715               -2.29251126              -11.81467813               23.20277258                1.58244984
              18.91133704                0.42089874               71.31791800                0.00010000                6.33506481               -1.19601727               -2.69779381               -9.57435048               20.00924969                2.11273913
              20.02501606               -0.30101885               71.05464550                1.00000000                6.09450760                0.59675874               -2.56874874               -8.90373833                8.70522096               -0.05478910
              21.03322719               -0.84128750               70.61704429                1.00000000                0.82111364                0.64823605               -2.75157317               -0.21789169                0.00902932               -0.08576931
              11.51280722                5.75674712               74.15547441                1.00000000               -0.19902546               -0.25270704                0.82147052               -0.01320239                0.03138635                0.70389972
              12.51081697                5.28599422               73.72783072                1.00000000               -0.15467519               -0.15918441                0.52348217                0.00717910                0.10900043                0.08122781
              13.50971372                4.81485285               73.30119048                1.00000000               -0.06837514               -0.06599581                0.22696156                0.00463924                0.15372106               -0.25386498
              14.50944946                4.34308496               72.87441075                0.72065600                0.01417168                0.01811526               -0.06258674               -0.03187889                0.26401706               -0.33615633
              15.50999715                3.86997749               72.45047721                0.62180919                0.08788026                0.11752648               -0.38906872               -0.06233876                0.30085282               -0.25371146
              16.51120707                3.39511853               72.02544116                0.33499412                0.02915456                0.20719952               -0.72333037               -0.51541660                0.43545543               -0.44066497
              17.51058024                2.91028117               71.60571027                0.00010000                0.31331416                0.86260771               -1.12873594              -12.50028426               11.98483199               -1.16326220
              18.51747335                2.16867043               71.41364175                0.00010000                1.66982239               -0.84114627               -2.79465988              -17.66689431               20.50491943                3.89892729
              19.54397669                1.40893856               71.15320037                0.00010000                2.47992205               -0.08717304               -2.98432711              -14.38889634               14.94156455                3.71683498
              20.56707179                0.70494874               70.84217646                1.00000000                1.36701187                0.39557810               -1.43605561               -8.01860131                6.36598614               -0.07808259
              21.57131693                0.16519486               70.40437377                1.00000000                0.42451342                0.43922934               -1.57882581               -0.16434229               -0.01955993               -0.15077280
              11.98296308                6.75437736               74.02513627                1.00000000               -0.15983899               -0.21760964                0.70253733               -0.01743952                0.17260746                0.82888695
              12.98136469                6.28454823               73.59424391                1.00000000               -0.11199689               -0.12797186                0.40723102               -0.00120791                0.36809365               -0.00304619
              13.98072314                5.81434336               73.16680114                0.00010000               -0.00946215               -0.02974726                0.11128246               -0.02876691                0.87550417               -0.69089609
              14.98117545                5.34331274               72.74611087                0.00010000                0.12009413               -0.60139992               -0.15769012               -0.73501002                1.30270925                0.97121924
              15.98312502                4.87110163               72.32778649                0.00010000                0.24356954               -1.15151935               -0.50388857               -1.08531215                1.17407189                2.79808691
              16.98604684                4.39725179               71.90591399                0.00010000                0.51829476               -2.19274736               -0.84271930               -1.25926121                1.28805382                5.43582205
              17.99349092                3.91276164               71.49179840                0.00010000                3.01363246               -5.73937339               -1.28964262              -13.84701064               14.30937702               10.16978452
              19.04631949                3.13892453               71.33248392                0.00010000                4.68949436               -1.95073681               -4.76598733              -23.30687175               20.56196444                8.24037581
              20.08728081                2.41915528               71.02112806                0.00010000                3.10341255                1.45067337               -5.11831962              -18.39500463                9.23940089                8.07873825
              21.10838774                1.70689271               70.63113386                1.00000000                1.10836488                0.06853976               -0.25619591               -8.50189671                2.35650129               -0.01074139
              22.10944810                1.16749708               70.19286850                1.00000000                0.10603668                0.09509572               -0.31597212               -0.10843704                0.05767456               -0.09106609
              12.45211669                7.75239493               73.89329471                1.00000000               -0.12898843               -0.17555235                0.58523426               -0.02315058                0.28181528                0.70472783
              13.45082681                7.28343478               73.45856354                0.41685645               -0.08714133               -0.09486446                0.29243763               -0.00299455                0.49024865               -0.38591795
              14.45037386                6.81425791               73.02762689                0.00010000               -0.64179033                0.01111794                0.00092421               -0.69920346                3.01147407               -1.18631611
              15.43799100                6.33105696               72.64345592                0.00010000               -0.80110005               -0.87717371               -0.56108944               -2.06151358                5.81989556                1.66741945
              16.43435186                5.84694710               72.26510286                0.00010000                0.31854168               -2.07641516               -1.27681486               -2.87892109                7.10096659                4.86349630
              17.44436183                5.35126358               71.90147686                0.00010000                2.88077130               -4.33494642               -2.31537035               -5.79582912               10.53242277                9.20787556
              18.49196729                4.79549371               71.58391474                0.00010000                5.02902223               -8.29272040               -4.22711166              -13.01863192               14.44897604               14.67702002
              19.54494228                4.12965569               71.28764257                0.00010000                5.80705640               -0.45762076               -7.10819267              -20.27954836               14.73590400                9.44333844
              20.60810842                3.43795203               70.95535251                0.00010000                5.18748861                3.08264697              -11.61953771              -23.33724935                3.86139121               10.92420464
              21.64869205                2.70631953               70.42311761                0.00010000                1.99155110                6.09666446                0.28560902              -15.33443500               -4.64783641               16.74738055
              22.64793944                2.16709677               69.98452291                0.47816345               -0.07526111                6.89561471                0.26620380               -5.37942331               -0.01146191               17.57828681
              12.92042036                8.75086631               73.75979870                0.93606730               -0.09785386               -0.12870608                0.47596068               -0.01922469                0.01202218                0.62997026
              13.91944182                8.28265094               73.31716466                0.27461785               -0.06517328               -0.06909646                0.17386500                0.02082321                0.48754138               -0.57651299
              14.91911690                7.81456572               72.88374976                0.00010000               -0.60929243               -0.00922231               -0.13889249               -0.97168655                4.90702227               -1.76252815
              15.90725598                7.32576927               72.52927514                0.00010000               -0.68884583               -0.40939227               -0.90557689               -2.17949174                9.46375985                0.42587735
              16.90533998                6.82957332               72.18291655                0.00010000                0.71638377               -1.43017431               -1.91527286               -3.49346235               11.04615629                2.68726615
              17.92158365                6.31055286               71.85359481                0.00010000                2.46930943               -2.96422239               -3.38202680               -6.76970461               13.39506159                5.01497364
              18.95472617                5.74690723               71.54493605                0.00010000                3.83432718               -2.99364656               -5.59710865              -12.92357633               15.70143073                6.13608663
              19.99827019                5.12977211               71.24733649                0.00010000                4.45729048                1.02853006               -9.17504812              -18.38314235               16.13220397                7.03207239
              21.04387198                4.48080821               70.92325633                0.00010000                3.71420504                5.72899853              -13.59027510              -21.67620959               12.95988550                9.63443548
              22.07255429                3.82882600               70.54918552                0.00010000                1.82165881               13.70054046              -20.11137963              -15.83044576                7.25279803               20.02558131
              23.08030515                3.30540938               70.12803819                0.44490871                0.77508595               15.32480848              -22.02654870               -7.54919070                1.56537536               21.95894503
              13.38816294                9.74982081               73.62586890                0.93720397               -0.06190784               -0.08924952                0.36450268               -0.02517263               -0.00322442                0.66178791
              14.38754386                9.28205285               73.17762560                0.26190336               -0.01705692               -0.04179040                0.05618474                0.00024110                0.24960895               -0.46733606
              15.38782180                8.81407346               72.73423763                0.00010000               -0.40751498               -0.04137449               -0.31578223               -1.11574475                6.13566693               -1.99560582
              16.37939356                8.32286911               72.40375882                0.00010000               -0.40613889               -0.17910031               -1.15750618               -2.58085005               12.15794045               -0.68941283
              17.37969903                7.81834362               72.07817932                0.00010000                0.61201358               -0.71577835               -2.32150500               -4.17826032               13.26165952                0.59603412
              18.39163383                7.29197913               71.76467627                0.00010000                1.72887417               -1.04977877               -3.94833037               -7.14104477               14.95626099                1.71208815
              19.41427651                6.73562078               71.46502789                0.00010000                2.58723047               -0.14959855               -6.30458854              -10.97990154               16.66573291                2.54212301
              20.44337844                6.15022629               71.17292666                0.00010000                3.06269158                2.68125497               -9.83094556              -14.18602057               17.53586995                3.31169758
              21.47553034                5.55253200               70.87305397                0.00010000                3.20517635                7.09753391              -15.00555633              -14.44598071               16.10378983                4.80557511
              22.50748197                4.98033034               70.54219136                0.00010000                3.41292636               12.72399341              -20.27466210               -9.46791299               10.02940550                6.66365629
              23.54378887                4.47359294               70.14411757                0.44362906                3.63068962               14.05892493              -23.03937692               -4.18397815                4.36331601                7.61893268
              13.85545282               10.74908132               73.49249397                0.95501996               -0.02588240               -0.06078378                0.25305634               -0.02724844               -0.01228012                0.72915223
              14.85519400               10.28181513               73.03841262                0.27770945                0.02664614               -0.00152775               -0.06955930               -0.03139766                0.13902104               -0.45532965
              15.85598574                9.81373823               72.58725252                0.00010000               -0.19125907                0.00787260               -0.48672807               -1.19577199                6.92276754               -1.84229056
              16.85136882                9.32218726               72.26936133                0.00010000               -0.16604943                0.05980704               -1.31073717               -2.73399226               13.79591660               -1.47342530
              17.85266476                8.81525775               71.95579305                0.00010000                0.50583908               -0.02020459               -2.50340169               -4.28446106               14.58666683               -0.88083321
              18.86148560                8.28955729               71.65131285                0.00010000                1.21081114                0.20988551               -4.15471822               -6.40676717               15.79209646               -0.29533376
              19.87688098                7.74391526               71.35698753                0.00010000                1.80764800                1.27428105               -6.46614819               -8.65473971               17.03015589                0.18369893
              20.89763856                7.18339721               71.06880897                0.00010000                2.39836690                3.42685917               -9.79999082               -9.98737311               17.57597048                0.58012813
              21.92484832                6.62275889               70.77388306                0.00010000                3.22482688                6.35229734              -14.26583208               -9.22981393               15.76084410                0.84998006
              22.96213509                6.08330587               70.44532825                0.00010000                4.26260364                8.80933007              -18.81783073               -5.66956340                9.77372231                0.88040149
              24.01010039                5.58658788               70.04904900                0.44376011                4.79652936                9.40148973              -21.20977504               -2.70086902                4.38262465                1.03862596
              14.32215035               11.74860513               73.35937811                0.96336968                0.01086493               -0.03315390                0.13751159               -0.02677924               -0.00491035                0.78083866
              15.32225900               11.28202230               72.89923101                0.29381381                0.06919395                0.04367074               -0.19790616               -0.05036841                0.12769547               -0.48381956
              16.32353423               10.81423091               72.44174093                0.00010000                0.04675961                0.09544047               -0.66423314               -1.18204316                7.50056908               -1.80484918
              17.32319419               10.32406525               72.12984714                0.00010000                0.15527756                0.26239943               -1.38601871               -2.57784784               14.81874488               -1.84181098
              18.32663978                9.81793953               71.82257060                0.00010000                0.58233976                0.38985881               -2.51439920               -3.82190251               15.34844839               -1.66637829
              19.33484099                9.29617684               71.52258977                0.00010000                1.03510017                0.82786577               -4.10106897               -5.16937175               16.13809211               -1.40399228
              20.34734179                8.76110640               71.23039900                0.00010000                1.49731786                1.82597277               -6.28073768               -6.32120569               16.91841458               -1.16881372
              21.36478735                8.21876348               70.94225634                0.00010000                2.18418111                3.40502283               -9.34391467               -6.71560135               17.03915547               -0.98833055
              22.39102541                7.67957795               70.64563477                0.00010000                3.27371866                5.20492525              -13.42423847               -5.81807019               15.03019581               -0.85079737
              23.43026172                7.15651694               70.31589843                0.00010000                4.60910304                6.56384393              -17.57951420               -3.50292579                9.20100521               -0.63184214
              24.48320747                6.66162274               69.92003917                0.44470113                5.29457496                6.68883921              -20.08812468               -1.79617104                4.24560691               -0.24379873
              14.78808291               12.74841824               73.22649045                0.96763475                0.04779464               -0.00307116                0.01730004               -0.02507493               -0.00190969                0.80272572
              15.78856085               12.28268855               72.75974538                0.31418324                0.11095103                0.08983482               -0.32756381               -0.05368652                0.16568195               -0.54272757
              16.79030193               11.81564704               72.29647854                0.00010000                0.37711961                0.18653132               -0.86333512               -1.11139040                8.07564916               -1.53690374
              17.79610324               11.32743525               71.98896713                0.00010000                0.69065953                0.28474194               -1.41081253               -2.20974383               15.59805178               -1.80774588
              18.80411512               10.82305493               71.68441425                0.00010000                0.94140236                0.44466234               -2.41255710               -2.96961176               15.75266716               -1.78605041
              19.81493129               10.30611460               71.38597778                0.00010000                1.18775569                0.96383065               -3.87212244               -3.65438190               16.14422688               -1.70774323
              20.82787023                9.78043471               71.09345666                0.00010000                1.49618438                1.84978737               -5.87200406               -4.11778641               16.51179918               -1.64593577
              21.84485498                9.25149767               70.80334095                0.00010000                2.14316074                3.06306012               -8.69878383               -4.07783015               16.34269275               -1.57207449
              22.87073345                8.72685740               70.50406531                0.00010000                3.25884061                4.39287282              -12.59430690               -3.32250216               14.28005185               -1.42424009
              23.91003179                8.21458275               70.17269881                0.00010000                4.66159662                5.42846285              -16.74975689               -1.91828079                8.69030521               -1.08342709
              24.96396538                7.72036466               69.77800907                0.44639989                5.39335869                5.65857008              -19.58071837               -1.13243024                4.12932699               -0.61825070
              15.25310825               13.74854371               73.09331069                0.87292774                0.08482280                0.02920276               -0.10768883               -0.02188170                0.04819592                0.74556010
              16.25395648               13.28381900               72.61989379                0.24231358                0.17257350                0.13389218               -0.45200202               -0.04158060                0.60245445               -0.57307783
              17.25655972               12.81796154               72.15781270                0.00010000                0.88174752                0.23447716               -1.06129672               -1.08618113                8.86543384               -1.22536896
              18.27159143               12.32976009               71.85006000                0.00010000                1.60042407               -0.11225314               -1.40579036               -1.48587852               16.11899275               -1.23245646
              19.28856820               11.82683277               71.54696540                0.00010000                1.63910717                0.21438124               -2.23215362               -1.71690267               15.94674291               -1.19678176
              20.30437357               11.31545345               71.24843027                0.00010000                1.55173945                0.78990405               -3.51959397               -1.90081632               15.92775627               -1.21582675
              21.31960299               10.79810214               70.95408259                0.00010000                1.62172441                1.60100617               -5.28931894               -2.00650291               15.92810433               -1.24793068
              22.33680806               10.28002468               70.66085874                0.00010000                2.09436506                2.61776239               -7.81295204               -1.83315093               15.51419910               -1.26180732
              23.36149029                9.76743540               70.35830537                0.00010000                3.07903914                3.74722688              -11.45268784               -1.35470323               13.48690428               -1.23893822
              24.39838884                9.26508620               70.02500393                0.00010000                4.37523729                4.74816278              -15.55110431               -0.70560244                8.21397856               -1.10011000
              25.44899504                8.77479414               69.63066727                0.44889856                5.06061945                5.32924888              -18.80062449               -0.65385713                3.92406182               -0.89672164
              15.71709470               14.74900230               72.95886692                0.92052280                0.12167117                0.04585883               -0.22650342                0.03505458                0.33509746                0.69929286
              16.71831141               14.28536639               72.48054854                0.60406845                0.27712525                0.15473951               -0.57360341                0.00220797                1.26696186               -0.59681445
              17.72263721               13.82033658               72.02123729                0.37396106                1.96015125                0.23750455               -1.33276556               -1.40106112               10.08323179               -1.29323025
              18.75751444               13.32519019               71.71863986                0.36427680                3.07232471               -0.45699023               -1.32255265               -1.05740012               16.64127682               -0.48147977
              19.78408370               12.82734256               71.41610533                0.36096008                2.40655772                0.05097832               -1.99429179               -0.61232520               16.00544811               -0.52737240
              20.80564559               12.32191268               71.11720324                0.36321871                1.95426242                0.64592273               -3.07075276               -0.61718365               15.70669009               -0.57356296
              21.82316895               11.81245484               70.82112896                0.37134454                1.66065535                1.43526915               -4.53192207               -0.54639203               15.41748364               -0.65140576
              22.83885870               11.30385292               70.52509870                0.38545984                1.77044552                2.38282411               -6.61795063               -0.32758080               14.86016508               -0.73068959
              23.85857786               10.80180194               70.22001861                0.40623885                2.48511544                3.43665308               -9.69753357               -0.00658877               12.94672885               -0.91055106
              24.88856101               10.30954600               69.88605536                0.43139089                3.64472480                4.44598035              -13.31698507                0.27460198                7.97395926               -1.06400233
              25.93147236                9.82694964               69.49165148                0.72518649                4.29113473                5.21555007              -16.46668046               -0.01190422                4.15246383               -1.30666027
              11.46678085                4.89855258               75.29767811                1.00000000               -0.20842665               -0.22582447                0.79157305               -0.04583792               -0.38771741                0.49543841
              12.46469658                4.42263554               74.86768601                1.00000000               -0.18137282               -0.15824581                0.57928480               -0.02627158               -0.46740304                0.05569385
              13.46315339                3.94638165               74.43548886                1.00000000               -0.12558728               -0.09136165                0.36738148               -0.02627013               -0.48350818               -0.05874462
              14.46218484                3.46954769               74.00504439                0.63531307               -0.09184712               -0.02395099                0.15186514               -0.07439132               -0.44732102               -0.34831144
              15.46131645                2.99140244               73.57392362                0.46510200               -0.05782278                0.05480991               -0.06494915               -0.10830700               -0.41227136               -0.30296201
              16.46102838                2.51203114               73.14483370                0.16229544               -1.10350813                0.10505975               -0.31000045               -1.20285036                0.72754245               -0.55804018
              17.43924629                2.01044877               72.73757295                0.00010000               -5.88889674                1.45102170               -0.32811715              -10.26779414               11.61320845               -2.52912649
              18.34325045                1.30924054               72.52981754                0.00010000               -3.97414228                0.77589528               -2.06820139               -9.70271915               22.16124836                1.06103746
              19.35976344                0.60418183               72.29098497                0.00010000                6.02255159               -1.25686669               -2.60500462               -8.25054622               19.78555665                1.49320267
              20.46370148               -0.09570978               72.02918196                1.00000000                5.58758687                0.55693023               -2.49985333               -7.82918615                8.87884903               -0.07113277
              21.47151518               -0.63593427               71.59029613                1.00000000                0.78137010                0.58575601               -2.59547812               -0.18010952               -0.00797724               -0.05756656
              11.94223952                5.89629434               75.16301446                1.00000000               -0.17201792               -0.21197829                0.68881189               -0.01142827                0.02922407                0.69777218
              12.94051934                5.42105308               74.73283317                1.00000000               -0.14024499               -0.14563783                0.47705102                0.00696933                0.10656665                0.07980389
              13.93943462                4.94546803               74.30366805                1.00000000               -0.07944035               -0.07872656                0.26632325                0.00491101                0.15638324               -0.25121280
              14.93893053                4.46930818               73.87444074                0.74933181               -0.02214797               -0.02089639                0.06377123               -0.02684144                0.25556382               -0.31283743
              15.93899166                3.99195054               73.44771699                0.63943296                0.02730924                0.05123729               -0.17119851               -0.05516631                0.27486612               -0.24625394
              16.93947671                3.51308174               73.01981361                0.33497226               -0.05140039                0.11253744               -0.41337362               -0.47976884                0.37565851               -0.43074676
              17.93796365                3.02495898               72.59649937                0.00010000                0.49400049                0.78952965               -0.72586034              -10.53010806               11.31743024               -1.29023631
              18.94935672                2.31699949               72.38901102                0.00010000                2.08847451               -1.23020470               -2.18157510              -14.61826302               19.74716620                2.68459147
              19.97973314                1.59161316               72.12662476                0.00010000                2.80554713               -0.37863712               -2.41715788              -12.08810597               15.56961554                2.45739879
              21.00546767                0.90985952               71.82837317                1.00000000                1.51027173                0.39540829               -1.40278334               -6.92936232                7.02962981               -0.08498248
              22.00993857                0.36992329               71.38948988                1.00000000                0.44709070                0.42183804               -1.48551847               -0.15443405                0.00608642               -0.09352528
              12.41703480                6.89431302               75.03155839                1.00000000               -0.13725216               -0.18053777                0.58356365               -0.01549840                0.16872756                0.82231644
              13.41566228                6.41972278               74.59815255                1.00000000               -0.10191441               -0.11842775                0.37423830               -0.00116797                0.36317914               -0.00365922
              14.41499651                5.94480711               74.16819260                0.00010000               -0.02483883               -0.04773034                0.16457503               -0.02716227                0.88489758               -0.68610664
              15.41516550                5.46912976               73.74526539                0.00010000                0.07215277               -0.62059065               -0.01732443               -0.61074623                1.28910556                0.82396913
              16.41643957                4.99242718               73.32394564                0.00010000                0.16295277               -1.15487077               -0.27340542               -0.78895886                1.13178644                2.44311559
              17.41842456                4.51428189               72.89917469                0.00010000                0.41434036               -2.13152142               -0.51736361               -0.70032493                1.20174514                4.70941749
              18.42472638                4.02623936               72.48105946                0.00010000                3.29032243               -5.38290885               -0.86765676              -11.23544218               12.78651415                8.75131311
              19.48423101                3.28463644               72.29037419                0.00010000                5.02074575               -2.41917145               -3.63080054              -18.94381014               18.73812495                6.02856430
              20.52514129                2.59660909               71.98305958                0.00010000                3.12865482                0.58848219               -3.19854391              -15.17850208               10.55841588                5.06504449
              21.54680410                1.91219839               71.62760237                1.00000000                1.15788349                0.10240063               -0.40079527               -7.08484504                4.16206012               -0.02078094
              22.54829896                1.37250249               71.18866206                1.00000000                0.14948570                0.12349752               -0.45766791               -0.14490031                0.01267961               -0.04420324
              12.89111002                7.89268358               74.89861329                1.00000000               -0.11081394               -0.14195946                0.47965409               -0.01931850                0.27811038                0.70425380
              13.89000188                7.41868453               74.46139789                0.41597514               -0.08128150               -0.09064309                0.27392980               -0.00101891                0.48495590               -0.38675004
              14.88948439                6.94451342               74.02796380                0.00010000               -0.54531712               -0.03553804                0.06395644               -0.65505223                2.84996967               -1.19338474
              15.87909554                6.45689637               73.63816979                0.00010000               -0.57120177               -0.92278374               -0.49126907               -1.83591696                5.44454859                1.40427570
              16.87806035                5.96885312               73.25276978                0.00010000                0.62812510               -2.08059803               -1.17218841               -2.36354567                6.46219236                4.25275684
              17.89165804                5.47045131               72.87875593                0.00010000                3.24199489               -4.20190069               -2.14760549               -4.68600930                9.22086308                8.02814542
              18.94290025                4.91730081               72.54314620                0.00010000                5.42263765               -7.84330690               -3.80777150              -10.57035807               11.88986389               12.69617132
              20.00011079                4.26861606               72.21962059                0.00010000                5.28504510               -1.13927496               -5.81586451              -16.72231306               11.71419695                7.54891282
              21.04860115                3.60338281               71.88029999                0.00010000                4.38832838                1.49891916               -6.14335268              -18.59915852                4.39155441                7.71729067
              22.08787736                2.91190754               71.42741551                0.00010000                1.89156002                4.62875020                0.46100208              -12.43564686               -0.66917086                9.41689815
              23.08643235                2.37239324               70.98840518                0.44397326               -0.14450059                5.71433434                0.42010565               -5.32560849               -0.01061425                9.97257811
              13.36464655                8.89147383               74.76408268                0.94922129               -0.08344849               -0.09903071                0.38161939               -0.01628830                0.00502472                0.63341599
              14.36381206                8.41790992               74.31890794                0.28213139               -0.04814607               -0.06925013                0.17452396                0.00056603                0.46997746               -0.58022743
              15.36368363                7.94409635               73.88274668                0.00010000               -0.48522979               -0.08992868               -0.05917426               -0.95128370                4.62612173               -1.81042660
              16.35410747                7.45067409               73.52034667                0.00010000               -0.40349561               -0.50702574               -0.87034611               -2.07382689                8.82267322                0.27271659
              17.35561371                6.95081522               73.16374299                0.00010000                1.10746103               -1.50614142               -1.88308501               -3.21717059               10.04861783                2.31267105
              18.37625669                6.43024388               72.81976631                0.00010000                2.97703746               -2.96573557               -3.29280908               -6.14400462               11.68330252                4.38462644
              19.41515446                5.86937322               72.48914550                0.00010000                4.37230289               -3.04059394               -5.27380162              -11.64588839               12.83757976                5.35403509
              20.46370274                5.26185094               72.16158489                0.00010000                4.73560912                0.33102969               -7.73805610              -16.49137861               11.87897548                6.33557627
              21.50986665                4.62658747               71.80794455                0.00010000                3.26889926                3.99441580               -9.74390053              -18.00832081                8.41340440                7.91512629
              22.52908073                4.00477339               71.41493304                0.00010000                0.54743653               10.05984659              -10.82648035              -12.91074709                4.08036577               14.41526502
              23.52081538                3.48678918               70.98750700                0.44095944               -0.82653541               11.73003904              -11.03768868               -6.68866430                1.41838841               16.02938536
              13.83791207                9.89070297               74.62907024                0.95243255               -0.05213951               -0.06215760                0.27710949               -0.02125268               -0.00341938                0.66446433
              14.83739067                9.41729952               74.17827941                0.27574682               -0.01087616               -0.04541958                0.07456850               -0.04907670                0.20859665               -0.47537185
              15.83769455                8.94271485               73.73153701                0.00010000               -0.32452715               -0.10203446               -0.20497582               -1.14566252                5.77617937               -2.03000531
              16.83090013                8.44675585               73.39223443                0.00010000               -0.17736957               -0.27467712               -1.13767484               -2.55196256               11.40383523               -0.73206446
              17.83414716                7.93873029               73.05473279                0.00010000                0.96599082               -0.79480931               -2.33169731               -4.05251528               12.14364542                0.46928581
              18.85021995                7.41113660               72.72479985                0.00010000                2.21141300               -1.10707075               -3.92445610               -6.82546087               13.20918142                1.50771988
              19.87837542                6.85648893               72.40190715                0.00010000                3.14245109               -0.30100307               -6.07510144              -10.47044268               13.87279084                2.38629668
              20.91306897                6.27523665               72.07769692                0.00010000                3.35684377                2.15987169               -8.83380644              -13.51958373               13.33748528                3.32950435
              21.94551229                5.68327112               71.73811058                0.00010000                2.81958693                5.98006985              -12.01634300              -13.89953116               10.83316796                5.11436382
              22.96946071                5.11310447               71.36561289                0.00010000                2.15575991               10.13057059              -15.00733268               -9.10714507                6.25311685                7.16522969
              23.98862749                4.60699402               70.94812919                0.44148893                1.91667800               11.18478868              -16.34022372               -3.90434440                2.68390505                7.93232623
              14.31102839               10.89023068               74.49461323                0.97158326               -0.02097380               -0.03455380                0.17316182               -0.02209901               -0.01085845                0.72924526
              15.31081865               10.41700153               74.03792029                0.29513283                0.01428292               -0.01178843               -0.02922207               -0.07672797                0.08768178               -0.46623764
              16.31131404                9.94205566               73.58310082                0.00010000               -0.18829378               -0.02117742               -0.31697119               -1.23471797                6.54980113               -1.83620626
              17.30705277                9.44518055               73.25626414                0.00010000               -0.05656906               -0.01432353               -1.29689443               -2.74701188               13.04503670               -1.42772816
              18.31018266                8.93491904               72.93037922                0.00010000                0.74680308               -0.07090398               -2.54625881               -4.22655232               13.50517321               -0.83233163
              19.32198883                8.40810246               72.60915349                0.00010000                1.57314445                0.17259822               -4.18843719               -6.27971003               14.18996127               -0.24547136
              20.34164555                7.86335316               72.29175330                0.00010000                2.22700200                1.18456194               -6.36180303               -8.50765699               14.59760104                0.30553227
              21.36652887                7.30504838               71.97225824                0.00010000                2.61813284                3.21369688               -9.16207904               -9.93748397               14.05237202                0.92112968
              22.39400821                6.74618887               71.63877268                0.00010000                2.83430264                5.95014744              -12.41989343               -9.30201173               11.73264293                1.61191448
              23.42321493                6.20738480               71.27443673                0.00010000                3.04705829                8.38418581              -15.36513772               -5.79676264                6.93940994                2.24103401
              24.45494938                5.71048495               70.85916365                0.44248610                3.17344477                8.99199347              -16.81810347               -2.71935820                3.09614549                2.30111701
              14.78392839               11.89001189               74.36038358                0.98038779                0.01027412               -0.00896835                0.06769582               -0.02046861               -0.00261717                0.77388711
              15.78403113               11.41706375               73.89759689                0.31398180                0.04463918                0.02399207               -0.13067389               -0.08060401                0.07078281               -0.49277809
              16.78482117               10.94229130               73.43629074                0.00010000               -0.04673018                0.05410689               -0.41783234               -1.19466593                7.15054090               -1.77530249
              17.78309652               10.44646938               73.11600569                0.00010000                0.09365127                0.22579143               -1.36734279               -2.58259990               14.15605967               -1.74661974
              18.78669420                9.93731221               72.79691660                0.00010000                0.65475504                0.39825389               -2.58743652               -3.78186916               14.40040570               -1.52519976
              19.79619162                9.41458856               72.48081298                0.00010000                1.22910817                0.85243079               -4.18678158               -5.13427835               14.78067167               -1.24099566
              20.81127636                8.88018017               72.16668742                0.00010000                1.76459789                1.82706871               -6.28363740               -6.32451024               14.92287237               -0.96172561
              21.83148358                8.33951059               71.84916669                0.00010000                2.29296366                3.36047203               -8.95865344               -6.78465660               14.21552080               -0.70159998
              22.85713563                7.80227407               71.51718831                0.00010000                2.88728940                5.15988908              -12.03416240               -5.94801887               11.79832893               -0.47810844
              23.88922937                7.28078818               71.15341321                0.00010000                3.54521953                6.55979083              -14.86614125               -3.57923115                6.97337337               -0.37722974
              24.92804002                6.78683389               70.73765854                0.44296476                3.88106519                6.73066012              -16.43219283               -1.72095852                3.19018071               -0.48523035
              15.25651529               12.89005131               74.22634224                0.98422123                0.04118684                0.01732723               -0.04055362               -0.01853452               -0.00034087                0.78658459
              16.25692716               12.41748137               73.75698885                0.33675971                0.07499027                0.05946163               -0.22881321               -0.07621827                0.09821245               -0.54607123
              17.25801510               11.94313780               73.28973879                0.00010000                0.17263514                0.10582291               -0.51521190               -1.06108511                7.76623248               -1.50492427
              18.26037986               11.44969637               72.97490920                0.00010000                0.42055015                0.31407242               -1.38478856               -2.14361608               15.07869257               -1.69680787
              19.26642610               10.94288411               72.65968253                0.00010000                0.80277252                0.55013702               -2.51407682               -2.92984997               15.00569784               -1.62540858
              20.27643531               10.42515108               72.34638145                0.00010000                1.19036086                1.06911671               -4.00884158               -3.67890113               15.09202320               -1.52691991
              21.29023332                9.89989453               72.03361592                0.00010000                1.61532615                1.91805650               -5.96628435               -4.20549004               14.97652470               -1.45046522
              22.30874184                9.37225782               71.71627147                0.00010000                2.17684612                3.06561002               -8.46682422               -4.20596381               14.09632175               -1.40587075
              23.33377024                8.84938665               71.38372066                0.00010000                2.91643228                4.30492547              -11.37268882               -3.45119914               11.62875858               -1.39403646
              24.36707048                8.33858062               71.01909630                0.00010000                3.73342728                5.24868723              -14.14647419               -1.96454202                6.86484923               -1.44739761
              25.40843879                7.84509816               70.60206428                0.44392738                4.13683034                5.34637300              -15.89630581               -1.00305907                3.19582333               -1.69196875
              15.72869757               13.89035844               74.09196571                0.88440545                0.07226939                0.04539366               -0.15255002               -0.01663800                0.05118946                0.72526254
              16.72942027               13.41825299               73.61607479                0.26181564                0.13434438                0.09327418               -0.32260548               -0.07236640                0.50508517               -0.56975062
              17.73138446               12.94440776               73.14950537                0.00010000                0.55288112                0.12105817               -0.65077787               -0.93222050                8.56642991               -1.20778796
              18.74047789               12.45275083               72.83611917                0.00010000                1.06290162                0.07444720               -1.37680199               -1.36221712               15.77256038               -1.13401549
              19.75264249               11.94831495               72.52389840                0.00010000                1.25626455                0.43527515               -2.37891729               -1.68813278               15.46024091               -1.08742896
              20.76560318               11.43597090               72.21212788                0.00010000                1.37086605                0.99121194               -3.73522005               -1.96418875               15.24869184               -1.08611842
              21.78005982               10.91854130               71.89973378                0.00010000                1.61345039                1.74874029               -5.51058645               -2.13280995               14.91216232               -1.10836747
              22.79787219               10.40082279               71.58189721                0.00010000                2.08645162                2.66399155               -7.79588826               -2.01028513               13.91723835               -1.16052186
              23.82178885                9.88837258               71.24855463                0.00010000                2.81774167                3.60971689              -10.49978990               -1.52030411               11.46351237               -1.23715183
              24.85422702                9.38576193               70.88310190                0.00010000                3.65774592                4.36768677              -13.18401411               -0.78313581                6.77851947               -1.32815447
              25.89494377                8.89376135               70.46399221                0.44542723                4.07167432                4.63197216              -15.09661026               -0.47795370                3.26219334               -1.71889700
              16.20039343               14.89095918               73.95639040                0.92474481                0.10370773                0.06007449               -0.26005141                0.00835305                0.32365953                0.67711832
              17.20143051               14.41934685               73.47566218                0.60921888                0.22397045                0.10938667               -0.41893419               -0.06898651                1.09531377               -0.58610486
              18.20487284               13.94555897               73.01070432                0.37304005                1.38989079                0.11512071               -0.83517664               -1.05923861                9.76054373               -1.23518252
              19.22922833               13.45118532               72.70515545                0.36398672                2.22852682               -0.15655122               -1.36510466               -0.82342382               16.58815041               -0.48922862
              20.24944338               12.95158962               72.39494713                0.36085617                1.88484341                0.32746641               -2.24790876               -0.63041168               15.81905075               -0.51838107
              21.26692520               12.44497531               72.08462272                0.36310705                1.66409217                0.90044182               -3.46191805               -0.70381251               15.44712512               -0.55080821
              22.28272522               11.93486934               71.77298546                0.37064287                1.58898267                1.63280433               -5.04845200               -0.70534252               15.00190911               -0.61998392
              23.29870485               11.42553765               71.45569235                0.38360367                1.78498998                2.47148565               -7.09255713               -0.58115165               14.01476224               -0.73411373
              24.31842502               10.92158099               71.12333594                0.40288414                2.36570724                3.32084064               -9.55378098               -0.31654726               11.71598691               -0.90779549
              25.34601899               10.42593435               70.75988559                0.42733428                3.22279197                4.01724261              -12.06615573               -0.01297229                7.17033294               -1.11504163
              26.38288086                9.93773760               70.34083009                0.72315003                3.68618680                4.39762463              -13.97571421               -0.02596592                3.86616494               -1.72166062
              11.89395118                5.03866758               76.30487790                1.00000000               -0.17831527               -0.18452882                0.65117916               -0.03130138               -0.38797248                0.49227626
              12.89216803                4.55855147               75.87318192                1.00000000               -0.16293147               -0.14277125                0.52021562               -0.01421112               -0.46858423                0.05494100
              13.89069255                4.07813000               75.43928157                1.00000000               -0.13057749               -0.10051466                0.38915659               -0.01387146               -0.48584285               -0.05644459
              14.88955648                3.59719151               75.00710034                0.64383530               -0.11609637               -0.05843006                0.25479475               -0.05571253               -0.44932915               -0.33112023
              15.88837062                3.11510511               74.57424572                0.46668097               -0.09980544               -0.00747198                0.12173440               -0.08511804               -0.42563902               -0.30290723
              16.88756037                2.63198719               74.14315043                0.15051941               -1.20208959                0.01754187               -0.03598380               -1.16380045                0.81663784               -0.55756793
              17.86432883                2.12707412               73.73616687                0.00010000               -4.97163291                1.39158251                0.00534999               -8.33003767               11.01220713               -2.75390622
              18.78812771                1.45858124               73.51059186                0.00010000               -2.83225407                0.32243622               -1.75578275               -7.96318752               20.94625091                0.65384336
              19.80768375                0.77948321               73.26581791                0.00010000                5.75770796               -1.34712813               -2.40070847               -7.13794697               19.45298309                1.03769686
              20.90328187                0.09917609               73.00464843                1.00000000                5.15777786                0.56525881               -2.45296245               -6.86373731                8.93871264               -0.04705812
              21.91083931               -0.44082633               72.56513473                1.00000000                0.75574374                0.57847526               -2.48758961               -0.16364947                0.00266026               -0.01827468
              12.37375428                6.03682229               76.16925065                1.00000000               -0.14595692               -0.17213608                0.56103116               -0.00994689                0.02686211                0.69195447
              13.37229471                5.55712376               75.73737174                1.00000000               -0.12602296               -0.13205688                0.43077252                0.00642976                0.10364756                0.07874144
              14.37123382                5.07712485               75.30651694                1.00000000               -0.08914553               -0.09022573                0.30105046                0.00495785                0.15866562               -0.24786149
              15.37051180                4.59660721               74.87568618                0.77664143               -0.05561067               -0.05642185                0.17996286               -0.02232122                0.24906250               -0.28940245
              16.37012160                4.11503039               74.44705324                0.65641073               -0.02869673               -0.00969782                0.03000338               -0.04818873                0.25338837               -0.23967342
              17.36993786                3.63216261               74.01717369                0.33640997               -0.11950875                0.02553159               -0.12528523               -0.43164484                0.32186588               -0.42285817
              18.36773143                3.14098994               73.59119306                0.00010000                0.61767132                0.70334762               -0.34426724               -8.83320710               10.69587346               -1.42733600
              19.38229129                2.46180560               73.37001025                0.00010000                2.41377141               -1.48474948               -1.67812179              -12.20119283               19.02297242                1.75531804
              20.41600686                1.76601193               73.10485722                0.00010000                3.12539887               -0.63511387               -2.01432755              -10.17198665               15.85464819                1.61548659
              21.44479927                1.10482868               72.81412080                1.00000000                1.65991853                0.41293294               -1.43393075               -5.91544586                7.43985614               -0.05469020
              22.44920523                0.56495843               72.37466340                1.00000000                0.44059618                0.42620203               -1.46786161               -0.14987423                0.00032430               -0.04178405
              12.85314931                7.03522486               76.03680754                1.00000000               -0.11552483               -0.14332857                0.46856130               -0.01368097                0.16478211                0.81495585
              13.85199406                6.55591033               75.60172868                1.00000000               -0.09205266               -0.10896811                0.34091269               -0.00093311                0.35825821               -0.00335467
              14.85130826                6.07632548               75.17009264                0.00010000               -0.03947739               -0.06443585                0.21279088               -0.02398637                0.89398641               -0.68188373
              15.85120451                5.59606307               74.74576438                0.00010000                0.02715967               -0.62730087                0.11081806               -0.49250671                1.27704127                0.63993930
              16.85185145                5.11491115               74.32231838                0.00010000                0.08817038               -1.14127512               -0.06086075               -0.53386391                1.09626977                2.02960878
              17.85296792                4.63249782               73.89556671                0.00010000                0.30851212               -2.04638708               -0.21585220               -0.26526381                1.12960570                3.94024598
              18.85802169                4.14114107               73.47444527                0.00010000                3.30569720               -4.98294226               -0.46488484               -9.12215460               11.61019132                7.37699913
              19.91908187                3.42888625               73.25986791                0.00010000                5.15996253               -2.61911762               -2.66714104              -15.72894977               17.56962078                4.34435211
              20.96122094                2.76678093               72.95715718                0.00010000                3.34722952                0.07004704               -2.30896392              -12.46568892               11.76269654                3.05723153
              21.98602646                2.10743475               72.62311796                1.00000000                1.31806897                0.12490738               -0.45072395               -5.83395240                5.27433007               -0.05669629
              22.98758232                1.56769772               72.18371514                1.00000000                0.15558670                0.13724838               -0.48188173               -0.14657438               -0.00277283               -0.05656976
              13.33210971                8.03395572               75.90288779                1.00000000               -0.09342897               -0.10735841                0.37726289               -0.01508109                0.27379851                0.69952731
              14.33117542                7.55494439               75.46404214                0.42793125               -0.07541790               -0.08727316                0.25452995                0.00318650                0.47634581               -0.38334557
              15.33060135                7.07583613               75.02890602                0.00010000               -0.45497135               -0.07707542                0.12226078               -0.59954291                2.64940118               -1.19598710
              16.32207599                6.58406119               74.63363053                0.00010000               -0.37958865               -0.94520545               -0.40647416               -1.60613194                4.97108610                1.07793428
              17.32300958                6.09220489               74.24165909                0.00010000                0.81633399               -2.05237101               -1.01993305               -1.88925406                5.73105022                3.54057015
              18.33840267                5.59123486               73.85852475                0.00010000                3.29451636               -4.01481784               -1.85313845               -3.69972572                7.88539540                6.74906908
              19.38889990                5.04133110               73.50775931                0.00010000                5.18348784               -7.29570423               -3.15432430               -8.50870619               10.00397149               10.71119331
              20.44207243                4.40942325               73.17132528                0.00010000                4.96223390               -1.52394730               -4.29008650              -13.79747211               10.16375175                5.68690001
              21.48814458                3.76741287               72.83248545                0.00010000                4.25655043                0.72596049               -4.19310782              -15.22627279                6.85822452                4.74645118
              22.52720344                3.10732682               72.43233765                0.00010000                1.88016116                3.57495832                0.45108112              -10.55683854                1.95317568                4.51597709
              23.52574781                2.56770339               71.99292503                0.43446373               -0.14556312                4.92876836                0.42392060               -5.16520867                0.01984774                5.20715707
              13.81087034                9.03307769               75.76743109                0.96506726               -0.06929612               -0.06880837                0.29014598               -0.01295730               -0.00042048                0.62707695
              14.81017738                8.55416487               75.32065514                0.29741192               -0.03348674               -0.07056638                0.17369388               -0.01100558                0.44794474               -0.57663521
              15.81020060                8.07478398               74.88256627                0.00010000               -0.37321277               -0.13584623                0.02096927               -0.91084447                4.25584510               -1.80435974
              16.80271312                7.57715896               74.51186822                0.00010000               -0.16539541               -0.58754212               -0.80548932               -1.93608699                8.01528667                0.08454818
              17.80689270                7.07386373               74.14525485                0.00010000                1.35670392               -1.55558912               -1.76786714               -2.89802813                8.88106858                1.87844817
              18.82984720                6.55220146               73.78773862                0.00010000                3.13832440               -2.92442581               -3.01761344               -5.41981590                9.91694471                3.67388168
              19.86965918                5.99522698               73.43946001                0.00010000                4.36017247               -3.02960964               -4.57484973              -10.19294026               10.38675129                4.47834121
              20.91705065                5.39840731               73.09257537                0.00010000                4.45663657               -0.16401097               -6.16906602              -14.10372791                9.33602900                5.00523305
              21.95879191                4.78130014               72.72837832                0.00010000                2.87742563                2.82891385               -6.96392889              -15.16701240                6.45444281                5.49824801
              22.97459916                4.17893391               72.33265592                0.00010000                0.23665478                7.84022085               -7.05917549              -10.98523962                3.19882003                7.71632613
              23.96352501                3.66627308               71.90728442                0.43576160               -1.10741519                9.64397078               -6.70207226               -5.93175419                1.65323032                8.96856164
              14.28967620               10.03257955               75.63141109                0.97036906               -0.04271828               -0.03624005                0.19377584               -0.01708931               -0.00251470                0.65338867
              15.28924902                9.55353307               75.17911697                0.29450741               -0.01429184               -0.04959833                0.09170448               -0.05888402                0.17289255               -0.47406586
              16.28939037                9.07311921               74.73013811                0.00010000               -0.24872641               -0.12618008               -0.07517219               -1.13927047                5.31435322               -1.97525385
              17.28427449                8.57231035               74.38100532                0.00010000                0.03080737               -0.36487595               -1.08337126               -2.48740391               10.43236431               -0.78690219
              18.29000651                8.06109311               74.03154537                0.00010000                1.21843052               -0.87182131               -2.25071431               -3.82889107               10.81122692                0.31312912
              19.30864310                7.53274635               73.68618715                0.00010000                2.44143711               -1.17833636               -3.69836926               -6.31453292               11.30853912                1.26715609
              20.33883526                6.98073890               73.34352586                0.00010000                3.26408037               -0.49906805               -5.46975448               -9.52671241               11.27527741                2.08455126
              21.37392471                6.40614303               72.99625054                0.00010000                3.27212348                1.59713689               -7.43537820              -12.10658928               10.13203077                2.92682282
              22.40427773                5.82399115               72.63272711                0.00010000                2.43004978                4.73096552               -9.34091174              -12.17405134                7.68503226                4.15709502
              23.42252571                5.26413124               72.24204471                0.00010000                1.40783298                8.06961603              -10.73101726               -7.87375900                4.15129095                5.57682617
              24.43243439                4.76058281               71.81731309                0.43702497                0.99086796                8.84038897              -11.18845954               -3.40262071                1.79347606                5.79242019
              14.76862152               11.03235289               75.49595720                0.99059749               -0.01614832               -0.01128443                0.09887707               -0.01823971               -0.00888262                0.71465824
              15.76846004               10.55317290               75.03782818                0.31653394                0.00081957               -0.02174433                0.00895163               -0.07870222                0.05687263               -0.46362000
              16.76863791               10.07226037               74.58091309                0.00010000               -0.17344458               -0.05161604               -0.13473084               -1.22827895                6.06017038               -1.75501159
              17.76499115                9.56986144               74.24342344                0.00010000                0.06204800               -0.09112711               -1.24434879               -2.72090141               12.03005449               -1.36926264
              18.76987887                9.05642731               73.90486788                0.00010000                0.94597985               -0.14804415               -2.50224562               -4.06963049               12.17223202               -0.78314020
              19.78391074                8.52863474               73.56754411                0.00010000                1.79246893                0.06913092               -4.03539818               -5.95705950               12.35988341               -0.19460446
              20.80572825                7.98524562               73.22975147                0.00010000                2.38779377                0.96351791               -5.89943416               -7.98372126               12.12784823                0.39352975
              21.83166662                7.43035004               72.88556739                0.00010000                2.57972129                2.72876070               -8.05357564               -9.23270026               11.01062004                1.05963457
              22.85732268                6.87591945               72.52548520                0.00010000                2.44328500                5.05383259              -10.27127683               -8.57780348                8.62311819                1.83070634
              23.88053232                6.34032623               72.13802550                0.00010000                2.26233905                7.00907691              -12.08850600               -5.30526707                4.84518112                2.42382037
              24.90256946                5.84308086               71.71268693                0.43817934                2.20371391                7.42173457              -12.81698769               -2.42023580                2.18098177                2.23625840
              15.24767138               12.03235386               75.36073202                0.99939485                0.00961086                0.01074594                0.00701360               -0.01750084               -0.00060645                0.75266383
              16.24776749               11.55309818               74.89661753                0.33708158                0.02324321                0.00581597               -0.06916511               -0.07992320                0.04315986               -0.48424259
              17.24813625               11.07208689               74.43338428                0.00010000               -0.10389804                0.00367774               -0.19001569               -1.17710304                6.66787410               -1.69691535
              18.24568953               10.57048781               74.10250028                0.00010000                0.08521828                0.17620859               -1.31250528               -2.56062274               13.18450773               -1.61734887
              19.24984061               10.05813222               73.77082187                0.00010000                0.74970339                0.35688263               -2.58371438               -3.67404462               13.16857489               -1.35719596
              20.26068360                9.53412897               73.43885413                0.00010000                1.38024556                0.78132795               -4.11795195               -4.95976718               13.13863414               -1.02932009
              21.27744552                9.00000926               73.10472626                0.00010000                1.89566382                1.65667135               -5.97531356               -6.08141314               12.75459872               -0.68458187
              22.29859687                8.46071825               72.76308327                0.00010000                2.26499708                3.01498437               -8.12467111               -6.49657012               11.57643389               -0.32765610
              23.32274547                7.92506780               72.40495153                0.00010000                2.53310417                4.58454500              -10.35855832               -5.66221798                9.15963874               -0.01416462
              24.34925896                7.40431278               72.01857560                0.00010000                2.78874755                5.78099331              -12.21700208               -3.37987318                5.21688535                0.08929470
              25.37852042                6.90901750               71.59139532                0.43936867                2.92614585                5.85553775              -13.07748748               -1.56070655                2.38778503               -0.31634940
              15.72678287               13.03256781               75.22567938                1.00000000                0.03456782                0.03234682               -0.08536066               -0.01573439                0.00152452                0.75873846
              16.72712855               12.55328922               74.75516911                0.36171181                0.04616783                0.03262348               -0.14261961               -0.07414269                0.07148375               -0.53109618
              17.72770623               12.07233393               74.28617430                0.00010000                0.03024046                0.03766793               -0.24247524               -1.00979588                7.30821631               -1.44708813
              18.72773336               11.57338562               73.96127136                0.00010000                0.25252961                0.31728633               -1.33034870               -2.09044467               14.19995185               -1.54594880
              19.73275682               11.06356496               73.63413272                0.00010000                0.75525019                0.58436851               -2.55768980               -2.86003139               13.93687670               -1.42060874
              20.74283836               10.54426129               73.30580095                0.00010000                1.23769453                1.06804259               -4.03537377               -3.61787426               13.70664619               -1.26732260
              21.75751071               10.01837905               72.97413098                0.00010000                1.69191587                1.82780006               -5.81714238               -4.14900893               13.16886350               -1.12139548
              22.77667668                9.49064973               72.63400446                0.00010000                2.14865369                2.83375546               -7.87647713               -4.15167948               11.90226300               -1.00147873
              23.80048378                8.96761035               72.27661153                0.00010000                2.61542373                3.90046421              -10.02955671               -3.39466239                9.42284178               -0.95492387
              24.82898515                8.45594610               71.88976932                0.00010000                3.07310500                4.67105175              -11.86941887               -1.90780250                5.37915807               -1.10044028
              25.86194588                7.96019162               71.46008296                0.44038217                3.29607300                4.63164442              -12.82579445               -0.87855513                2.51710946               -1.65241124
              16.20591387               14.03300080               75.09025969                0.89695269                0.06046497                0.05637313               -0.18112627               -0.01294185                0.05218705                0.69520519
              17.20651852               13.55375065               74.61344168                0.28381280                0.09650345                0.05901437               -0.21595884               -0.06926659                0.45003255               -0.55134714
              18.20784394               13.07284025               74.14479714                0.00010000                0.30655444                0.04505471               -0.34263085               -0.81342643                8.12120237               -1.16831575
              19.21264960               12.57683353               73.82252396                0.00010000                0.69601851                0.19737245               -1.33726439               -1.28596858               15.02375518               -1.01670092
              20.22176431               12.06981959               73.49938706                0.00010000                1.04312093                0.56562546               -2.49209313               -1.65515438               14.58891509               -0.94039271
              21.23351202               11.55548982               73.17372587                0.00010000                1.31563017                1.08227762               -3.88539621               -1.97714610               14.14747804               -0.89350975
              22.24807691               11.03656526               72.84387086                0.00010000                1.64099788                1.75863795               -5.56044476               -2.17348368               13.48440821               -0.86215355
              23.26633198               10.51739335               72.50494098                0.00010000                2.07394694                2.54653153               -7.49732714               -2.06807002               12.16236446               -0.85871793
              24.28955585               10.00307708               72.14830957                0.00010000                2.60948326                3.32365187               -9.54180599               -1.57194835                9.66847454               -0.90545919
              25.31852165                9.49773381               71.76132365                0.00010000                3.14512176                3.88658407              -11.33706617               -0.79691624                5.54633198               -1.06700791
              26.35245828                9.00165039               71.32873507                0.44152596                3.39366366                3.93245271              -12.34174227               -0.36030330                2.67040581               -1.64212413
              16.68502433               15.03369527               74.95366589                0.93066521                0.08794361                0.06944697               -0.27990895               -0.01152938                0.30983582                0.64656466
              17.68590377               14.55446951               74.47216986                0.61540497                0.16652418                0.07188586               -0.29282091               -0.08448702                0.98786801               -0.56375737
              18.68835482               14.07323502               74.00453376                0.37200412                0.95654358                0.03947748               -0.46443326               -0.80573407                9.31471710               -1.17986361
              19.70503464               13.57733306               73.69133777                0.36381856                1.63213145                0.04995320               -1.38156906               -0.67937401               16.00717819               -0.46190182
              20.72099745               13.07487747               73.37114716                0.36102709                1.57575649                0.50578764               -2.47286062               -0.64799683               15.13392582               -0.47121098
              21.73654977               12.56590685               73.04796488                0.36302994                1.55700273                1.04170282               -3.79632764               -0.76250830               14.58772415               -0.47673973
              22.75213750               12.05355181               72.72015992                0.36968249                1.61268439                1.69865463               -5.38651878               -0.81026511               13.88109424               -0.51367292
              23.76880346               11.54158036               72.38324756                0.38191354                1.82834283                2.41870064               -7.23072190               -0.72627313               12.60208708               -0.58689695
              24.78870436               11.03408339               72.02894299                0.39957311                2.28350323                3.10063080               -9.19686976               -0.48027801               10.22752330               -0.71075846
              25.81447352               10.53367778               71.64473224                0.42340227                2.91011552                3.59439673              -10.95966880               -0.16694837                6.12521306               -0.90437797
              26.84690667               10.03884067               71.21213720                0.72116575                3.24331445                3.71902805              -11.97129101               -0.03887267                3.29063354               -1.53452105
              12.32241336                5.17965261               77.31070170                1.00000000               -0.14921311               -0.14488288                0.51651565               -0.01766890               -0.38848285                0.48916222
              13.32092123                4.69535471               76.87809032                1.00000000               -0.14476259               -0.12735643                0.46180349               -0.00305406               -0.47025924                0.05446229
              14.31951811                4.21078200               76.44327199                1.00000000               -0.13435631               -0.10822760                0.40667241               -0.00251643               -0.48886720               -0.05384869
              15.31823410                3.72575362               76.01014028                0.65215189               -0.13822648               -0.08975251                0.34835745               -0.03849977               -0.45092322               -0.31394865
              16.31675358                3.23972925               75.57635831                0.46924529               -0.13970590               -0.06448428                0.29300546               -0.06418457               -0.43517493               -0.30227970
              17.31543999                2.75283327               75.14411403                0.14195062               -1.23522854               -0.06249728                0.21860791               -1.08712741                0.88307653               -0.55834853
              18.29204901                2.24531826               74.73767995                0.00010000               -4.14577779                1.28156092                0.24498363               -6.76807691               10.41772141               -2.89657000
              19.23252443                1.60348062               74.49470189                0.00010000               -1.86412395               -0.06508294               -1.42863391               -6.56029666               19.66108166                0.36191517
              20.25476653                0.94685715               74.24297080                0.00010000                5.53172406               -1.42735279               -2.17659284               -6.15891248               18.90978451                0.70098418
              21.34315891                0.28440433               73.98012272                1.00000000                4.79146317                0.58918647               -2.45712000               -5.98074312                8.85341638               -0.01631069
              22.35059579               -0.25535710               73.54054434                1.00000000                0.74368824                0.58643042               -2.43233903               -0.14973720                0.00513503                0.00492754
              12.80653457                6.17820378               77.17423508                1.00000000               -0.12085779               -0.13388083                0.43863350               -0.00852275                0.02444246                0.68593025
              13.80532599                5.69408115               76.74144862                1.00000000               -0.11205397               -0.11847096                0.38477374                0.00585329                0.10043464                0.07802111
              14.80429349                5.20969973               76.30968906                1.00000000               -0.09752549               -0.10008190                0.33088488                0.00486879                0.16040890               -0.24365152
              15.80337548                4.72485609               75.87803999                0.80158926               -0.08607907               -0.08847140                0.28538074               -0.01844172                0.24378795               -0.26651164
              16.80257191                4.23908441               75.44831706                0.67276795               -0.08006375               -0.06578731                0.21460373               -0.04193735                0.23645521               -0.23379895
              17.80177421                3.75220830               75.01730790                0.34075383               -0.17636737               -0.05487604                0.14188536               -0.37503711                0.27899115               -0.41671506
              18.79904456                3.25813387               74.58961403                0.00010000                0.71889055                0.59474155                0.02117206               -7.43992541               10.07536034               -1.53576938
              19.81615202                2.60282979               74.35544859                0.00010000                2.68354953               -1.66360881               -1.28477511              -10.25815852               18.24399656                1.04433547
              20.85271555                1.93258362               74.08633821                0.00010000                3.41532938               -0.83658347               -1.74114610               -8.50774774               15.89415839                0.98507791
              21.88445861                1.29029619               73.79969455                1.00000000                1.80721507                0.42216401               -1.47317941               -4.97512925                7.65140759               -0.02898535
              22.88885985                0.75050720               73.36013265                1.00000000                0.44012483                0.42332866               -1.45443532               -0.15623200               -0.00002081               -0.02620682
              13.29048817                7.17697499               77.04092962                1.00000000               -0.09458244               -0.10765991                0.35848966               -0.01183401                0.16084454                0.80650802
              14.28954235                6.69298529               76.60497081                1.00000000               -0.08238179               -0.09949990                0.30756051               -0.00050267                0.35324678               -0.00226288
              15.28884054                6.20878037               76.17244842                0.00010000               -0.05308800               -0.07898415                0.25568560               -0.02052893                0.90155874               -0.67755306
              16.28848059                5.72398419               75.74748175                0.00010000               -0.01389532               -0.62524377                0.22666454               -0.39890804                1.26571331                0.43529268
              17.28856263                5.23841350               75.32272843                0.00010000                0.02045970               -1.11781810                0.13487331               -0.35166066                1.06734760                1.59722652
              18.28888978                4.75173575               74.89485764                0.00010000                0.20331853               -1.94737577                0.06388436                0.01455513                1.07490783                3.18719730
              19.29262900                4.25721309               74.47176176                0.00010000                3.20108618               -4.58119720               -0.07947805               -7.51963567               10.59855633                6.17778618
              20.35291151                3.57020845               74.23703137                0.00010000                5.22580872               -2.65915939               -2.01529562              -13.22899718               16.56619016                2.87787296
              21.39714518                2.93012548               73.93688030                0.00010000                3.64106197               -0.27464659               -1.94590067              -10.26615562               12.55506413                1.51411013
              22.42573275                2.29284761               73.61858789                1.00000000                1.49519817                0.11964628               -0.42385590               -4.74866577                6.08314248               -0.06210106
              23.42704914                1.75310947               73.17902442                1.00000000                0.13163936                0.12299526               -0.42123378               -0.13407922               -0.01030431               -0.06960103
              13.77427729                8.17605058               76.90615855                1.00000000               -0.07667251               -0.07414664                0.27956320               -0.01085050                0.26912999                0.69110207
              14.77351057                7.69209115               76.46648849                0.44269706               -0.06966393               -0.08414542                0.23464127                0.00814425                0.46519258               -0.37643205
              15.77288401                7.20812004               76.03040901                0.00010000               -0.38731919               -0.10016505                0.17631360               -0.54965069                2.42536904               -1.19380775
              16.76576418                6.71235122               75.63004031                0.00010000               -0.25484365               -0.94969623               -0.30100338               -1.40739848                4.46097625                0.71054030
              17.76778714                6.21672805               75.23237112                0.00010000                0.87507708               -1.99577998               -0.82038391               -1.51441968                5.01485851                2.78066260
              18.78326573                5.71326078               74.84169316                0.00010000                3.11960043               -3.78383199               -1.48390783               -2.93587419                6.76580804                5.47341018
              19.83017915                5.16650992               74.48005971                0.00010000                4.76969804               -6.70197955               -2.45847651               -6.90952155                8.57492007                8.83140073
              20.87865969                4.54964661               74.13381886                0.00010000                4.72870653               -1.65890472               -3.28685176              -11.54128637                9.25047657                3.98174399
              21.92475328                3.92709069               73.79643783                0.00010000                4.39208074                0.30926509               -3.66115847              -12.76138560                8.18634665                2.38711307
              22.96650130                3.29268912               73.43643713                0.00010000                2.04506348                2.82726214                0.31152296               -9.28526474                3.97214290                0.92632833
              23.96565455                2.75296710               72.99688360                0.42830063               -0.08467511                4.43314388                0.29881935               -5.09350953                0.01515957                1.88754583
              14.25819003                9.17549206               76.76988560                0.98477063               -0.05542584               -0.04029762                0.20299167               -0.01033086               -0.00477988                0.61245847
              15.25763577                8.69130238               76.32238182                0.31518239               -0.03012884               -0.07229913                0.17052479               -0.00520274                0.42333805               -0.56599530
              16.25758746                8.20677706               75.88316606                0.00010000               -0.29555770               -0.16285456                0.09576372               -0.85514361                3.84358222               -1.77395441
              17.25172462                7.70499027               75.50423688                0.00010000               -0.01113889               -0.64443166               -0.70166281               -1.79515936                7.13851519               -0.13567309
              18.25736468                7.19849790               75.12838565                0.00010000                1.43329013               -1.56740974               -1.56972364               -2.57642198                7.72332927                1.39335365
              19.28039042                6.67605911               74.75941404                0.00010000                3.03440342               -2.82932732               -2.61080982               -4.70899444                8.35636709                2.90792634
              20.31805275                6.12317350               74.39764850                0.00010000                4.05572969               -2.93107134               -3.79206325               -8.76951617                8.53122306                3.46626909
              21.36150502                5.53703035               74.03820357                0.00010000                4.04111037               -0.44327606               -4.89848097              -11.95070319                7.64323885                3.63923480
              22.39887495                4.93631078               73.66866597                0.00010000                2.63230098                2.11077310               -5.34149567              -12.94860103                5.37772899                3.18278597
              23.41415104                4.34939285               73.27374953                0.00010000                0.28740123                6.32911442               -5.58349098               -9.65695979                2.63293709                2.97444515
              24.40462298                3.84177235               72.85346555                0.42967208               -0.95280578                8.22364029               -4.95722416               -5.34676588                1.67285985                4.02446261
              14.74245003               10.17524463               76.63294575                0.99068000               -0.03285197               -0.01445752                0.11650717               -0.01400927               -0.00079511                0.63077302
              15.74212151                9.69064517               76.18011350                0.31446876               -0.01783850               -0.05369095                0.10556585               -0.05086203                0.14639303               -0.46322890
              16.74209326                9.20486295               75.73003357                0.00010000               -0.19906763               -0.15339016                0.04696339               -1.09239207                4.79905070               -1.91692934
              17.73814016                8.69946259               75.37056701                0.00010000                0.15483009               -0.43449676               -0.97991283               -2.37543224                9.34397238               -0.85972686
              18.74518986                8.18537985               75.00971850                0.00010000                1.31350433               -0.92590870               -2.07131986               -3.53231978                9.44449842                0.10794969
              19.76441024                7.65667423               74.65083247                0.00010000                2.43138601               -1.22578594               -3.31952212               -5.67894324                9.54901149                0.93523220
              20.79381758                7.10788850               74.29251206                0.00010000                3.10490486               -0.65750698               -4.71370204               -8.38833302                9.14523579                1.61709186
              21.82650834                6.54078109               73.92898936                0.00010000                2.98005903                1.11889899               -6.10059602              -10.45399069                7.85812700                2.20304179
              22.85341876                5.96930615               73.55129235                0.00010000                2.06960996                3.71338970               -7.28168792              -10.31860823                5.63042253                2.86535795
              23.86790054                5.41927141               73.15099255                0.00010000                1.02707402                6.49687338               -7.96959574               -6.65502322                2.90077367                3.52421385
              24.87396024                4.91743991               72.72436000                0.43075768                0.60597027                6.96777756               -8.08267408               -2.95199153                1.36492042                3.15915176
              15.22710877               11.17520291               76.49659077                1.00000000               -0.01085642                0.00491801                0.03360263               -0.01267370               -0.00515548                0.69210156
              16.22700021               10.69022857               76.03809932                0.33873941               -0.00932899               -0.03035975                0.04214799               -0.06865459                0.03956277               -0.45038892
              17.22692219               10.20370926               75.58040620                0.00010000               -0.16505665               -0.08855857                0.01860664               -1.18627959                5.49074813               -1.68741702
              18.22369908                9.69630033               75.23137717                0.00010000                0.12922194               -0.15940526               -1.14248856               -2.62603000               10.84382676               -1.31778172
              19.22950663                9.17997973               74.88033431                0.00010000                1.03019169               -0.22381993               -2.35879659               -3.81174820               10.74394363               -0.77225246
              20.24430291                8.65154339               74.52844553                0.00010000                1.83363002               -0.04644582               -3.72504397               -5.46533451               10.56968713               -0.21807681
              21.26617923                8.11002336               74.17376462                0.00010000                2.33523187                0.71102623               -5.24918223               -7.19067206                9.96310909                0.33358809
              22.29100755                7.55940833               73.81118672                0.00010000                2.39166163                2.18696574               -6.84595583               -8.15830673                8.62808427                0.92642446
              23.31401247                7.01057857               73.43334714                0.00010000                2.09546309                4.07791461               -8.31634155               -7.43303494                6.44840749                1.54099510
              24.33291681                6.47933032               73.03266661                0.00010000                1.76168366                5.57794225               -9.36866400               -4.51139659                3.48312466                1.91873321
              25.34924614                5.98112790               72.60282390                0.43215601                1.63293292                5.78354862               -9.66700546               -2.01043984                1.59358157                1.46393454
              15.71214525               12.17534299               76.36052385                1.00000000                0.00968214                0.02477505               -0.04366578               -0.00762467                0.00158409                0.73114649
              16.71224207               11.69003797               75.89621359                0.36145556                0.00753277               -0.00966351               -0.01745169               -0.06947537                0.03098284               -0.46626102
              17.71229590               11.20309178               75.43249043                0.00010000               -0.14464896               -0.04630403               -0.00994757               -1.13042570                6.08254621               -1.62763765
              18.70934909               10.69627448               75.08975559                0.00010000                0.07079694                0.12266963               -1.21942635               -2.47334606               11.98591265               -1.49035057
              19.71371184               10.18090345               74.74524231                0.00010000                0.78554188                0.29635116               -2.48887854               -3.47008754               11.77353313               -1.20991765
              20.72505993                9.65574532               74.39845394                0.00010000                1.42136783                0.66947498               -3.90099435               -4.62636810               11.43620226               -0.86017614
              21.74213920                9.12210902               74.04718115                0.00010000                1.88635325                1.41493315               -5.47399385               -5.59985369               10.72215158               -0.48419944
              22.76278699                8.58452040               73.68667326                0.00010000                2.13484404                2.54811012               -7.13886011               -5.89727937                9.35339395               -0.09833591
              23.78483608                8.05086444               73.31001715                0.00010000                2.21681473                3.81757772               -8.71144050               -5.06202003                7.11178144                0.22048796
              24.80712328                7.53083025               72.90907317                0.00010000                2.26601055                4.72467220               -9.88810538               -2.97440751                3.92685417                0.25140017
              25.83015629                7.03311088               72.47610879                0.43334914                2.30330035                4.67911411              -10.30017515               -1.32655831                1.81314081               -0.33198032
              16.19756632               13.17569841               76.22463503                1.00000000                0.02955925                0.04665182               -0.12227386               -0.00470708                0.00259732                0.73482318
              17.19786191               12.69003530               75.75413646                0.38791269                0.02554263                0.00936640               -0.07281448               -0.06369139                0.06087657               -0.50964781
              18.19807717               12.20278318               75.28488929                0.00010000               -0.07207129               -0.02048955               -0.04009694               -0.94256181                6.72387520               -1.39391988
              19.19642049               11.69875372               74.94830222                0.00010000                0.12784369                0.30379624               -1.25246976               -1.99312182               13.03861952               -1.39690248
              20.20063405               11.18590675               74.60852873                0.00010000                0.70747470                0.57946026               -2.52297212               -2.71568967               12.63342218               -1.22369963
              21.21056998               10.66493289               74.26567398                0.00010000                1.23865159                1.00957272               -3.92962749               -3.42878567               12.15759348               -1.02110641
              22.22540708               10.13832202               73.91727308                0.00010000                1.68682801                1.65801278               -5.48968137               -3.90843398               11.34799750               -0.81252650
              23.24430654                9.61037054               73.55874192                0.00010000                2.05275681                2.49424703               -7.14210812               -3.87490573                9.92101644               -0.62490861
              24.26646221                9.08693013               73.18312952                0.00010000                2.34378395                3.35337493               -8.71513760               -3.13035911                7.59872428               -0.53364614
              25.29118222                8.57382376               72.78170792                0.00010000                2.58457488                3.93142988               -9.91489874               -1.73075362                4.22828974               -0.69722741
              26.31815371                8.07471018               72.34554839                0.43476143                2.69714921                3.78768735              -10.37545431               -0.74272044                1.97974472               -1.35564330
              16.68337734               14.17627603               76.08834318                0.91141644                0.05061333                0.06898294               -0.20155917               -0.00427738                0.04801664                0.66432425
              17.68388347               13.69022530               75.61175561                0.30758016                0.06744494                0.02900306               -0.13059575               -0.05679695                0.41333957               -0.52748596
              18.68472624               13.20268199               75.14265275                0.00010000                0.12398043               -0.01473587               -0.11494199               -0.69763981                7.53367531               -1.13088563
              19.68636308               12.70235041               74.80937388                0.00010000                0.42463234                0.27829638               -1.28336932               -1.19256654               13.93273748               -0.90832126
              20.69321888               12.19249266               74.47405654                0.00010000                0.88529328                0.63692208               -2.53187223               -1.57764472               13.39676341               -0.79453097
              21.70406894               11.67593677               74.13441996                0.00010000                1.26569940                1.10148036               -3.90908552               -1.90632231               12.76398986               -0.70313910
              22.71853287               11.15526928               73.78852489                0.00010000                1.63059122                1.68478636               -5.43035362               -2.09370377               11.87734931               -0.61594746
              23.73668077               10.63440534               73.43195067                0.00010000                2.01213986                2.34080112               -7.04103745               -1.98401751               10.41543595               -0.55058653
              24.75877567               10.11793194               73.05771851                0.00010000                2.40236967                2.95844249               -8.58427380               -1.49589527                8.04333340               -0.55202629
              25.78472816                9.60945885               72.65636058                0.00010000                2.73766894                3.36029222               -9.77820406               -0.74602421                4.50651838               -0.71468199
              26.81352905                9.10886463               72.21715737                0.43576187                2.88008842                3.27663721              -10.24034522               -0.27292609                2.15710005               -1.30461285
              17.16958223               15.17707807               75.95079223                0.93645833                0.07377820                0.08020428               -0.29133864               -0.02578226                0.29939844                0.60951571
              18.17032001               14.69061536               75.46980577                0.62364191                0.12085215                0.03900566               -0.18798423               -0.08582635                0.91567360               -0.53523473
              19.17199927               14.20248846               75.00141566                0.37104404                0.62192399               -0.01935277               -0.19688620               -0.58748169                8.69914640               -1.13359543
              20.18275849               13.70431965               74.67752407                0.36364203                1.17477573                0.19692466               -1.36532780               -0.55262228               14.96792974               -0.42478127
              21.19549479               13.19864520               74.34548992                0.36092049                1.34542126                0.61525378               -2.60064650               -0.64026749               14.01492279               -0.41030328
              22.20966691               12.68696250               74.00869617                0.36273937                1.47848244                1.10257240               -3.96386690               -0.77157523               13.29747953               -0.38907884
              23.22506443               12.17201775               73.66525508                0.36901700                1.61483058                1.67484719               -5.47002624               -0.83564053               12.38194484               -0.38929416
              24.24196353               11.65718656               73.31107791                0.38020590                1.82131829                2.27812169               -7.07013650               -0.76766270               10.95720723               -0.41488307
              25.26149080               11.14609898               72.93939855                0.39662120                2.16827601                2.81670378               -8.61622735               -0.53633425                8.66474056               -0.49045741
              26.28532905               10.64102961               72.54069222                0.41875155                2.61964147                3.15707576               -9.83890675               -0.23271428                5.08371386               -0.65665138
              27.31388363               10.14024292               72.10140427                0.71830513                2.85545828                3.13782937              -10.30859964               -0.04321003                2.68787270               -1.20749030
              12.75140428                5.32138405               78.31520821                1.00000000               -0.12117240               -0.10710780                0.38779251               -0.00481696               -0.38899800                0.48594158
              13.75019255                4.83292411               77.88241799                1.00000000               -0.12695135               -0.11204180                0.40409516                0.00742853               -0.47216029                0.05428999
              14.74886525                4.34421888               77.44741501                1.00000000               -0.13704290               -0.11434902                0.41954496                0.00798727               -0.49235128               -0.05089429
              15.74745169                3.85511311               77.01406749                0.66067948               -0.15859342               -0.11775999                0.43193980               -0.02305736               -0.45232843               -0.29741247
              16.74569338                3.36514201               76.58010583                0.47345786               -0.17757180               -0.11577191                0.44781732               -0.04508998               -0.44077172               -0.30125695
              17.74390026                2.87443247               76.14752259                0.13763476               -1.17989904               -0.13477782                0.45190539               -0.96132578                0.88815300               -0.55958895
              18.72209540                2.36527457               75.74106654                0.00010000               -3.39208799                1.09181738                0.39056805               -5.60506118                9.80052862               -2.88008594
              19.67605850                1.74432614               75.48201918                0.00010000               -1.08183936               -0.39633172               -1.11980543               -5.48647040               18.33813311                0.13717900
              20.70045861                1.10676808               75.22228605                0.00010000                5.33590785               -1.49640917               -1.96984222               -5.31245207               18.13860783                0.41920360
              21.78277666                0.45970620               74.95550603                1.00000000                4.48200716                0.60775875               -2.45653221               -5.20799117                8.62548582               -0.04311765
              22.79009876               -0.07990439               74.51648795                1.00000000                0.73221005                0.58585942               -2.36137314               -0.13807264                0.00036555               -0.03906269
              13.23981605                6.32031297               78.17802332                1.00000000               -0.09666234               -0.09762509                0.32185289               -0.00695039                0.02200719                0.67963743
              14.23884942                5.83180369               77.74506722                1.00000000               -0.09827109               -0.10494509                0.33915437                0.00550316                0.09697886                0.07769539
              15.23785062                5.34307539               77.31313464                1.00000000               -0.10449339               -0.10822059                0.35576746                0.00475274                0.16145827               -0.23857204
              16.23675956                4.85393551               76.88139379                0.82382813               -0.11339114               -0.11722495                0.38009332               -0.01520100                0.23951238               -0.24488529
              17.23558280                4.36398429               76.45134531                0.68810380               -0.12694166               -0.11701910                0.38334451               -0.03608464                0.22461281               -0.22849104
              18.23422072                3.87308469               76.02001140                0.34902576               -0.22424260               -0.12879783                0.38927353               -0.31295317                0.25340171               -0.41170924
              19.23109795                3.37619274               75.59161650                0.00010000                0.81131588                0.44882669                0.37039576               -6.34990862                9.42026182               -1.57089796
              20.25044704                2.74036283               75.34431474                0.00010000                2.92730559               -1.81263512               -0.97443287               -8.75800603               17.33522108                0.48006938
              21.28964406                2.09180399               75.07003429                0.00010000                3.67929687               -0.99022846               -1.54735280               -7.21359704               15.67806851                0.37368312
              22.32403298                1.46578379               74.78465721                1.00000000                1.93422789                0.48719709               -1.51058389               -4.15406274                7.68939769               -0.00114471
              23.32832862                0.92595421               74.34557469                1.00000000                0.42956424                0.47295661               -1.42696285               -0.16273724               -0.00042752               -0.03390656
              13.72828383                7.31943155               78.04397734                1.00000000               -0.07436296               -0.07455984                0.25376390               -0.00981447                0.15690378                0.79742944
              14.72754020                6.83082521               77.60787989                1.00000000               -0.07276684               -0.08994772                0.27436253                0.00011520                0.34802648               -0.00035155
              15.72682849                6.34205447               77.17520635                0.00010000               -0.06507131               -0.09165282                0.29338319               -0.01751599                0.90698764               -0.67253774
              16.72623877                5.85276861               76.75029767                0.00010000               -0.05029916               -0.62093233                0.33112924               -0.33394901                1.25541129                0.22621960
              17.72582251                5.36280163               76.32501584                0.00010000               -0.04030137               -1.09116889                0.31586042               -0.24204997                1.04599967                1.17155122
              18.72543274                4.87185651               75.89684440                0.00010000                0.09982909               -1.84690091                0.32508257                0.16294929                1.04288927                2.49028337
              19.72781909                4.37425110               75.47285570                0.00010000                2.99271944               -4.20601861                0.29158437               -6.33042065                9.65241379                5.08908457
              20.78528713                3.70807344               75.21956200                0.00010000                5.14733083               -2.62384458               -1.51226111              -11.35153952               15.44276814                1.69719604
              21.83076571                3.08696351               74.91823917                0.00010000                4.01290237               -0.42172649               -1.84474432               -8.95070577               13.01569261               -0.24990340
              22.86554518                2.46945015               74.61464084                0.00010000                1.78687355                0.24539808               -0.52967891               -3.76206051                6.77889039               -0.22551241
              23.86650318                1.92955475               74.17529046                1.00000000                0.09579965                0.25294870               -0.45624361               -0.14806738                0.02154278               -0.30085034
              14.21683244                8.31882178               77.90847905                1.00000000               -0.06036289               -0.04459477                0.18744866               -0.00677979                0.26415701                0.68007189
              15.21622881                7.83000474               77.46873496                0.45835858               -0.06377647               -0.08026317                0.21454483                0.01220181                0.45237158               -0.36678668
              16.21555691                7.34124234               77.03243229                0.00010000               -0.34476967               -0.11870686                0.22595755               -0.50495930                2.19438619               -1.18789136
              17.20933341                6.84151686               76.62761047                0.00010000               -0.19515028               -0.94249035               -0.17979052               -1.25281775                3.95961624                0.32704195
              18.21165390                6.34216092               76.22525141                0.00010000                0.83484101               -1.92091037               -0.59683790               -1.25052886                4.38289543                2.01852268
              19.22603023                5.83614667               75.82884660                0.00010000                2.83093521               -3.53179158               -1.09926324               -2.39047980                5.84969742                4.24998016
              20.26827261                5.29207237               75.45858978                0.00010000                4.23368038               -6.10755400               -1.85870829               -5.72928547                7.53511287                7.08430867
              21.31070384                4.68788593               75.10558825                0.00010000                4.04903177               -1.60259698               -2.54762403               -9.75460453                8.12343167                2.47753510
              22.34925324                4.08336946               74.75926229                0.00010000                4.77483446                0.15689171               -2.91042445              -10.85796775                8.74232685                0.36331738
              23.40620053                3.47069175               74.43856811                0.00010000                2.79524144                2.72086268               -3.14946506               -8.77215670                2.69509730               -0.99297603
              24.40515807                2.93101318               73.99890141                0.42261163               -0.10424612                4.48655940               -0.77841510               -5.41550764               -2.86614439                1.64503262
              14.70578231                9.31853966               77.77149092                1.00000000               -0.04186297               -0.01659665                0.12115081               -0.00735225               -0.00728436                0.59226663
              15.70536368                8.82921995               77.32406564                0.33450845               -0.02825612               -0.07268789                0.16664542                0.00004688                0.39764165               -0.54951704
              16.70521718                8.33968033               76.88448155                0.00010000               -0.25499203               -0.18509268                0.16472551               -0.79700902                3.42686287               -1.73917116
              17.70026384                7.83391880               76.49783496                0.00010000                0.04824690               -0.67706688               -0.56741793               -1.65806577                6.26687465               -0.37543076
              18.70618212                7.32438342               76.11386038                0.00010000                1.37239283               -1.54287373               -1.32259974               -2.28605007                6.66774561                0.87651507
              19.72771169                6.80122068               75.73552243                0.00010000                2.76559968               -2.68635816               -2.16955560               -4.07419284                7.07908130                2.10036402
              20.76149412                6.25210002               75.36361875                0.00010000                3.55931314               -2.75538740               -3.07159312               -7.49443501                7.12661851                2.43216240
              21.79889796                5.67602150               74.99460575                0.00010000                3.46532082               -0.53326107               -3.87749525              -10.01977820                6.43389185                2.24247526
              22.83080053                5.09010135               74.62154841                0.00010000                2.17801837                1.66238387               -4.37107944              -10.32621789                4.09411731                1.76253696
              23.84245832                4.52386740               74.22098610                0.00010000                0.33748167                5.25033420               -4.30814113               -8.47712041                1.94742216               -0.33882633
              24.83755017                4.01928593               73.80813993                0.42380289               -0.49081573                7.16971581               -4.18754449               -5.06615484                1.89022250                0.28417253
              15.19532481               10.31848984               77.63374124                1.00000000               -0.02357390                0.00385841                0.04847753               -0.00793654                0.00194909                0.60451183
              16.19508907                9.82855098               77.18122828                0.33641768               -0.02034670               -0.05774557                0.11634893               -0.04385906                0.12849197               -0.44536127
              17.19491787                9.33754048               76.73107738                0.00010000               -0.18100297               -0.18125810                0.15258277               -1.03088057                4.25719676               -1.85052110
              18.19146901                8.82797552               76.36140706                0.00010000                0.18565755               -0.48007853               -0.83920644               -2.22806504                8.21978358               -0.95757125
              19.19863102                8.31130344               75.99011897                0.00010000                1.26803843               -0.94624887               -1.82957393               -3.20243757                8.15281176               -0.15422298
              20.21682978                7.78241951               75.61979671                0.00010000                2.24760295               -1.22844742               -2.88190079               -5.00881656                8.03799830                0.51037838
              21.24358308                7.23696462               75.24925182                0.00010000                2.77385900               -0.74258682               -3.96980586               -7.22218366                7.49491225                1.00222748
              22.27230696                6.67722071               74.87423861                0.00010000                2.56499512                0.75865626               -4.97318757               -8.72998314                6.22584152                1.35546222
              23.29488299                6.11661714               74.48709335                0.00010000                1.75832884                2.89566073               -5.72527142               -8.37559348                4.34776726                1.55612794
              24.30747353                5.57569844               74.08265279                0.00010000                0.90574589                4.83764415               -6.11258921               -5.19749523                2.18475333                1.97245147
              25.31299790                5.07440750               73.65565961                0.42494733                0.55243691                5.06624107               -6.03895254               -2.30027620                1.07926191                1.03199563
              15.68550130               11.31861682               77.49662925                1.00000000               -0.00654412                0.02213443               -0.02082207               -0.00523977               -0.00186889                0.67071068
              16.68543586               10.82806504               77.03867114                0.36336098               -0.01631343               -0.04075779                0.06963681               -0.06150767                0.03073567               -0.43134329
              17.68517503               10.33605517               76.58128523                0.00010000               -0.17481416               -0.12447151                0.14576315               -1.12102531                4.87666043               -1.61394751
              18.68193958                9.82431723               76.22057367                0.00010000                0.12571782               -0.21098926               -1.00626519               -2.47049166                9.57528438               -1.29714376
              19.68768939                9.30545845               75.85769195                0.00010000                0.99673018               -0.27819977               -2.14698144               -3.48418006                9.33116580               -0.82610396
              20.70187418                8.77665173               75.49304323                0.00010000                1.72799242               -0.13612563               -3.33853027               -4.87855664                8.95146826               -0.35335577
              21.72224924                8.23724829               75.12476782                0.00010000                2.13858006                0.49260955               -4.56698159               -6.26854788                8.18102905                0.10150905
              22.74464578                7.69119463               74.74864828                0.00010000                2.12808510                1.69878073               -5.74489479               -6.93559620                6.85321827                0.54032614
              23.76481094                7.14801456               74.35915836                0.00010000                1.80361377                3.15390205               -6.72370235               -6.14380686                4.95326368                0.94488282
              24.78071806                6.62062028               73.95065222                0.00010000                1.46577900                4.23005185               -7.33105519               -3.65864714                2.61270181                1.00981463
              25.79412652                6.12061076               73.51934683                0.42614198                1.34084625                4.26229523               -7.42235455               -1.61524872                1.25165898                0.37653132
              16.17632359               12.31893253               77.35985871                1.00000000                0.00969809                0.04140568               -0.08662361               -0.00313779                0.00193901                0.71164386
              17.17642057               11.82773583               76.89626850                0.38736098               -0.00392073               -0.02553997                0.02497026               -0.06127606                0.02740211               -0.44412130
              18.17624517               11.33505105               76.43318533                0.00010000               -0.18823335               -0.08809820                0.13377661               -1.05685776                5.43195032               -1.55222260
              19.17265590               10.82375574               76.07811175                0.00010000                0.01838762                0.07560178               -1.09858862               -2.31924393               10.65272896               -1.39391579
              20.17661292               10.30573945               75.72104430                0.00010000                0.74064511                0.24091490               -2.32538027               -3.18473110               10.32278506               -1.12378444
              21.18746880                9.77969699               75.36083425                0.00010000                1.35281523                0.56107065               -3.59769469               -4.17754605                9.80543838               -0.79231582
              22.20366923                9.24681681               74.99524638                0.00010000                1.76799792                1.17682494               -4.91007643               -4.96735950                8.93969425               -0.44214307
              23.22282876                8.71119633               74.62030607                0.00010000                1.94559816                2.08397638               -6.18791281               -5.12634290                7.56317993               -0.10095464
              24.24258119                8.17969518               74.23072272                0.00010000                1.94378172                3.06107554               -7.28826120               -4.31077602                5.58742928                0.13534582
              25.26170440                7.66029947               73.82081349                0.00010000                1.90653948                3.70469295               -8.01558590               -2.48138740                3.01823233                0.06640941
              26.28071198                7.15965340               73.38539181                0.42737179                1.90075863                3.57097106               -8.16588973               -1.07794098                1.41266503               -0.61516888
              16.66783196               13.31944494               77.22323390                1.00000000                0.02598621                0.05987769               -0.15544166               -0.00278280                0.00417480                0.71365029
              17.66809182               12.82755424               76.75371282                0.41572833                0.00930035               -0.01021021               -0.01544979               -0.05482809                0.05969072               -0.48425256
              18.66801796               12.33429321               76.28537237                0.00010000               -0.16127587               -0.06774437                0.12051875               -0.85354855                6.05119604               -1.33451733
              19.66486630               11.82582927               75.93622197                0.00010000                0.00177730                0.28447623               -1.15346912               -1.83858962               11.68640186               -1.27442161
              20.66805351               11.31027674               75.58367328                0.00010000                0.61897936                0.56141721               -2.41944943               -2.49577751               11.19693242               -1.07682941
              21.67724589               10.78787314               75.22720840                0.00010000                1.16746011                0.93539261               -3.72884095               -3.13186451               10.57372420               -0.85454492
              22.69140271               10.26078479               74.86433735                0.00010000                1.59973352                1.47237476               -5.07640155               -3.52875151                9.63376445               -0.62443724
              23.70924056                9.73287415               74.49116230                0.00010000                1.90447791                2.14246534               -6.39429211               -3.44651983                8.20101166               -0.42027820
              24.72949227                9.20923607               74.10230878                0.00010000                2.09457608                2.80361789               -7.54189014               -2.73642990                6.12275255               -0.32823271
              25.75113208                8.69471414               73.69147135                0.00010000                2.21837848                3.20782028               -8.31370276               -1.48485670                3.34158237               -0.51185703
              26.77385984                8.19203018               73.25257387                0.42826960                2.27277589                3.00244268               -8.48133209               -0.60366011                1.57340111               -1.18110079
              17.16004933               14.32013009               77.08622851                0.92869870                0.04264048                0.07712783               -0.22061354               -0.00218335                0.04088421                0.63498812
              18.16047574               13.82753162               76.61082977                0.33248175                0.04249201                0.00551370               -0.05773253               -0.04659681                0.38661006               -0.49726386
              19.16089917               13.33369616               76.14249830                0.00010000               -0.02875825               -0.06279539                0.06580343               -0.57424409                6.83585241               -1.08537843
              20.15990057               12.82944526               75.79685657                0.00010000                0.18771634                0.33539023               -1.20784123               -1.06378499               12.58891779               -0.82008013
              21.16465350               12.31696779               75.44874961                0.00010000                0.72114494                0.67639474               -2.49316530               -1.44850629               11.98913137               -0.67910848
              22.17432347               11.79840485               75.09554416                0.00010000                1.17198446                1.08498565               -3.81659259               -1.76075855               11.23719753               -0.56106169
              23.18809319               11.27626431               74.73526378                0.00010000                1.55618052                1.57603759               -5.17561614               -1.91836373               10.23857011               -0.44280745
              24.20544708               10.75404563               74.36412023                0.00010000                1.89597097                2.10770266               -6.50655142               -1.79665999                8.76962789               -0.34515810
              25.22601261               10.23576753               73.97662409                0.00010000                2.18830375                2.58390451               -7.67297188               -1.33485806                6.61806441               -0.32313264
              26.24921315                9.72445588               73.56575957                0.00010000                2.39970508                2.85836657               -8.46212802               -0.65276400                3.64058412               -0.47638737
              27.27400671                9.21970226               73.12392816                0.42953819                2.47935531                2.70834410               -8.61330810               -0.20635321                1.73461003               -1.01925992
              17.65298522               15.32098749               76.94783912                0.94473098                0.06085866                0.08574067               -0.29756313               -0.03870933                0.29133630                0.57067228
              18.65359381               14.82766451               76.46841017                0.63298737                0.08171110                0.01328886               -0.09739511               -0.08570260                0.86005851               -0.49811422
              19.65461944               14.33303730               76.00059603                0.37026971                0.33625847               -0.06588647                0.01038131               -0.38434485                7.94656564               -1.08154316
              20.66031898               13.83253707               75.66403121                0.36348937                0.77521799                0.30918083               -1.31452711               -0.41979245               13.59500831               -0.38680972
              21.67012380               13.32380464               75.31913423                0.36084486                1.12076113                0.68368485               -2.61875859               -0.60118036               12.60039923               -0.35380538
              22.68273420               12.80957286               74.96868754                0.36270289                1.36354241                1.11680097               -3.96204103               -0.73388207               11.76949296               -0.31467490
              23.69739465               12.29230554               74.61075940                0.36831692                1.55349682                1.60412285               -5.34255038               -0.79708610               10.73941346               -0.29021042
              24.71380414               11.77502821               74.24184483                0.37846372                1.74951070                2.09825732               -6.70080675               -0.73386333                9.29317932               -0.28509867
              25.73238486               11.26091416               73.85661844                0.39342522                2.01689722                2.51466261               -7.90356581               -0.52011094                7.19121005               -0.32857141
              26.75414208               10.75188147               73.44795411                0.41394913                2.34275789                2.74255931               -8.73960754               -0.24296261                4.14675909               -0.46759748
              27.77924002               10.24619706               73.00596520                0.71521380                2.50979422                2.64948021               -8.89723067               -0.04510998                2.15888415               -0.92485051
              13.18021385                5.46374123               79.31845755                1.00000000               -0.09426287               -0.07138266                0.26519120                0.00738933               -0.38968075                0.48271711
              14.17927122                4.97114206               78.88617222                1.00000000               -0.10961356               -0.09689018                0.34721235                0.01748465               -0.47461927                0.05447768
              15.17802158                4.47832487               78.45166289                1.00000000               -0.13872485               -0.11879174                0.42755159                0.01798605               -0.49685611               -0.04755383
              16.17649672                3.98515277               78.01877908                0.66870664               -0.17692661               -0.14245625                0.50511378               -0.00915313               -0.45498052               -0.28198226
              17.17448305                3.49122514               77.58531466                0.47883542               -0.21271970               -0.16205689                0.58574765               -0.02809325               -0.44363705               -0.29862558
              18.17224233                2.99666388               77.15315213                0.13881901               -1.04600246               -0.20115752                0.66398805               -0.79755377                0.80320643               -0.56006621
              19.15356300                2.48661662               76.74549131                0.00010000               -2.70873715                0.83101273                0.48351884               -4.79319470                9.12087658               -2.66752937
              20.11806759                1.88163307               76.47230578                0.00010000               -0.47555811               -0.67447113               -0.83415294               -4.70648803               16.98698719               -0.05225572
              21.14405183                1.25974473               76.20357395                0.00010000                5.16995722               -1.56405670               -1.77763539               -4.63140988               17.15242408                0.18079573
              22.22146673                0.62523962               75.93099207                1.00000000                4.22937200                0.58988690               -2.43370407               -4.57888594                8.27421640               -0.04894735
              23.22863927                0.08568815               75.49331688                1.00000000                0.71725436                0.53384015               -2.24842395               -0.11744102               -0.01009440               -0.06836422
              13.67288692                6.46302740               79.18067214                1.00000000               -0.07326698               -0.06366912                0.21080134               -0.00506015                0.01948484                0.67320704
              14.67215425                5.97017315               78.74823171                1.00000000               -0.08454188               -0.09157697                0.29401350                0.00560970                0.09317896                0.07784399
              15.67119608                5.47713695               78.31680441                1.00000000               -0.10995953               -0.11464534                0.37571673                0.00479932                0.16156734               -0.23257746
              16.66995506                4.98372821               77.88564186                0.84284196               -0.13747600               -0.14304318                0.46450120               -0.01248910                0.23631977               -0.22499399
              17.66844656                4.48960457               77.45598395                0.70282699               -0.16920028               -0.16433557                0.53746359               -0.03115275                0.21912364               -0.22283581
              18.66657105                3.99465230               77.02509337                0.36247397               -0.26500535               -0.19788302                0.61828738               -0.25062226                0.24970501               -0.40692756
              19.66314645                3.49492675               76.59702194                0.00010000                0.89337993                0.27024405                0.69913770               -5.51836305                8.71337375               -1.50265205
              20.68443865                2.87488836               76.33595993                0.00010000                3.13940036               -1.93771037               -0.71387841               -7.62533807               16.27174744                0.06170346
              21.72593446                2.24410416               76.05539115                0.00010000                3.91337558               -1.19226565               -1.42240755               -6.27107565               15.22511913               -0.23056281
              22.76270616                1.63113849               75.76948287                1.00000000                2.05409377                0.45934193               -1.54001140               -3.51425421                7.58857010               -0.04394880
              23.76701634                1.09102655               75.33159339                1.00000000                0.43101739                0.40387946               -1.37334972               -0.13412024                0.00523522               -0.09911707
              14.16582115                7.46246785               79.04600490                1.00000000               -0.05472798               -0.04444843                0.15452260               -0.00764840                0.15297804                0.78822896
              15.16527387                6.96931052               78.61045806                1.00000000               -0.06293191               -0.08017436                0.24138689                0.00073148                0.34269198                0.00236283
              16.16456251                6.47603196               78.17831608                0.00010000               -0.07472720               -0.10249661                0.32603431               -0.01592276                0.91028461               -0.66657305
              17.16377932                5.98229191               77.75410433                0.00010000               -0.08133055               -0.61867194                0.42556306               -0.29556043                1.24792333                0.02285929
              18.16293590                5.48793843               77.32904564                0.00010000               -0.09358074               -1.06753049                0.48440526               -0.19116646                1.03566947                0.76605149
              19.16190771                4.99270622               76.90135929                0.00010000                0.00118909               -1.75349733                0.57081778                0.22166625                1.04027265                1.84345372
              20.16295968                4.49202150               76.47759345                0.00010000                2.72378499               -3.87468470                0.64739058               -5.44170268                8.75472856                4.09264085
              21.21638341                3.84287886               76.20678615                0.00010000                4.97102558               -2.53673996               -1.10688614              -10.00524576               14.23613740                0.72005507
              22.26238019                3.23589942               75.89998541                0.00010000                4.39379257               -0.65281852               -1.77528108               -8.38834526               13.21488851               -1.15730976
              23.30425926                2.63442646               75.60799432                0.00010000                2.19002787                1.76729250               -0.73744378               -6.20378614                7.29501133               -3.67212297
              24.30618075                2.09376574               75.16989955                0.95436674                0.19214889                3.09958668               -0.58153635               -3.03363652                0.06955537               -1.45677238
              14.65904861                8.46213843               78.90990752                1.00000000               -0.04438506               -0.01963199                0.10090886               -0.00318850                0.25796145                0.66776876
              15.65860476                7.96856967               78.47077938                0.47503665               -0.05761908               -0.07458976                0.19418043                0.01363497                0.43772100               -0.35405545
              16.65789623                7.47508702               78.03492816                0.00010000               -0.32336899               -0.13417055                0.27048686               -0.47110059                1.96686184               -1.17771049
              17.65213738                6.97135477               77.62644450                0.00010000               -0.18436553               -0.93034264               -0.05425932               -1.14645510                3.48945294               -0.05183551
              18.65420892                6.46825396               77.22043436                0.00010000                0.73919604               -1.83888916               -0.37391739               -1.08380948                3.83818548                1.27613275
              19.66692130                5.95958236               76.81970789                0.00010000                2.49654162               -3.27949725               -0.74651007               -2.02574672                5.12318413                3.08950070
              20.70413975                5.41743305               76.44288555                0.00010000                3.67672568               -5.54333950               -1.35642266               -4.84433394                6.68165610                5.44749161
              21.74045582                4.82415356               76.08286638                0.00010000                3.12401025               -1.48246861               -1.97417722               -8.52577373                7.73418311                1.17712031
              22.76661996                4.23104779               75.73822934                0.00010000                2.01541503                0.39155199               -2.10315488               -8.28362299                6.80384476               -1.28766649
              23.78076412                3.66648434               75.37344783                0.00010000                1.05225446                3.20525881               -4.74122828               -5.78904072                2.23295860               -3.68539637
              24.78766505                3.15301829               74.98131529                0.41718676                0.69009298                4.84659297               -2.81528895               -3.24965546                0.85649116               -1.18885461
              15.15289491                9.46207521               78.77230862                1.00000000               -0.02969324                0.00290510                0.04625491               -0.00233360               -0.00696076                0.57363940
              16.15259798                8.96781872               78.32571473                0.35539366               -0.02697612               -0.07186134                0.16402657                0.00118938                0.37174240               -0.53004813
              17.15235539                8.47334855               77.88646057                0.00010000               -0.24573512               -0.20190821                0.22784815               -0.74857406                3.01418592               -1.69235615
              18.14768328                7.96368506               77.49288852                0.00010000                0.03383650               -0.68911591               -0.42171847               -1.54155290                5.43313254               -0.62551596
              19.15303212                7.45116064               77.10193366                0.00010000                1.22652008               -1.48950667               -1.06864144               -2.04606277                5.73444261                0.34053871
              20.17221368                6.92711627               76.71602293                0.00010000                2.42348371               -2.51106789               -1.76054862               -3.54449365                6.04353907                1.27833234
              21.20150180                6.38115471               76.33621664                0.00010000                3.00197556               -2.53245410               -2.47308739               -6.43763068                6.12511005                1.38663504
              22.23225319                5.81322949               75.96065366                0.00010000                2.64375774               -0.51528799               -3.07276844               -8.23482135                5.56205898                0.93904261
              23.25437695                5.24373046               75.58124438                0.00010000                1.71273804                1.58854800               -3.59959732               -7.46789434                3.92262325               -0.18444860
              24.26650795                4.69853164               75.18758671                0.00010000                0.68713995                3.12849860               -3.31325077               -4.53838183                1.80895181               -0.98155529
              25.26811975                4.19069760               74.76971466                0.41810887                0.16117967                3.69273235               -3.51264419               -2.69006392                0.97066645               -2.65223882
              15.64751492               10.46219654               78.63391530                1.00000000               -0.01597090                0.02122225               -0.01032817               -0.00177434                0.00277980                0.58297523
              16.64735521                9.96713244               78.18244048                0.35993696               -0.02282505               -0.06286164                0.12661594               -0.03933553                0.11623701               -0.42599386
              17.64705842                9.47104886               77.73308522                0.00010000               -0.19304879               -0.20130961                0.24187437               -0.96812509                3.71233072               -1.77006320
              18.64349423                8.95757245               77.35378288                0.00010000                0.13990167               -0.50161451               -0.68508836               -2.07351313                7.11052697               -1.08083249
              19.64985645                8.43846383               76.97312702                0.00010000                1.12715666               -0.93141602               -1.57264111               -2.87915938                6.96957857               -0.46880975
              20.66603737                7.90936100               76.59319445                0.00010000                1.97087363               -1.18387683               -2.46365775               -4.38185698                6.77421806                0.00672854
              21.68927392                7.36678397               76.21311594                0.00010000                2.35731390               -0.75478651               -3.32854033               -6.14101124                6.23859311                0.28720862
              22.71318364                6.81384780               75.82952561                0.00010000                2.13430027                0.54589549               -4.08890561               -7.12685177                5.16277209                0.34748579
              23.73195993                6.26281875               75.43678692                0.00010000                1.49228489                2.10582022               -4.58031423               -6.40483207                3.58326663                0.24582094
              24.74302934                5.72905431               75.02874077                0.00010000                0.87859593                3.14171382               -4.82008327               -3.87356944                1.82220697               -0.09882495
              25.74953185                5.22687293               74.60358094                0.41935258                0.65025048                3.41143611               -4.74567761               -1.77962021                1.03006685               -0.97048801
              16.14298762               11.46249965               78.49617433                1.00000000               -0.00286696                0.03873414               -0.06788073               -0.00133985               -0.00002615                0.64891304
              17.14295895               10.96656149               78.03949206                0.38824052               -0.02173731               -0.05092872                0.09292376               -0.05345075                0.02938459               -0.40857484
              18.14255288               10.46932236               77.58332147                0.00010000               -0.20804543               -0.15443324                0.25220884               -1.04377440                4.24606519               -1.53267797
              19.13879804                9.95365277               77.21125187                0.00010000                0.05537555               -0.24122939               -0.85690659               -2.28697856                8.28653532               -1.31286166
              20.14366039                9.43253232               76.83739468                0.00010000                0.87291766               -0.30086968               -1.91173608               -3.13127153                7.98464880               -0.95270424
              21.15625640                8.90343874               76.46167492                0.00010000                1.52671906               -0.18135851               -2.95165834               -4.27720461                7.52776334               -0.60123345
              22.17419477                8.36605898               76.08242499                0.00010000                1.87124881                0.34563327               -3.95631496               -5.35519983                6.74773863               -0.29451191
              23.19368137                7.82414740               75.69628883                0.00010000                1.84395142                1.30697411               -4.84727270               -5.74107544                5.54822188               -0.05208033
              24.21107380                7.28584686               75.29887310                0.00010000                1.56505058                2.38010947               -5.52455920               -4.93320884                3.95299386                0.07688171
              25.22498239                6.76136591               74.88604551                0.00010000                1.29081547                3.11424982               -5.88663194               -2.85655254                2.06609388               -0.06470093
              26.23689011                6.25892632               74.45437681                0.42008064                1.19077211                3.03537641               -5.87993185               -1.25790427                1.00873970               -0.86293969
              16.63936445               12.46297122               78.35879138                1.00000000                0.00990366                0.05509827               -0.12487409               -0.00051776                0.00216519                0.68644389
              17.63946349               11.96611386               77.89671299                0.41478645               -0.01364004               -0.03862566                0.06146183               -0.05263592                0.02915137               -0.41613370
              18.63909165               11.46796019               77.43516596                0.00010000               -0.24593958               -0.12712477                0.25215682               -0.96634651                4.74555905               -1.46963257
              19.63454470               10.95274786               77.06778381                0.00010000               -0.08233009                0.04338560               -0.96444802               -2.12320941                9.25575128               -1.33749753
              20.63744505               10.43244643               76.69873471                0.00010000                0.62109607                0.20662651               -2.13001858               -2.85440817                8.87952663               -1.11554265
              21.64696662                9.90573383               76.32650004                0.00010000                1.20081062                0.48466710               -3.27377032               -3.68129017                8.29230134               -0.84536176
              22.66146126                9.37369664               75.94897962                0.00010000                1.58038176                0.98784451               -4.37904731               -4.29064225                7.40580761               -0.57334377
              23.67857425                8.83998728               75.56291501                0.00010000                1.73079894                1.70017040               -5.37926665               -4.33008627                6.13357613               -0.33772860
              24.69607724                8.31042094               75.16425192                0.00010000                1.71222899                2.43086176               -6.16796942               -3.55567779                4.44609044               -0.22631351
              25.71281883                7.79133931               74.74876145                0.00010000                1.65878530                2.86373161               -6.62267058               -2.00370458                2.37205065               -0.41525345
              26.72925294                7.28758046               74.31279100                0.42124529                1.64341132                2.68127464               -6.63074032               -0.84955556                1.13372848               -1.11576804
              17.13669198               13.46360162               78.22152619                1.00000000                0.02252871                0.06996759               -0.18379855                0.00013835                0.00624574                0.68650507
              18.13691726               12.96578897               77.75382746                0.44591755               -0.00500152               -0.02655956                0.03489976               -0.04696821                0.06167283               -0.45179331
              19.13659195               12.46677986               77.28729966                0.00010000               -0.25348257               -0.11047175                0.25239479               -0.74718329                5.31987259               -1.26523604
              20.13184761               11.95452048               76.92523284                0.00010000               -0.15028434                0.26958459               -1.03913320               -1.63847910               10.21972731               -1.18714288
              21.13358626               11.43666485               76.56013975                0.00010000                0.47663894                0.55015505               -2.27347673               -2.22597636                9.70262785               -0.99890056
              22.14138039               10.91313208               76.19109716                0.00010000                1.02711046                0.87512841               -3.48413872               -2.77584387                9.02074113               -0.79456779
              23.15412847               10.38581587               75.81574505                0.00010000                1.44874749                1.31472208               -4.65493538               -3.08571639                8.06060446               -0.58969529
              24.17035534                9.85815081               75.43085608                0.00010000                1.72398730                1.84161849               -5.72234098               -2.96065029                6.72274614               -0.42036027
              25.18860822                9.33446410               75.03229172                0.00010000                1.86967174                2.33693421               -6.57624506               -2.30449434                4.92698630               -0.37037367
              26.20774878                8.81864055               74.61543387                0.00010000                1.94042388                2.60545165               -7.07415100               -1.22476721                2.65460514               -0.57949417
              27.22741669                8.31255181               74.17592175                0.42238107                1.96679166                2.37538187               -7.07536291               -0.47731757                1.25956951               -1.21717263
              17.63499250               14.46437057               78.08393091                0.94658492                0.03533727                0.08343354               -0.23776982               -0.00004597                0.03328240                0.60262657
              18.63534588               13.96558267               77.61060096                0.36040115                0.02119879               -0.01483564                0.00778106               -0.03864061                0.36140958               -0.46153123
              19.63541648               13.46575076               77.14396882                0.00010000               -0.17278775               -0.10588624                0.21416373               -0.43627622                6.05724403               -1.02777598
              20.63189012               12.95813956               76.78521706                0.00010000               -0.05512806                0.38568444               -1.11107579               -0.90141872               11.07903729               -0.75404342
              21.63431392               12.44344953               76.42419323                0.00010000                0.52043004                0.70675014               -2.39465806               -1.28214896               10.45939800               -0.60677213
              22.64229872               11.92323640               76.05808811                0.00010000                1.02071409                1.06250751               -3.64860809               -1.57036222                9.66113573               -0.48682098
              23.65472820               11.39999108               75.68501256                0.00010000                1.42071479                1.47032217               -4.86164371               -1.69248960                8.64486207               -0.36838534
              24.67071302               10.87681965               75.30181964                0.00010000                1.73847075                1.89422921               -5.97206974               -1.56093611                7.26377083               -0.27267611
              25.68949762               10.35715963               74.90425907                0.00010000                1.97613763                2.25373778               -6.86753044               -1.13869047                5.38479534               -0.25437010
              26.71023577                9.84344834               74.48711802                0.00010000                2.11932202                2.43240163               -7.39124731               -0.54514205                2.92340236               -0.40395098
              27.73188406                9.33508810               74.04489120                0.42337077                2.16482852                2.25600109               -7.36937707               -0.15490290                1.39172645               -0.88436360
              18.13426685               15.46527029               77.94484096                0.95322270                0.04974149                0.08997174               -0.30233612               -0.05036780                0.28154485                0.53166564
              19.13476427               14.96549226               77.46785786                0.64299617                0.05213430               -0.00904121               -0.01848377               -0.08856835                0.80860498               -0.45806072
              20.13530954               14.46466214               77.00162329                0.36927458                0.06780953               -0.10886166                0.17829886               -0.17359880                7.09171921               -1.01612065
              21.13612046               13.96223417               76.65123353                0.36323917                0.37684503                0.40946100               -1.22992628               -0.27008036               12.00773638               -0.35154078
              22.14284644               13.45079986               76.29311475                0.36084094                0.86555726                0.73503224               -2.54952230               -0.53934475               11.01987115               -0.31097824
              23.15343160               12.93438223               75.92945535                0.36253102                1.19244905                1.11458319               -3.83908325               -0.66558900               10.14450397               -0.26674455
              24.16669542               12.41522231               75.55840407                0.36773613                1.42682328                1.52312362               -5.08817942               -0.72061970                9.09149464               -0.23433050
              25.18196807               11.89603539               75.17706178                0.37685662                1.62551476                1.92157408               -6.23829375               -0.65866788                7.72023987               -0.21823566
              26.19920572               11.37953885               74.78132723                0.39044885                1.84746975                2.23792262               -7.17784280               -0.46653073                5.87291775               -0.24806828
              27.21891747               10.86728858               74.36590007                0.40914714                2.09167036                2.38402356               -7.74686185               -0.22518151                3.34444383               -0.36792849
              28.24103912               10.35767184               73.92345965                0.71203390                2.21216589                2.25837377               -7.72923386               -0.04616747                1.72590044               -0.74554572
              13.60818131                5.60660921               80.32051203                1.00000000               -0.06864809               -0.03794424                0.14908676                0.01907837               -0.39104639                0.47977199
              14.60749483                5.10989470               79.88936223                1.00000000               -0.09300158               -0.08199527                0.29144593                0.02736835               -0.47854287                0.05509433
              15.60632128                4.61298476               79.45596605                1.00000000               -0.13972550               -0.12141141                0.43061680                0.02771448               -0.50361626               -0.04380182
              16.60470032                4.11574789               79.02416977                0.67616322               -0.19368464               -0.16375221                0.56759930                0.00291660               -0.46037476               -0.26807310
              17.60244758                3.61783091               78.59182078                0.48610531               -0.24562932               -0.20343125                0.70690590               -0.01334336               -0.44478712               -0.29459647
              18.59978773                3.11934867               78.16080235                0.14794086               -0.85441479               -0.26096897                0.85431478               -0.60949874                0.62956732               -0.56184589
              19.58535929                2.60886273               77.75073692                0.00010000               -2.10360642                0.51748385                0.60435823               -4.25483910                8.32232566               -2.27341773
              20.55771560                2.01597273               77.46533612                0.00010000               -0.02692430               -0.88562031               -0.56962639               -4.12593852               15.60618742               -0.22531939
              21.58482080                1.40674960               77.18673334                0.00010000                5.04012285               -1.59683287               -1.59941129               -4.13108364               15.98119502               -0.04471174
              22.65851806                0.78174565               76.90683195                1.00000000                4.02132255                0.61569178               -2.35697438               -4.12030680                7.80269820                0.02750487
              23.66524725                0.24217531               76.47151947                1.00000000                0.67291936                0.52138869               -2.06185628               -0.06053087               -0.02067081               -0.02070307
              14.10508660                6.60622977               80.18223934                1.00000000               -0.05058711               -0.03242305                0.10568467               -0.00271426                0.01667903                0.66694532
              15.10458073                6.10907474               79.75094749                1.00000000               -0.07073915               -0.07849500                0.24951349                0.00644537                0.08869611                0.07854963
              16.10367182                5.61177065               79.32064897                1.00000000               -0.11371623               -0.11927535                0.39070140                0.00511305                0.16044518               -0.22564997
              17.10230641                5.11411037               78.89068382                0.85950534               -0.15790289               -0.16623695                0.53859851               -0.01033411                0.23482604               -0.20693892
              18.10051376                4.61579660               78.46209458                0.71758568               -0.20647876               -0.20793275                0.67703277               -0.02690218                0.22151492               -0.21631591
              19.09817683                4.11673898               78.03237715                0.38185063               -0.30074484               -0.26188011                0.82947996               -0.19281881                0.26909662               -0.40285860
              20.09449887                3.61403757               77.60559926                0.00010000                0.96679728                0.06887928                1.00169742               -4.87474686                7.95183315               -1.33466512
              21.11751278                3.00711652               77.33003718                0.00010000                3.30623171               -2.02023150               -0.48685160               -6.66769875               15.01986215               -0.27861959
              22.16062350                2.39078127               77.04158614                0.00010000                4.10446798               -1.28852398               -1.35240327               -5.50897203               14.53382382               -0.75993736
              23.19960214                1.78790257               76.75385698                0.91955433                2.17943942                0.51485380               -1.71456770               -3.01894355                7.36390498                0.00475100
              24.20421229                1.24738919               76.31810770                1.00000000                0.46101507                0.42610442               -1.42930248               -0.10950964                0.01770100               -0.08695653
              14.60243707                7.60596075               80.04706779                1.00000000               -0.03542171               -0.01781673                0.06093645               -0.00552810                0.14894552                0.77923485
              15.60208285                7.10832480               79.61270763                1.00000000               -0.05245808               -0.07038911                0.20863652                0.00101805                0.33723730                0.00579602
              16.60138791                6.61059926               79.18172704                0.00010000               -0.08075835               -0.11135068                0.35355687               -0.01722179                0.91211950               -0.65972380
              17.60046768                6.11242316               78.75880893                0.00010000               -0.10534862               -0.62072064                0.51047232               -0.28085650                1.24589250               -0.17105351
              18.59928094                5.61367226               78.33470395                0.00010000               -0.13886503               -1.05005238                0.64104931               -0.18358179                1.04034050                0.37892524
              19.59769038                5.11411106               77.90826076                0.00010000               -0.08970656               -1.67329637                0.80345302                0.22169760                1.07141982                1.23433782
              20.59748680                4.61024031               77.48580352                0.00010000                2.49637672               -3.58192761                0.98489202               -4.71472962                7.85680867                3.11836666
              21.64761792                3.97556810               77.19742428                0.00010000                4.81842538               -2.47778477               -0.83119503               -8.83651298               12.92758689               -0.02592993
              22.69385531                3.38097912               76.88273355                0.00010000                4.69566744               -0.72120582               -1.63811664               -7.47000921               13.20056812               -1.94816475
              23.74153127                2.79204273               76.59989196                0.00010000                2.51142504                1.47444306               -1.09673931               -6.10550569                7.61675908               -5.03299109
              24.74408381                2.25069740               76.16365974                0.51908696                0.25525447                3.00158924               -0.83170159               -4.01749941                0.07748109               -3.39321242
              15.10024795                8.60587343               79.91049723                1.00000000               -0.02853599                0.00219576                0.01975832               -0.00095695                0.25036847                0.65566938
              16.09996259                8.10766696               79.47261857                0.49349664               -0.05094602               -0.06834536                0.17369996                0.01169600                0.42133731               -0.33755248
              17.09922903                7.60954363               79.03784203                0.00010000               -0.31731539               -0.14615520                0.30925584               -0.45159016                1.74732431               -1.16330763
              18.09361628                7.10169596               78.62652528                0.00010000               -0.20374036               -0.91765263                0.06420707               -1.08811837                3.05253720               -0.41843297
              19.09515422                6.59479555               78.21777307                0.00010000                0.62132238               -1.75853602               -0.17070055               -0.99836385                3.36692550                0.55577153
              20.10604273                6.08327305               77.81391639                0.00010000                2.17965119               -3.04051495               -0.44288966               -1.78937134                4.50372729                1.97276490
              21.13874724                5.54239901               77.43146133                0.00010000                3.20004915               -5.03189897               -0.97403357               -4.19167225                6.00491963                3.88101600
              22.17004371                4.95756083               77.06610470                0.00010000                2.80007199               -1.37124857               -1.55111728               -7.42741923                7.27542284                0.02780343
              23.19474868                4.37635716               76.71719919                0.00010000                1.88650214                0.34378357               -2.06871464               -7.58523770                6.74912812               -2.43268596
              24.20777375                3.81739143               76.34374354                0.00010000                0.59021424                2.84503149               -2.65695275               -6.01501835                4.10958004               -7.37329503
              25.20655297                3.30742098               75.94259564                0.41178396               -0.12207851                4.66390557               -3.25476524               -3.56585652                2.40621126               -6.07914929
              15.59883087                9.60600466               79.77241602                1.00000000               -0.01843033                0.02051037               -0.02184636               -0.00057221               -0.00360028                0.55733831
              16.59864657                9.10695789               79.32734617                0.37796303               -0.02518833               -0.07065947                0.16054825               -0.00236049                0.34567406               -0.50717413
              17.59832711                8.60767615               78.88903851                0.00010000               -0.25965833               -0.21326556                0.28361479               -0.71473633                2.60953525               -1.63457779
              18.59345340                8.09407010               78.48940059                0.00010000               -0.02952685               -0.68502136               -0.28342166               -1.45765735                4.64271372               -0.88112210
              19.59773657                7.57850153               78.09248755                0.00010000                1.04230451               -1.41646639               -0.83871473               -1.86562670                4.89674007               -0.20635943
              20.61429949                7.05330076               77.70031145                0.00010000                2.08145061               -2.31854819               -1.42142819               -3.13083534                5.17369442                0.44740506
              21.63936558                6.50960233               77.31415700                0.00010000                2.54059491               -2.29492830               -2.02059773               -5.59405466                5.33966335                0.36406609
              22.66511139                5.94814312               76.93315038                0.00010000                2.14771857               -0.45127810               -2.55880568               -6.99499164                5.04266842               -0.31836313
              23.68231995                5.38785479               76.54955646                0.00010000                1.25278443                1.37738423               -2.96583393               -6.33076446                3.99520531               -1.97419354
              24.69016708                4.84894336               76.15472108                0.00010000                0.51938176                2.89358528               -3.16881245               -3.72646952                2.08144706               -3.26145907
              25.69270759                4.34397551               75.73788705                0.41273027                0.25405082                3.14573069               -3.22053736               -1.62848944                1.04976250               -4.36371434
              16.09833005               10.60628364               79.63353467                1.00000000               -0.00861628                0.03571744               -0.06430972               -0.00126493                0.00339111                0.56260208
              17.09824389               10.10625377               79.18376060                0.38525475               -0.02539829               -0.06684313                0.13590480               -0.03877370                0.10729208               -0.40605317
              18.09782209                9.60527832               78.73591487                0.00010000               -0.23030698               -0.21776394                0.31881204               -0.91244071                3.17386148               -1.68097785
              19.09363775                9.08799553               78.34770530                0.00010000                0.03944686               -0.50055191               -0.53875417               -1.93342186                6.03246700               -1.22577360
              20.09861102                8.56646622               77.95866615                0.00010000                0.93437355               -0.88524297               -1.33758277               -2.59353543                5.87917142               -0.82556846
              21.11232522                8.03690208               77.57052356                0.00010000                1.67063838               -1.09896477               -2.11228487               -3.84330623                5.68544276               -0.55095947
              22.13202379                7.49650045               77.18268101                0.00010000                1.97830980               -0.70539853               -2.84086960               -5.25711498                5.24321981               -0.48239678
              23.15189142                6.94853526               76.79246050                0.00010000                1.76546839                0.43102473               -3.45945347               -5.92724442                4.42703070               -0.71140789
              24.16733316                6.40390484               76.39548706                0.00010000                1.26161169                1.71161994               -3.86852850               -5.07389727                3.19229406               -1.17012509
              25.17712365                5.87526314               75.98625113                0.00010000                0.82928616                2.51811111               -4.01562611               -2.86000543                1.64638366               -1.85445016
              26.18391888                5.37033559               75.56074606                0.41356833                0.67952318                2.50832012               -4.02565660               -1.24619811                0.85138854               -2.78867185
              16.59886531               11.60671901               79.49527164                1.00000000                0.00111010                0.05129520               -0.11119656               -0.00011835                0.00072481                0.62343822
              17.59887641               11.10562103               79.04052962                0.41585550               -0.02643895               -0.05880100                0.11303563               -0.05065096                0.03193161               -0.38403700
              18.59833653               10.60332087               78.58632940                0.00010000               -0.26396719               -0.17990601                0.33973086               -0.96492584                3.61176954               -1.44804110
              19.59359707               10.08405906               78.20343554                0.00010000               -0.06886117               -0.24853606               -0.71316161               -2.09798835                7.00481448               -1.36286215
              20.59695931                9.56079668               77.81945722                0.00010000                0.69010372               -0.28913465               -1.68999744               -2.79306956                6.70572539               -1.14306124
              21.60739914                9.03132147               77.43401006                0.00010000                1.28153970               -0.17672815               -2.61652830               -3.72788101                6.25530630               -0.93857857
              22.62259010                8.49549436               77.04564152                0.00010000                1.58814836                0.27647157               -3.47235002               -4.56056124                5.55489767               -0.80402798
              23.63916211                7.95676362               76.65170282                0.00010000                1.57620162                1.06696186               -4.19437646               -4.75353001                4.54440954               -0.77321166
              24.65411413                7.42208719               76.24866718                0.00010000                1.36870558                1.89227192               -4.70435510               -3.95673179                3.23271068               -0.89715079
              25.66653622                6.89930558               75.83291958                0.00010000                1.17622903                2.36714551               -4.95095931               -2.22313006                1.69551961               -1.25974019
              26.67763871                6.39414191               75.40174819                0.41463310                1.11024944                2.27287543               -4.89988786               -0.94593857                0.85738839               -2.03375811
              17.10052366               12.60730954               79.35736123                1.00000000                0.01053522                0.06582461               -0.15914334                0.00127220                0.00251283                0.65714947
              18.10062901               12.10507775               78.89749773                0.44394369               -0.02190629               -0.04953136                0.09277622               -0.04769719                0.03309115               -0.38566377
              19.10008553               11.60168020               78.43822847                0.00010000               -0.32134146               -0.15676233                0.34939528               -0.86897177                4.04022666               -1.38452867
              20.09420218               11.08302481               78.05882279                0.00010000               -0.22991521                0.02970492               -0.83200054               -1.90864879                7.83298560               -1.32045149
              21.09548723               10.56068353               77.67844393                0.00010000                0.44338657                0.20217672               -1.93575123               -2.51874227                7.46416028               -1.18017676
              22.10306991               10.03336752               77.29535884                0.00010000                0.99415950                0.45361261               -2.97815259               -3.19986888                6.88316881               -1.00432310
              23.11537042                9.50202988               76.90766543                0.00010000                1.35790373                0.87317887               -3.93928770               -3.66136220                6.05781612               -0.84388114
              24.13022799                8.96987450               76.51272074                0.00010000                1.51430716                1.43993489               -4.76154402               -3.61464506                4.94886246               -0.74209515
              25.14565656                8.44175028               76.10736333                0.00010000                1.51891735                1.98671284               -5.36423869               -2.89641883                3.55100371               -0.76989909
              26.16060633                7.92260605               75.68836008                0.00010000                1.48354466                2.27310541               -5.66311845               -1.59496216                1.88448519               -1.04518737
              27.17532745                7.41579310               75.25277701                0.41569649                1.47211203                2.07223045               -5.59412539               -0.65945704                0.91559268               -1.72493942
              17.60335434               13.60803550               79.21955793                1.00000000                0.01974694                0.07791537               -0.20795056                0.00205010                0.00799292                0.65674710
              18.60355181               13.10463040               78.75441082                0.47823979               -0.01721510               -0.04035778                0.07778609               -0.04064358                0.06344024               -0.41631407
              19.60301004               12.60018563               78.29042026                0.00010000               -0.35655207               -0.14315906                0.36045353               -0.63174059                4.55200913               -1.18998682
              20.59642077               12.08465316               77.91543930                0.00010000               -0.33841424                0.26694499               -0.92061891               -1.41453444                8.68986994               -1.13470352
              21.59624175               11.56484021               77.53820374                0.00010000                0.28173233                0.55869092               -2.11292970               -1.93881295                8.19009959               -0.98776668
              22.60205541               11.04039372               77.15752563                0.00010000                0.83070632                0.84713579               -3.23992378               -2.41126648                7.51480545               -0.83356953
              23.61285588               10.51295794               76.77123864                0.00010000                1.25466970                1.21038480               -4.28112909               -2.64714623                6.60854723               -0.68895063
              24.62714881                9.98556232               76.37671548                0.00010000                1.52991669                1.62559564               -5.17948765               -2.49442426                5.42516380               -0.58778971
              25.64345421                9.46182145               75.97078388                0.00010000                1.67226750                1.99471712               -5.84671270               -1.90205255                3.92469768               -0.60074496
              26.66059416                8.94476769               75.54998833                0.00010000                1.73106273                2.16523063               -6.17976230               -0.98960985                2.09888671               -0.83776869
              27.67807547                8.43558652               75.11106661                0.41646877                1.74813096                1.93419893               -6.08670210               -0.36974650                1.00898341               -1.41892737
              18.10737487               14.60886785               79.08147311                0.96659579                0.02911459                0.08825981               -0.25162166                0.00167335                0.02655442                0.56835132
              19.10766602               14.10427060               78.61098539                0.39042549                0.00265428               -0.03204509                0.06363886               -0.03095264                0.33501877               -0.42286560
              20.10742796               13.59881702               78.14678158                0.00010000               -0.32045541               -0.13898347                0.33475588               -0.29193787                5.22412727               -0.96053127
              21.10125691               13.08836371               77.77463505                0.00010000               -0.32287732                0.44100805               -1.00246070               -0.71990992                9.46931462               -0.70891895
              22.10097041               12.57185735               77.40085645                0.00010000                0.27349712                0.74509154               -2.26283382               -1.09979102                8.86921806               -0.57652390
              23.10672685               12.05031024               77.02257200                0.00010000                0.81442441                1.05548834               -3.44972852               -1.36701158                8.08250039               -0.47678771
              24.11725890               11.52623758               76.63803091                0.00010000                1.23745708                1.39389848               -4.54852274               -1.45807954                7.11689376               -0.38284440
              25.13147599               11.00238641               76.24467884                0.00010000                1.55756193                1.73084491               -5.50218073               -1.32279929                5.88478407               -0.31374843
              26.14841014               10.48164462               75.83927348                0.00010000                1.77865380                1.99975097               -6.21731789               -0.94625174                4.30428408               -0.31739179
              27.16704907                9.96591066               75.41793462                0.00010000                1.89423644                2.10955564               -6.57492263               -0.44315831                2.31680174               -0.46744471
              28.18629486                9.45447708               74.97654062                0.41751948                1.92457970                1.92813616               -6.45616970               -0.11518850                1.10900389               -0.88725424
              18.61258232               15.60980070               78.94179240                0.96290643                0.04012683                0.09328497               -0.30547733               -0.06037584                0.27103959                0.49065156
              19.61298358               15.10398950               78.46804050                0.65561665                0.02479245               -0.02810989                0.04891846               -0.08798044                0.75554996               -0.41563404
              20.61307816               14.59740596               78.00416201                0.36856485               -0.20006702               -0.14110655                0.31442222                0.03921219                6.16769751               -0.93869544
              21.60898224               14.09347332               77.63943269                0.36304211               -0.03893799                0.51096130               -1.12301304               -0.11066228               10.29628017               -0.32085949
              22.61229940               13.57974204               77.26814378                0.36095644                0.56763546                0.78846931               -2.42663461               -0.46559226                9.36019149               -0.28394794
              23.62033495               13.06150349               76.89190588                0.36244445                0.96593531                1.11932506               -3.65432543               -0.58449626                8.49910840               -0.24630588
              24.63161811               12.54083591               76.50899581                0.36720780                1.24754109                1.45983348               -4.79232955               -0.63029239                7.49327465               -0.21970135
              25.64528577               12.02017921               76.11707895                0.37527241                1.46934105                1.77928000               -5.78636399               -0.56999383                6.26231611               -0.20764851
              26.66100493               11.50181647               75.71306158                0.38779964                1.68063798                2.01718465               -6.54293893               -0.40154109                4.70418898               -0.23684369
              27.67889853               10.98695880               75.29301687                0.40453478                1.88169626                2.10481419               -6.93854755               -0.19841482                2.66020143               -0.34488398
              28.69863886               10.47414924               74.85138053                0.70905968                1.97403229                1.96721615               -6.82183037               -0.04655687                1.37669593               -0.66122651
              14.03469252                5.74988205               81.32143928                1.00000000               -0.04461716               -0.00714970                0.04028336                0.03030788               -0.39386654                0.47750213
              15.03424635                5.24907344               80.89200114                1.00000000               -0.07754025               -0.06746860                0.23728525                0.03726513               -0.48521680                0.05626126
              16.03314172                4.74808298               80.46027522                1.00000000               -0.14059280               -0.12200157                0.42877390                0.03718224               -0.51418471               -0.03959108
              17.03143450                4.24676321               80.03013106                0.68339153               -0.20935000               -0.18129484                0.61888509                0.01227833               -0.47005448               -0.25605937
              18.02895472                3.74478560               79.59945277                0.49605597               -0.27584799               -0.23905167                0.80874429               -0.00141086               -0.44589481               -0.28920419
              19.02591754                3.24227738               79.17023843                0.16392358               -0.67394868               -0.31406474                1.01908799               -0.41502291                0.41939495               -0.56441992
              20.01547574                2.73142359               78.75757848                0.00010000               -1.58613110                0.17432577                0.83045372               -3.82290617                7.39719623               -1.84950483
              20.99419491                2.14772457               78.46091325                0.00010000                0.33520802               -1.04967595               -0.32709775               -3.64852538               14.17709347               -0.38616761
              22.02217990                1.54914489               78.17158573                0.00010000                4.92698277               -1.62396813               -1.42078091               -3.73812268               14.69009438               -0.21400433
              23.09273457                0.93173966               77.88385258                1.00000000                3.83354592                0.64338382               -2.24530619               -3.77954954                7.22792776                0.00394516
              24.09885082                0.39209763               77.45207975                1.00000000                0.61162541                0.50495243               -1.83454215                0.03760665               -0.02054152               -0.04694062
              14.53580422                6.74981056               81.18278583                1.00000000               -0.02856751               -0.00436963                0.00702851                0.00021275                0.01320610                0.66127823
              15.53551854                6.24839875               80.75322198                1.00000000               -0.05677812               -0.06590439                0.20586689                0.00827106                0.08292320                0.07990968
              16.53466865                5.74686296               80.32461844                1.00000000               -0.11562862               -0.12192714                0.40051120                0.00566934                0.15755689               -0.21774131
              17.53320597                5.24495027               79.89641383                0.87364341               -0.17425620               -0.18669205                0.60156641               -0.00910566                0.23521920               -0.19078605
              18.53118353                4.74239508               79.46952461                0.73295254               -0.23788281               -0.24735745                0.80056245               -0.02386856                0.23365234               -0.20875186
              19.52844831                4.23913673               79.04168297                0.40781319               -0.33302214               -0.32118249                1.02190190               -0.14546172                0.31080212               -0.39963854
              20.52452309                3.73316685               78.61705589                0.00010000                1.02003483               -0.14484150                1.27485610               -4.32261660                7.13722481               -1.12647477
              21.54884901                3.13722781               78.32622290                0.00010000                3.41340237               -2.07159163               -0.30113078               -5.82257164               13.57269613               -0.60973727
              22.59279113                2.53290521               78.02834308                0.00010000                4.23068493               -1.39109082               -1.28500857               -4.86551754               13.52227617               -1.13614416
              23.63346271                1.93817350               77.73519152                0.87061190                2.30388935                0.60702089               -1.98361939               -2.64121894                6.92700921               -0.00565210
              24.63886892                1.39714715               77.30300734                1.00000000                0.54062139                0.46579625               -1.55041980               -0.03543440                0.01657605               -0.10844210
              15.03752038                7.74979466               81.04722363                1.00000000               -0.01610164                0.00465175               -0.02667484               -0.00347652                0.14446156                0.77106395
              16.03735937                7.24775535               80.61463079                1.00000000               -0.04083953               -0.06093401                0.17612256                0.00089743                0.33138112                0.01018769
              17.03670359                6.74564443               80.18538722                0.00010000               -0.08195525               -0.11767851                0.37557533               -0.02293114                0.91302840               -0.65219961
              18.03572026                6.24302937               79.76431378                0.00010000               -0.12063536               -0.62779060                0.58481727               -0.28774324                1.25190796               -0.35701386
              19.03429088                5.73983845               79.34186662                0.00010000               -0.17418622               -1.04046484                0.78504197               -0.21014290                1.06645461                0.00285789
              20.03223654                5.23585373               78.91742835                0.00010000               -0.16792766               -1.60748865                1.02409820                0.17737916                1.14298395                0.63474737
              21.03093233                4.72852676               78.49729129                0.00010000                2.28842899               -3.32334800                1.30152889               -4.10171196                6.91174738                2.12540900
              22.07800512                4.10629274               78.19016225                0.00010000                4.64957680               -2.41221411               -0.65604942               -7.79131371               11.44670408               -0.70964387
              23.12392387                3.52132308               77.86722308                0.00010000                4.88315672               -0.86670277               -1.47116510               -6.56200551               12.71114697               -2.66941379
              24.17566825                2.94388008               77.58605953                0.00010000                2.81354787                1.30079130               -1.68370157               -5.79064799                7.54138903               -5.76392672
              25.18019482                2.40141355               77.15326552                0.40621908                0.45265740                3.00304161               -1.22496117               -4.28584410                0.07743960               -4.46633960
              15.53981330                8.74990359               80.91030269                1.00000000               -0.01265878                0.01949348               -0.05578255               -0.00024025                0.24183315                0.64480231
              16.53968671                8.24718007               80.47425338                0.51279782               -0.04386468               -0.06110733                0.15305536                0.00677047                0.40320498               -0.31844746
              17.53893601                7.74450939               80.04111328                0.00010000               -0.32148133               -0.15301402                0.34175780               -0.44987667                1.53503918               -1.14569724
              18.53325709                7.23239445               79.62772864                0.00010000               -0.23898446               -0.90733876                0.16749857               -1.07776768                2.64370830               -0.77409512
              19.53415632                6.72158579               79.21702035                0.00010000                0.50252493               -1.68490412                0.00324582               -0.98211622                2.94074957               -0.15344708
              20.54330759                6.20698696               78.81085010                0.00010000                1.89467590               -2.81982568               -0.19601014               -1.65521567                3.93668568                0.86914936
              21.57204984                5.66669989               78.42340488                0.00010000                2.84594157               -4.56552053               -0.69147561               -3.67398099                5.28529285                2.32574286
              22.60022642                5.08898353               78.05184403                0.00010000                2.59569238               -1.28931533               -1.33891285               -6.57133741                6.61698761               -0.96911070
              23.62396368                4.51557116               77.69685505                0.00010000                1.86664275                0.23178176               -1.96223025               -6.80038584                6.27622301               -3.47666006
              24.63755927                3.96418932               77.32030878                0.00010000                0.70607010                2.34573955               -2.22054998               -5.71125586                3.89354715               -8.64480419
              25.63808509                3.45720798               76.91621999                0.40658053                0.05258143                4.19296671               -2.36710643               -3.56872214                2.68828849               -7.72472678
              16.04296261                9.75018453               80.77187169                1.00000000               -0.00736381                0.03446853               -0.08449229                0.00074652                0.00033051                0.54155703
              17.04288897                9.24653320               80.32892569                0.40300016               -0.02354674               -0.06760716                0.15448353               -0.00831153                0.31878164               -0.48076294
              18.04249168                8.74258415               79.89213287                0.00010000               -0.29002306               -0.21854922                0.33161210               -0.69978306                2.21297508               -1.56804646
              19.03708851                8.22488260               79.48722009                0.00010000               -0.12178092               -0.66862099               -0.16483377               -1.41542937                3.88456480               -1.14117599
              20.04005606                7.70614037               79.08515936                0.00010000                0.84648045               -1.33014999               -0.64950474               -1.74800429                4.11380763               -0.76360040
              21.05401812                7.17945721               78.68759437                0.00010000                1.77000403               -2.11718773               -1.16221215               -2.82501217                4.36967267               -0.38883846
              22.07545614                6.63721635               78.29580468                0.00010000                2.18444887               -2.05241885               -1.71408084               -4.93996241                4.58834033               -0.62946005
              23.09770710                6.08050643               77.90947755                0.00010000                1.86271081               -0.39581641               -2.25599932               -6.12829233                4.48537875               -1.42437083
              24.11271036                5.52595871               77.52192770                0.00010000                1.10496037                1.23671886               -2.66149814               -5.58300327                3.73965930               -3.22081608
              25.11980631                4.99079487               77.12421046                0.00010000                0.50363518                2.47887435               -2.92875699               -3.37735405                2.14036830               -4.60898138
              26.12278306                4.48527289               76.70530392                0.40748529                0.29767529                2.50151866               -3.04091664               -1.57796457                1.13810795               -5.69389569
              16.54713088               10.75059296               80.63262911                1.00000000               -0.00100230                0.04786676               -0.11464641               -0.00032539                0.00392713                0.54085531
              17.54712086               10.24582793               80.18515857                0.41224096               -0.02699640               -0.06947934                0.14207956               -0.04018517                0.10010364               -0.38417439
              18.54659095                9.74013841               79.73946146                0.00010000               -0.28642863               -0.22681095                0.38237970               -0.87076121                2.64073557               -1.58693112
              19.54139228                9.21902203               79.34300780                0.00010000               -0.09846671               -0.48022868               -0.41322427               -1.82388104                4.97792011               -1.38812852
              20.54462162                8.69498279               78.94637537                0.00010000                0.71695379               -0.81235236               -1.14444512               -2.36172617                4.84230598               -1.21204837
              21.55573136                8.16464320               78.55094875                0.00010000                1.37898761               -0.98126668               -1.84634040               -3.40855871                4.67757974               -1.13819317
              22.57220137                7.62565151               78.15629855                0.00010000                1.65934234               -0.61111745               -2.50677349               -4.57160886                4.33997661               -1.25518596
              23.58891821                7.08106720               77.76033654                0.00010000                1.49069056                0.39582522               -3.06935785               -5.07545829                3.74155850               -1.68097853
              24.60201518                6.54030553               77.35941635                0.00010000                1.08899045                1.50344347               -3.46583608               -4.27497462                2.79616447               -2.36230951
              25.61069802                6.01376681               76.94842824                0.00010000                0.77772869                2.16336449               -3.65049425               -2.35308565                1.49692499               -3.19741886
              26.61756976                5.50723836               76.52306781                0.40830754                0.68717389                2.04736615               -3.63117481               -0.97296526                0.79907099               -3.94349438
              17.05248617               11.75114186               80.49395040                1.00000000                0.00536576                0.06174781               -0.15098798                0.00071606                0.00092307                0.59623147
              18.05253982               11.24514362               80.04175277                0.44406833               -0.03019089               -0.06542706                0.12940189               -0.04783584                0.03328739               -0.35959855
              19.05188235               10.73804794               79.59011608                0.00010000               -0.33866556               -0.19798246                0.41024709               -0.89427117                2.97649791               -1.36432174
              20.04576651               10.21527802               79.19698863                0.00010000               -0.23409898               -0.23434840               -0.58794087               -1.92789774                5.73437415               -1.44048125
              21.04720037                9.68989332               78.80359473                0.00010000                0.47058554               -0.24432026               -1.50330686               -2.49377789                5.46824677               -1.37957080
              22.05517822                9.15983188               78.40934436                0.00010000                1.01997976               -0.12556998               -2.35674353               -3.26110949                5.06254247               -1.33163559
              23.06759996                8.62499400               78.01297799                0.00010000                1.31828433                0.27851934               -3.13040358               -3.91773137                4.47066232               -1.36134747
              24.08154391                8.08842293               77.61240130                0.00010000                1.34556446                0.95327610               -3.77252972               -4.00155097                3.66022042               -1.51116747
              25.09451125                7.55602758               77.20478599                0.00010000                1.21339301                1.63003643               -4.21605228               -3.24589957                2.62505190               -1.81837087
              26.10581177                7.03406216               76.78702632                0.00010000                1.09347028                1.98000012               -4.40788232               -1.77052674                1.38445254               -2.29363256
              27.11638066                6.52622021               76.35637905                0.40939894                1.05688886                1.82624453               -4.33507531               -0.72613528                0.70641335               -2.99961167
              17.55914169               12.75182792               80.35560851                1.00000000                0.01163750                0.07414057               -0.18924311                0.00214210                0.00258489                0.62669220
              18.55925807               12.24451939               79.89856852                0.47516124               -0.02852863               -0.05842894                0.11824436               -0.04326209                0.03520562               -0.35593833
              19.55857112               11.73617876               79.44215387                0.00010000               -0.41345628               -0.18104586                0.42660412               -0.77315136                3.32405263               -1.29927970
              20.55098894               11.21433507               79.05114380                0.00010000               -0.41894580                0.03680614               -0.71269855               -1.69936785                6.40143614               -1.33640545
              21.55019221               10.69009638               78.66001968                0.00010000                0.22097737                0.23018389               -1.76390142               -2.20508526                6.06915052               -1.29987966
              22.55540849               10.16213180               78.26693699                0.00010000                0.75317408                0.47078260               -2.73782221               -2.77055525                5.53392058               -1.23573329
              23.56525569                9.63122190               77.87019387                0.00010000                1.12225576                0.83386893               -3.61488291               -3.12447407                4.80857990               -1.19730296
              24.57785361                9.10013272               77.46768413                0.00010000                1.31011401                1.30069903               -4.34305501               -3.02730825                3.88748002               -1.22635185
              25.59145797                8.57290626               77.05696715                0.00010000                1.36206236                1.72557299               -4.85207959               -2.37239212                2.77249035               -1.37379537
              26.60509485                8.05336681               76.63549908                0.00010000                1.36364883                1.91242360               -5.07382616               -1.27555035                1.47060706               -1.71009117
              27.61873094                7.54376325               76.20090849                0.41029847                1.36360905                1.70947206               -4.95695860               -0.50739947                0.73383621               -2.32094151
              18.06714606               13.75262468               80.21736718                1.00000000                0.01776758                0.08376070               -0.22825757                0.00290371                0.00997877                0.62622953
              19.06732374               13.24397504               79.75538318                0.51196326               -0.02712110               -0.05118527                0.11223119               -0.03589694                0.06395465               -0.38068308
              20.06660364               12.73442702               79.29450873                0.00010000               -0.47311044               -0.16901887                0.44515348               -0.51413266                3.76292299               -1.11513573
              21.05786153               12.21601415               78.90682046                0.00010000               -0.56508573                0.28163631               -0.80833568               -1.18587119                7.12769576               -1.11191253
              22.05530193               11.69449700               78.51788115                0.00010000                0.03900349                0.59413167               -1.95887405               -1.65987430                6.67201628               -1.02842336
              23.05864160               11.16924753               78.12629868                0.00010000                0.59038169                0.85942953               -3.02577990               -2.07299192                6.04030513               -0.94442362
              24.06710956               10.64167138               77.73012246                0.00010000                1.03358890                1.16775612               -3.98735333               -2.25535326                5.22798470               -0.87773461
              25.07931338               10.11443692               77.32726633                0.00010000                1.33598789                1.50242462               -4.79015435               -2.09099083                4.22919373               -0.85676558
              26.09382932                9.59053904               76.91535747                0.00010000                1.50651988                1.78139112               -5.35629194               -1.56283719                3.02821185               -0.93514956
              27.10944378                9.07231063               76.49183862                0.00010000                1.58052386                1.88520465               -5.59996074               -0.79597891                1.61305300               -1.18999978
              28.12543980                8.56040965               76.05418771                0.41100746                1.59960197                1.66329251               -5.45089366               -0.28403828                0.79104071               -1.70468891
              18.57649904               14.75350313               80.07889848                0.98997925                0.02387461                0.09100349               -0.26090658                0.00152457                0.02061176                0.53245797
              19.57673779               14.24349568               79.61187374                0.42291477               -0.01248411               -0.04528378                0.10772290               -0.02614167                0.30701703               -0.38270929
              20.57624936               13.73279838               79.15066394                0.00010000               -0.47681246               -0.16498276                0.42951205               -0.14301181                4.36110541               -0.89259035
              21.56720154               13.21996779               78.76516785                0.00010000               -0.62440118                0.51037786               -0.89318019               -0.53083039                7.80733139               -0.68177851
              22.56376134               12.70197901               78.37893655                0.00010000               -0.02136331                0.80246191               -2.12098816               -0.91861241                7.25084620               -0.57905112
              23.56677427               12.17932039               77.98909354                0.00010000                0.55989510                1.07704086               -3.25533083               -1.17409255                6.51054341               -0.51412499
              24.57495924               11.65457702               77.59404211                0.00010000                1.01959274                1.36135545               -4.28020897               -1.24304486                5.63537998               -0.45889329
              25.58716613               11.13018121               77.19177603                0.00010000                1.36841360                1.63226391               -5.14108566               -1.11038485                4.58630425               -0.42851290
              26.60232751               10.60853409               76.77991271                0.00010000                1.60692693                1.83433676               -5.75397602               -0.77940272                3.31626973               -0.46088664
              27.61930467               10.09107091               76.35561956                0.00010000                1.72623122                1.89578854               -6.01849838               -0.35731062                1.77548700               -0.61194843
              28.63685213                9.57702910               75.91576781                0.41177589                1.75474683                1.71789239               -5.84204923               -0.08388379                0.86315356               -0.97433419
              19.08719145               15.75444475               79.93873142                0.97436248                0.03142055                0.09416144               -0.30091527               -0.06829719                0.25838237                0.44678530
              20.08750566               15.24306936               79.46883623                0.66924434                0.00399225               -0.04263198                0.10051563               -0.08908218                0.69942766               -0.37060002
              21.08727130               14.73112736               79.00791173                0.36778440               -0.47206838               -0.16710180                0.41888761                0.25981081                5.20957564               -0.85937459
              22.07806429               14.22622171               78.62877327                0.36282150               -0.48471082                0.62539122               -1.00766122                0.05721885                8.52295561               -0.29542288
              23.07757708               13.71054624               78.24458205                0.36106781                0.22487277                0.85672226               -2.28083058               -0.39009338                7.66748569               -0.27017771
              24.08256175               13.19078835               77.85636884                0.36220447                0.69053811                1.14679564               -3.45642948               -0.50364015                6.85698111               -0.24708749
              25.09138784               12.66889849               77.46255748                0.36663095                1.02934361                1.43214684               -4.51982113               -0.54244727                5.94010398               -0.23454474
              26.10314862               12.14708219               77.06133450                0.37422271                1.29818658                1.69009796               -5.41900546               -0.48538655                4.88652269               -0.23457134
              27.11735157               11.62722578               76.65046845                0.38506375                1.53269671                1.86916919               -6.06964666               -0.34038325                3.63462183               -0.26949081
              28.13380255               11.11022640               76.22712912                0.40000851                1.72470801                1.91554949               -6.36660257               -0.17312535                2.05174105               -0.36887780
              29.15184573               10.59476750               75.78702305                0.70614956                1.80431830                1.77384006               -6.19081046               -0.04653007                1.08080947               -0.63715426
              14.45918026                5.89346615               82.32131770                1.00000000               -0.02257069                0.02048394               -0.05968959                0.04102773               -0.39913245                0.47626205
              15.45895455                5.38857825               81.89410794                1.00000000               -0.06362965               -0.05349545                0.18544796                0.04722269               -0.49620643                0.05807390
              16.45790766                4.88350651               81.46454152                1.00000000               -0.14164358               -0.12026875                0.42185752                0.04649068               -0.53034107               -0.03485044
              17.45612168                4.37806117               81.03654747                0.68898211               -0.22426714               -0.19492353                0.65844450                0.01812685               -0.48707846               -0.24616569
              18.45342232                3.87190316               80.60799567                0.50852878               -0.30358760               -0.26954480                0.89146929                0.00503571               -0.45008071               -0.27953058
              19.45004993                3.36517118               80.18118411                0.19041451               -0.53969647               -0.36149043                1.15713042               -0.26810063                0.25319573               -0.56566602
              20.44262839                2.85291781               79.76734599                0.00010000               -1.13998525               -0.11225503                1.13051842               -3.36955082                6.39658424               -1.56810602
              21.42725022                2.27763008               79.45879416                0.00010000                0.65274823               -1.19573013               -0.11069434               -3.15522175               12.61171344               -0.51014632
              22.45568336                1.68895480               79.15831772                0.00010000                4.76661841               -1.65337634               -1.25611110               -3.28246488               13.23742076               -0.26301649
              23.52258259                1.07914668               78.86192583                1.00000000                3.63493632                0.64358977               -2.19372311               -3.38912634                6.53928506               -0.10545949
              24.52838208                0.53938132               78.43482862                1.00000000                0.57994933                0.46532651               -1.67504663                0.07647210               -0.01429177               -0.11441939
              14.96447843                6.89367099               82.18237991                1.00000000               -0.00718412                0.01995113               -0.08402667                0.00381656                0.00833095                0.65655556
              15.96440659                6.38804329               81.75506482                1.00000000               -0.04236631               -0.05405498                0.16336379                0.01125845                0.07475778                0.08204198
              16.96363111                5.88230383               81.32865920                1.00000000               -0.11509852               -0.12230468                0.40419385                0.00632314                0.15199043               -0.20867807
              17.96210462                5.37611194               80.90271514                0.88449510               -0.18567192               -0.20465514                0.65234392               -0.00956753                0.23807104               -0.17659099
              18.95991767                4.86920771               80.47810583                0.74959739               -0.26215144               -0.28347430                0.90758702               -0.02412620                0.25942936               -0.19865478
              19.95686159                4.36155628               80.05281518                0.44282535               -0.36071172               -0.37661503                1.19361974               -0.11684912                0.37715301               -0.39697982
              20.95270344                3.85179526               79.63109638                0.00010000                1.04089557               -0.32591516                1.51019657               -3.77620194                6.26465542               -0.96857613
              21.97767951                3.26567278               79.32401456                0.00010000                3.46984834               -2.09379966               -0.21155574               -5.00021140               11.97962838               -0.83692152
              23.02210040                2.67242104               79.01588597                0.00010000                4.28992805               -1.49379605               -1.17214844               -4.17962883               12.23402267               -1.28272271
              24.06347807                2.08558258               78.71418459                0.92290181                2.34058822                0.62501267               -2.04640953               -2.23262177                6.30709293               -0.12537044
              25.06891217                1.54403459               78.28709930                1.00000000                0.54341005                0.43883177               -1.49700720               -0.01287261                0.00303940               -0.16682612
              15.47051198                7.89386517               82.04653429                1.00000000                0.00349022                0.02252123               -0.10757308               -0.00156285                0.13882292                0.76441121
              16.47054688                7.38749715               81.61623008                1.00000000               -0.02732470               -0.05200934                0.14381038                0.00023751                0.32419669                0.01580479
              17.46996548                6.88106042               81.18923854                0.00010000               -0.07602193               -0.12098929                0.39073774               -0.03528198                0.91277543               -0.64379482
              18.46902644                6.37396807               80.77050528                0.00010000               -0.12350164               -0.64020950                0.64653183               -0.31739955                1.27023507               -0.53847010
              19.46749545                5.86623367               80.35040479                0.00010000               -0.19505229               -1.03869221                0.91350252               -0.26995506                1.12516954               -0.37326928
              20.46512540                5.35763888               79.92874272                0.00010000               -0.22537979               -1.55331273                1.22904449                0.08480741                1.26548472                0.02170845
              21.46298786                4.84639951               79.51183409                0.00010000                2.07474077               -3.06973908                1.58436490               -3.55645339                5.90511638                1.06377610
              22.50662021                4.23575408               79.18430329                0.00010000                4.45965583               -2.34047320               -0.55819823               -6.80334204                9.81585501               -1.24283526
              23.55218097                3.65907888               78.85331024                0.00010000                4.98481981               -1.01508544               -1.29714955               -5.71995751               11.74760437               -3.14169412
              24.60631661                3.09164694               78.56621793                0.00010000                2.95198256                1.03809172               -1.85812558               -5.40596184                7.10157299               -6.10768414
              25.61122062                2.54815796               78.13916051                0.40103122                0.49040159                2.84267310               -1.26576830               -4.36969106                0.05649435               -5.02900075
              15.97718323                8.89412141               81.90938158                1.00000000                0.00328697                0.03221061               -0.12519750               -0.00095564                0.23167650                0.63623026
              16.97721610                8.38700311               81.47567968                0.53375822               -0.03643377               -0.05298559                0.13192389               -0.00116147                0.38246136               -0.29669410
              17.97645455                7.87988404               81.04467718                0.00010000               -0.33163581               -0.15466904                0.36719239               -0.46843183                1.32648313               -1.12461584
              18.97058338                7.36330775               80.62987525                0.00010000               -0.28033985               -0.90003200                0.25001768               -1.11792052                2.25300390               -1.12400901
              19.97084775                6.84843387               80.21783798                0.00010000                0.39042656               -1.61795831                0.14194673               -1.03373623                2.54099121               -0.86576888
              20.97839191                6.33049003               79.80999619                0.00010000                1.63057071               -2.61067719               -0.00274833               -1.60555806                3.36901094               -0.25553687
              22.00345917                5.79040048               79.41763182                0.00010000                2.52706892               -4.11400215               -0.48061352               -3.26826836                4.46671342                0.76307074
              23.02893329                5.21886331               79.03932645                0.00010000                2.41746156               -1.22954414               -1.19244541               -5.81027059                5.74467873               -1.79446681
              24.05180840                4.65211933               78.67795458                0.00010000                1.86732340                0.08991447               -1.79534365               -6.11598190                5.64324875               -4.27396050
              25.06627976                4.10634442               78.29933254                0.00010000                0.83439561                1.84986626               -2.03637069               -5.39748283                3.56709948               -9.45945349
              26.06849631                3.60088805               77.89525351                0.40176678                0.22165542                3.75459069               -1.98757483               -3.44252629                2.48199255               -8.96352235
              16.48472948                9.89450938               81.77072618                1.00000000                0.00315440                0.04503130               -0.14163410                0.00112708                0.00432165                0.52838797
              17.48476102                9.38643744               81.33043584                0.42918478               -0.02186353               -0.06299523                0.14685639               -0.01724161                0.29064902               -0.45186777
              18.48429221                8.87796704               80.89567075                0.00010000               -0.33214094               -0.21637776                0.37098184               -0.70684921                1.81983694               -1.49777150
              19.47811820                8.35596743               80.48610391                0.00010000               -0.23268812               -0.64216630               -0.07198839               -1.41968313                3.14225885               -1.40568409
              20.47963845                7.83387451               80.07949746                0.00010000                0.64647102               -1.23219917               -0.50603167               -1.69368282                3.34855863               -1.33138114
              21.49104762                7.30542534               79.67706721                0.00010000                1.48053776               -1.90508969               -0.97584108               -2.60966606                3.55959123               -1.23442237
              22.50924920                6.76411946               79.27987538                0.00010000                1.88241603               -1.80885249               -1.51168661               -4.41428823                3.76918862               -1.58440034
              23.52869595                6.21116320               78.88803039                0.00010000                1.65655137               -0.34356831               -2.06337964               -5.42853992                3.78373680               -2.39495346
              24.54238023                5.66087717               78.49632650                0.00010000                1.04511444                1.08405158               -2.49488944               -4.95812976                3.25455606               -4.19822160
              25.54959823                5.12864426               78.09614594                0.00010000                0.54513037                2.10772399               -2.73400991               -3.02482353                1.90759575               -5.66361729
              26.55328284                4.62324977               77.67706872                0.40259507                0.36846020                1.97512609               -2.70171757               -1.43320678                1.04553457               -6.73484957
              16.99334966               10.89502204               81.63124175                1.00000000                0.00639448                0.05774286               -0.15993238               -0.00040692                0.00435641                0.52097577
              17.99341361               10.38574320               81.18660219                0.44049931               -0.02810436               -0.07091619                0.14499443               -0.04250534                0.09151488               -0.36230797
              18.99278758                9.87555649               80.74356246                0.00010000               -0.35656793               -0.23125028                0.43117002               -0.84701810                2.10912502               -1.49464292
              19.98628225                9.35046442               80.33944081                0.00010000               -0.26356955               -0.44269973               -0.31407081               -1.75394525                3.93431593               -1.56247133
              20.98751618                8.82378988               79.93577725                0.00010000                0.48356923               -0.71567826               -0.99834073               -2.18730568                3.81954408               -1.61598197
              21.99595363                8.29238823               79.53359675                0.00010000                1.09596781               -0.83624097               -1.66177034               -3.06736718                3.67664304               -1.73686734
              23.00943554                7.75422343               79.13254554                0.00010000                1.38255740               -0.48736863               -2.29827562               -4.03495417                3.41844882               -2.00721876
              24.02360478                7.21199195               78.73107335                0.00010000                1.28646003                0.40147385               -2.85693706               -4.42802504                2.98744165               -2.55167031
              25.03516474                6.67380036               78.32617034                0.00010000                0.99029535                1.36459039               -3.26742690               -3.69415650                2.28460474               -3.34014608
              26.04341069                6.14849890               77.91324124                0.00010000                0.77282108                1.88589152               -3.46164862               -2.01879072                1.25522919               -4.20818757
              27.05062116                5.64039057               77.48812256                0.40335231                0.72104745                1.65296149               -3.40411358               -0.82189825                0.69747528               -4.88835923
              17.50327902               11.89566424               81.49225188                1.00000000                0.00974539                0.07022801               -0.18591307                0.00077093                0.00085990                0.56992611
              18.50337647               11.38501911               81.04311765                0.47458904               -0.03241936               -0.07073137                0.14090715               -0.04740255                0.03273018               -0.33680167
              19.50263063               10.87334203               80.59453434                0.00010000               -0.42852847               -0.21272631                0.46397186               -0.83509791                2.33933076               -1.28736113
              20.49480590               10.34711343               80.19167672                0.00010000               -0.43310544               -0.19997740               -0.48648314               -1.78491270                4.46805440               -1.53685830
              21.49396852                9.81956094               79.78939109                0.00010000                0.22304183               -0.16951837               -1.35805687               -2.24260244                4.24128713               -1.64267889
              22.49926674                9.28870052               79.38687519                0.00010000                0.74889416               -0.03448512               -2.17356206               -2.87841755                3.88332335               -1.75057571
              23.50894640                8.75437209               78.98303345                0.00010000                1.06458857                0.33579578               -2.91829693               -3.40742517                3.39350688               -1.92678319
              24.52055851                8.21919268               78.57625223                0.00010000                1.15218719                0.92452446               -3.54356952               -3.43017918                2.76697516               -2.21495633
              25.53199015                7.68816898               78.16434613                0.00010000                1.10368522                1.49512682               -3.98100161               -2.73519555                1.99358751               -2.63518299
              26.54263221                7.16636209               77.74476193                0.00010000                1.05356894                1.75465149               -4.16567519               -1.45967681                1.06280551               -3.15744521
              27.55306153                6.65630900               77.31504668                0.40412859                1.04293128                1.55875228               -4.05705208               -0.57709973                0.56833334               -3.76996759
              18.01465534               12.89642660               81.35357636                1.00000000                0.01324251                0.08029428               -0.21472226                0.00234228                0.00222677                0.59713497
              19.01478776               12.38432857               80.89986262                0.50754369               -0.03320206               -0.06538003                0.13703431               -0.04058806                0.03459189               -0.32876378
              20.01399130               11.87130196               80.44676055                0.00010000               -0.52113383               -0.19845975                0.48473908               -0.68315587                2.60187414               -1.22209364
              21.00436509               11.34646487               80.04456882                0.00010000               -0.64571246                0.06387179               -0.61182287               -1.50530404                4.96554345               -1.37486324
              22.00107705               10.82039952               79.64316590                0.00010000               -0.03954763                0.28969641               -1.62238209               -1.92655024                4.67687465               -1.45286838
              23.00357413               10.29169853               79.24060240                0.00010000                0.48589154                0.53240910               -2.56003114               -2.40533542                4.19493089               -1.50562349
              24.01079488                9.76093934               78.83536777                0.00010000                0.88150872                0.85914597               -3.40598181               -2.68572862                3.57533771               -1.58548332
              25.02120431                9.23048244               78.42585964                0.00010000                1.12482680                1.25712141               -4.10819524               -2.56486380                2.84414173               -1.72787739
              26.03329141                8.70370290               78.01032173                0.00010000                1.24364119                1.60019582               -4.59410877               -1.97172499                2.01151800               -1.96498091
              27.04607713                8.18359193               77.58688356                0.00010000                1.29469711                1.72425573               -4.79014823               -1.03722606                1.06673560               -2.32954143
              28.05918536                7.67156561               77.15363784                0.40498401                1.31082247                1.51622106               -4.64154412               -0.39580211                0.55462847               -2.86223272
              18.52752191               13.89727013               81.21499278                1.00000000                0.01674368                0.08630889               -0.24428361                0.00320037                0.01181217                0.59798902
              19.52768935               13.38371151               80.75665544                0.54805811               -0.03453486               -0.05826068                0.13738322               -0.03220785                0.06145798               -0.34799149
              20.52683122               12.86937284               80.29932333                0.00010000               -0.60435433               -0.18698701                0.50603519               -0.39779913                2.96428087               -1.04609557
              21.51560226               12.34839087               79.89927259                0.00010000               -0.83136788                0.31552340               -0.70753532               -0.96260679                5.55241477               -1.11045505
              22.51020386               11.82535487               79.49902626                0.00010000               -0.24910300                0.65879527               -1.82136170               -1.40287870                5.14616756               -1.10129875
              23.51062020               11.29934870               79.09701003                0.00010000                0.31220336                0.91295267               -2.85472502               -1.77709163                4.56668375               -1.09598744
              24.51644793               10.77155501               78.69149157                0.00010000                0.79387368                1.18426747               -3.78574331               -1.92622323                3.85886536               -1.11155217
              25.52649768               10.24433511               78.28091239                0.00010000                1.14991155                1.46327754               -4.55925671               -1.76274740                3.05409872               -1.16880717
              26.53944616                9.72017290               77.86365804                0.00010000                1.37636499                1.68065030               -5.09540465               -1.29436609                2.15556239               -1.30426282
              27.55402498                9.20084721               77.43798911                0.00010000                1.48759758                1.73946350               -5.30716674               -0.64564492                1.14395995               -1.56692416
              28.56919811                8.68663342               77.00204874                0.40565323                1.51731310                1.52947210               -5.12308765               -0.21757432                0.58301738               -2.00793216
              19.04183658               14.89815278               81.07625498                1.00000000                0.02043190                0.09002001               -0.26861698                0.00197909                0.01469861                0.50341828
              20.04204089               14.38316336               80.61313985                0.45662533               -0.02403084               -0.05294997                0.14045876               -0.02440429                0.27944764               -0.34779334
              21.04135596               13.86756222               80.15537182                0.00010000               -0.64549871               -0.18249788                0.49884464                0.00567032                3.48794334               -0.83068854
              22.02913092               13.35277534               79.75677145                0.00010000               -0.96471590                0.59815795               -0.78947950               -0.34090151                6.12462061               -0.66773467
              23.02206164               12.83357542               79.35843669                0.00010000               -0.36493789                0.88463067               -1.98237148               -0.74840349                5.61670851               -0.60215359
              24.02183216               12.30995758               78.95746538                0.00010000                0.26111848                1.13312183               -3.08533359               -1.00358932                4.93072433               -0.57874066
              25.02728401               11.78462469               78.55242673                0.00010000                0.77496563                1.37796304               -4.08112757               -1.06014968                4.15784482               -0.56741760
              26.03733147               11.25974799               78.14185712                0.00010000                1.18039906                1.60178659               -4.91275297               -0.93506039                3.30422021               -0.57838254
              27.05089199               10.73731591               77.72419396                0.00010000                1.46861173                1.75711367               -5.49406129               -0.64550971                2.35167378               -0.63892328
              28.06670371               10.21838120               77.29756466                0.00010000                1.61847276                1.78574669               -5.72415575               -0.29035325                1.25211715               -0.78801271
              29.08326145                9.70215506               76.85969964                0.40643343                1.65577371                1.61311300               -5.51172629               -0.05916017                0.62888919               -1.09380435
              19.55754033               15.89907053               80.93577409                0.98683993                0.02514941                0.09177496               -0.29405551               -0.07142610                0.23894213                0.41498232
              20.55779182               15.38265251               80.47005081                0.68475198               -0.01038421               -0.05108479                0.13677337               -0.09228945                0.64462603               -0.33396172
              21.55733264               14.86572288               80.01253976                0.36715004               -0.75103961               -0.18393376                0.49394657                0.48274430                4.24739237               -0.78842670
              22.54277103               14.36035403               79.61927946                0.36253168               -0.96395496                0.75786886               -0.89296157                0.23024114                6.73157356               -0.27418210
              23.53805355               13.84304748               79.22252717                0.36074174               -0.16359418                0.94720617               -2.13025989               -0.31795399                5.95976820               -0.26557988
              24.53949915               13.32201114               78.82277729                0.36209678                0.37004917                1.20535565               -3.27356944               -0.42996220                5.20805100               -0.26066908
              25.54545453               12.79911427               78.41859939                0.36573520                0.78030547                1.44895784               -4.30751800               -0.46496320                4.39196396               -0.26539874
              26.55510526               12.27637084               78.00869884                0.37255154                1.12241115                1.66228526               -5.17733996               -0.41257692                3.52893120               -0.27983397
              27.56790275               11.75531517               77.59166865                0.38240614                1.41367519                1.79992641               -5.79620436               -0.28935883                2.59174700               -0.32155319
              28.58337876               11.23656214               77.16568482                0.39582960                1.62822164                1.81809455               -6.05836259               -0.15346938                1.46557997               -0.41264695
              29.60046718               10.71889568               76.72756432                0.70341328                1.70884240                1.67406235               -5.84632229               -0.04607242                0.80262115               -0.63678701
              14.88112940                6.03728287               83.32024549                1.00000000               -0.00309995                0.04422064               -0.14819518                0.05098950               -0.40799929                0.47619653
              15.88109840                5.52832115               82.89571010                1.00000000               -0.05170173               -0.04036951                0.13705176                0.05698879               -0.51333257                0.06045499
              16.88009537                5.01915062               82.46871237                1.00000000               -0.14298075               -0.11582404                0.40952528                0.05544768               -0.55361268               -0.02995473
              17.87823879                4.50950455               82.04329995                0.69248700               -0.23894523               -0.20439148                0.68532838                0.01939822               -0.51129373               -0.23825771
              18.87531646                3.99897465               81.61728216                0.52273499               -0.33038322               -0.29617869                0.95949945                0.00542969               -0.45725929               -0.26496807
              19.87163112                3.48770192               81.19338104                0.22748103               -0.47595412               -0.40633894                1.27276801               -0.18372716                0.15624403               -0.56130757
              20.86579738                2.97256070               80.78018885                0.00010000               -0.80868338               -0.32534743                1.40772591               -2.74910928                5.38669396               -1.42724021
              21.85545745                2.40708085               80.45869936                0.00010000                0.89996401               -1.21005957                0.08987822               -2.37117856               11.01524914               -0.60133770
              22.88379666                1.82874807               80.14646351                0.00010000                4.57759579               -1.64898304               -1.24514073               -2.74790601               11.48195421               -0.04647622
              23.94700937                1.22511294               79.83997812                1.00000000                3.44813661                0.62610453               -2.20510512               -3.03582260                5.74745127               -0.13386183
              24.95275939                0.68526789               79.41857882                1.00000000                0.57500216                0.42108562               -1.58922747                0.04958469               -0.00946464               -0.11499545
              15.39060102                7.03772508               83.18110530                1.00000000                0.01333962                0.03991751               -0.16529245                0.00803129                0.00086857                0.65283478
              16.39073441                6.52791745               82.75648926                1.00000000               -0.02714378               -0.04322779                0.12256939                0.01539775                0.06205065                0.08488149
              17.39005814                6.01799238               82.33270231                1.00000000               -0.11068295               -0.12000337                0.39992971                0.00658594                0.14213469               -0.19855456
              18.38852075                5.50746064               81.90946071                0.89414715               -0.18930317               -0.22023444                0.68781249               -0.01297923                0.24510893               -0.16380228
              19.38627208                4.99601287               81.48767635                0.76800470               -0.27599636               -0.31668678                0.99396956               -0.02908698                0.30428162               -0.18478236
              20.38300083                4.48363853               81.06555537                0.48841757               -0.38276294               -0.42975134                1.34276902               -0.11099180                0.46854007               -0.39083155
              21.37861682                3.96930723               80.64725982                0.06636333                1.03255791               -0.46469283                1.71650637               -3.04907795                5.29670042               -0.88669285
              22.40365198                3.39498026               80.32199178                0.00010000                3.43423689               -2.04783527               -0.65809212               -3.98301874                9.70755803               -0.42161543
              23.44730156                2.81225824               80.00490012                0.00010000                4.23696255               -1.61637426               -0.89772991               -3.52208099               10.66604061               -1.29957075
              24.48839123                2.23137398               79.69426333                0.99311248                2.28993668                0.57327533               -1.89908026               -1.89697120                5.58116438               -0.13293262
              25.49310029                1.68947874               79.27306720                1.00000000                0.47090544                0.37057236               -1.28860200               -0.05551607                0.00000701               -0.13836112
              15.90090527                8.03808122               83.04507216                1.00000000                0.02337794                0.03556180               -0.18010487                0.00001818                0.13063839                0.75979103
              16.90113905                7.52745659               82.61750699                1.00000000               -0.01106851               -0.04385128                0.11174552               -0.00123696                0.31334674                0.02300286
              17.90068390                7.01675055               82.19320197                0.00010000               -0.05901658               -0.12037588                0.39652082               -0.05723869                0.90927160               -0.63362640
              18.89995872                6.50509986               81.77724441                0.00010000               -0.10635330               -0.65725001                0.68950105               -0.37370139                1.30148129               -0.71816246
              19.89855683                5.99264092               81.36013667                0.00010000               -0.19208965               -1.04175634                1.01332202               -0.37049245                1.22389618               -0.75551634
              20.89611692                5.47910689               80.94200924                0.00010000               -0.25413719               -1.50433995                1.40436920               -0.07404652                1.44548881               -0.62091547
              21.89347409                4.96326684               80.52897859                0.00010000                1.83645710               -2.76936066                1.82009198               -2.97728561                4.84348225               -0.07850035
              22.93284607                4.36612415               80.17899829                0.00010000                4.17436110               -2.28065834               -0.19421908               -5.78505089                7.90902360               -0.63879562
              23.97696131                3.79642058               79.84128009                0.00010000                4.95016875               -1.25912736               -0.99556311               -5.00123470               10.60384257               -3.68143382
              25.03184944                3.23657844               79.54889702                0.00010000                2.92391192                0.68491312               -1.57329148               -5.02650741                6.55122261               -6.36726284
              26.03543955                2.69267933               79.12795015                0.39666002                0.35901087                2.52752950               -0.96821511               -4.25077516                0.04167412               -5.50544118
              16.41185063                9.03843631               82.90779874                1.00000000                0.01897048                0.04054505               -0.18714362               -0.00336612                0.21881260                0.63114973
              17.41204034                8.52704043               82.47689186                0.55564256               -0.02902687               -0.04416305                0.11022337               -0.01165599                0.35761262               -0.27187707
              18.41127010                8.01558486               82.04845713                0.00010000               -0.34419869               -0.15035547                0.38423528               -0.50941740                1.11590249               -1.09991969
              19.40515636                7.49431564               81.63272899                0.00010000               -0.32074458               -0.89482530                0.30635979               -1.21294292                1.86985055               -1.47056532
              20.40485520                6.97517774               81.21985928                0.00010000                0.28688024               -1.55337195                0.23992222               -1.16284054                2.15295657               -1.58744653
              21.41089397                6.45355173               80.81079513                0.00010000                1.35993226               -2.39693397                0.13761212               -1.62713152                2.80017130               -1.42828582
              22.43205385                5.91392001               80.41379261                0.00010000                2.19516291               -3.63261126               -0.27727593               -2.88909985                3.49765413               -0.79573709
              23.45479723                5.34936709               80.02799512                0.00010000                2.23843576               -1.26318413               -0.94367472               -5.13798347                4.79541230               -2.43311820
              24.47682256                4.78707569               79.66094818                0.00010000                1.84025555               -0.13210301               -1.57173224               -5.57851137                4.94554897               -5.07738825
              25.49160234                4.24507224               79.27958136                0.00010000                0.95302220                1.35176880               -1.93073996               -5.08398989                3.09552164              -10.23295974
              26.49588301                3.74002933               78.87646849                0.39704993                0.42806703                3.25137530               -1.83255042               -3.18385901                2.23160914              -10.07188748
              16.92362972               10.03889212               82.76903901                1.00000000                0.01276616                0.05252301               -0.19184369                0.00044507                0.00789035                0.51965960
              17.92375738                9.52657333               82.33186282                0.45686932               -0.02046867               -0.05702354                0.13765645               -0.02792857                0.26012974               -0.42097284
              18.92322034                9.01374345               81.89955251                0.00010000               -0.38251958               -0.21014529                0.39934535               -0.73526162                1.42488338               -1.42757119
              19.91610699                8.48720336               81.48578032                0.00010000               -0.35782038               -0.60579170               -0.00630858               -1.47312593                2.40176337               -1.67088184
              20.91606393                7.96157348               81.07503873                0.00010000                0.43625174               -1.12041100               -0.40697973               -1.70168948                2.57939600               -1.90628406
              21.92483202                7.43116821               80.66807754                0.00010000                1.19063986               -1.67269265               -0.85078143               -2.46784492                2.71499182               -2.08781947
              22.93987673                6.89061462               80.26557095                0.00010000                1.60493495               -1.57854731               -1.37475655               -3.96339232                2.89086262               -2.54387047
              23.95693072                6.34086046               79.86820996                0.00010000                1.49045986               -0.37775651               -1.93385562               -4.82955398                2.97198782               -3.32880816
              24.96968593                5.79377852               79.47202992                0.00010000                1.01426420                0.92036436               -2.41349089               -4.42649148                2.62938396               -5.13703686
              25.97721600                5.26361382               79.06953026                0.00010000                0.60811337                1.79574105               -2.66210596               -2.69118225                1.57164516               -6.63033972
              26.98184820                4.75770684               78.65126956                0.39782182                0.46321926                1.57319386               -2.56455717               -1.29701738                0.89210170               -7.76284845
              17.43649711               11.03948677               82.62943046                1.00000000                0.01333298                0.06568234               -0.19857841               -0.00157645                0.00444433                0.50510742
              18.43663044               10.52589996               82.18805846                0.47063505               -0.02811374               -0.07130867                0.14434225               -0.04751131                0.08088040               -0.34140350
              19.43593484               10.01138196               81.74808486                0.00010000               -0.43833141               -0.23204114                0.46527716               -0.84052980                1.57641472               -1.41042502
              20.42786381                9.48219980               81.33672638                0.00010000               -0.45391367               -0.38952557               -0.24063765               -1.72242840                2.89036517               -1.74086023
              21.42685656                8.95276952               80.92640855                0.00010000                0.23160581               -0.59611929               -0.89446468               -2.06691136                2.78431440               -2.02417173
              22.43249593                8.42009787               80.51771335                0.00010000                0.81185928               -0.66767467               -1.54510817               -2.80250742                2.64167932               -2.34032958
              23.44309375                7.88234907               80.11033303                0.00010000                1.12731565               -0.34892564               -2.18946857               -3.60347904                2.42701920               -2.75446207
              24.45504224                7.34181196               79.70319780                0.00010000                1.12228145                0.42385277               -2.78042297               -3.91130380                2.12401740               -3.39294523
              25.46553938                6.80548298               79.29406781                0.00010000                0.94040675                1.26970026               -3.23197224               -3.23187622                1.64715157               -4.23604392
              26.47385038                6.28098707               78.87919527                0.00010000                0.81086222                1.68285599               -3.43739811               -1.74192200                0.92499053               -5.12081614
              27.48175662                5.77149321               78.45498554                0.39848036                0.79062449                1.37993735               -3.33068429               -0.68290401                0.55688133               -5.77313762
              17.95077182               12.04020577               82.49023213                1.00000000                0.01401480                0.07714720               -0.21457531               -0.00003051                0.00046643                0.54664812
              18.95091196               11.52514716               82.04457092                0.50638628               -0.03309585               -0.07468156                0.14674822               -0.04839315                0.02882810               -0.31644870
              19.95010990               11.00910262               81.59939552                0.00010000               -0.53205533               -0.22170299                0.49943789               -0.78833730                1.70143541               -1.21872348
              20.94027086               10.47941285               81.18725897                0.00010000               -0.66411308               -0.14789372               -0.40675593               -1.67104417                3.20208210               -1.64177530
              21.93682764                9.94965109               80.77643360                0.00010000               -0.05342669               -0.06828389               -1.24866441               -2.03792845                3.00099265               -1.91434716
              22.93920232                9.41781472               80.36587311                0.00010000                0.46327144                0.08933101               -2.05574622               -2.57028389                2.66956547               -2.17578167
              23.94609307                8.88363611               79.95461205                0.00010000                0.81842041                0.43525223               -2.81580661               -3.00328715                2.25615685               -2.48820008
              24.95557073                8.34933752               79.54152991                0.00010000                0.98901154                0.95515250               -3.47519981               -2.98616696                1.79143862               -2.88851683
              25.96587330                7.81917253               79.12516596                0.00010000                1.03983004                1.44058807               -3.95091269               -2.34707756                1.27771586               -3.38497810
              26.97636733                7.29727094               78.70371282                0.00010000                1.06522658                1.62808687               -4.15585700               -1.23019280                0.68550646               -3.92806247
              27.98717783                6.78530559               78.27523801                0.39925023                1.08104961                1.40116642               -4.02274489               -0.46861864                0.40501223               -4.47597505
              18.46661372               13.04102972               82.35131406                1.00000000                0.01520036                0.08500368               -0.23470286                0.00191953                0.00161640                0.57048515
              19.46676572               12.52440633               81.90130920                0.54122725               -0.03556584               -0.07045870                0.14827018               -0.03857152                0.03081467               -0.30494734
              20.46590240               12.00694790               81.45184865                0.00010000               -0.64356310               -0.21043919                0.52241161               -0.60010921                1.87961234               -1.15452323
              21.45389446               11.47924193               81.03890735                0.00010000               -0.91031386                0.10947868               -0.52711598               -1.33040089                3.53051678               -1.42469144
              22.44769612               10.95140384               80.62757204                0.00010000               -0.33946115                0.37745728               -1.50680805               -1.68486167                3.27087098               -1.61861853
              23.44710524               10.42188449               80.21573637                0.00010000                0.19045389                0.63250415               -2.43754908               -2.10210451                2.82304541               -1.78773157
              24.45150520                9.89105411               79.80207423                0.00010000                0.63386214                0.93726366               -3.30050742               -2.33390229                2.29087820               -1.97975745
              25.45978248                9.36091501               79.38552022                0.00010000                0.95796013                1.28628835               -4.03664590               -2.20506075                1.73875310               -2.22116067
              26.47066441                8.83429474               78.96508497                0.00010000                1.16654918                1.57045147               -4.55974645               -1.66878281                1.19170890               -2.52734180
              27.48311346                8.31354880               78.53969611                0.00010000                1.28252757                1.65100545               -4.77657261               -0.86066287                0.62742042               -2.90485822
              28.49631496                7.79951654               78.10807761                0.40011185                1.32014928                1.44418102               -4.61003777               -0.31307312                0.36231339               -3.36123868
              18.98405699               14.04190584               82.21248151                1.00000000                0.01653639                0.08802338               -0.25585564                0.00369259                0.01194138                0.57166867
              19.98422235               13.52373798               81.75813085                0.58541439               -0.03924379               -0.06309384                0.15286697               -0.02839104                0.05447740               -0.31817194
              20.98327211               13.00489384               81.30462944                0.00010000               -0.75077264               -0.19898603                0.54491019               -0.28306718                2.16770040               -0.98601390
              21.96920690               12.48160242               80.89266976                0.00010000               -1.13921356                0.36821479               -0.61681808               -0.74794914                3.97994206               -1.12014950
              22.96048784               11.95720024               80.48145392                0.00010000               -0.58484674                0.75155957               -1.69800571               -1.17160859                3.60607795               -1.18769182
              23.95750996               11.43046480               80.06920418                0.00010000               -0.00516668                1.00469131               -2.72458776               -1.52626893                3.06006513               -1.26238771
              24.96038451               10.90238138               79.65440760                0.00010000                0.53594627                1.25333719               -3.67363886               -1.65911616                2.44157100               -1.35867716
              25.96822889               10.37506329               79.23608120                0.00010000                0.97396701                1.49560537               -4.48174803               -1.50495007                1.82443592               -1.48851231
              26.97986385                9.85058156               78.81344937                0.00010000                1.28516945                1.67251342               -5.05474204               -1.08915950                1.23440463               -1.67248438
              27.99393228                9.33029105               78.38569529                0.00010000                1.45585253                1.70330711               -5.28702246               -0.53322413                0.64552467               -1.93494618
              29.00898090                8.81418921               77.95172595                0.40073859                1.50486198                1.50604478               -5.08766523               -0.16793443                0.36215511               -2.30058960
              19.50302328               15.04279018               82.07352614                1.00000000                0.01866198                0.09001618               -0.27639741                0.00342045                0.01399048                0.48020395
              20.50320990               14.52314445               81.61468292                0.49224981               -0.03233307               -0.05848911                0.16266033               -0.02059230                0.25273480               -0.31832659
              21.50237662               14.00296818               81.16064083                0.00010000               -0.82904121               -0.19354497                0.54244863                0.15900771                2.62033493               -0.77544688
              22.48662908               13.48660623               80.74937826                0.00010000               -1.34875237                0.70598061               -0.68984326               -0.15158459                4.44690592               -0.66098447
              23.47540157               12.96643503               80.33928912                0.00010000               -0.76151812                0.99267194               -1.84684848               -0.59205627                3.96931349               -0.63405905
              24.47139872               12.44197832               79.92738687                0.00010000               -0.08385910                1.22431757               -2.94244032               -0.85867953                3.31714649               -0.65366955
              25.47372439               11.91612085               79.51241956                0.00010000                0.50422915                1.44319114               -3.95731638               -0.91150702                2.63110716               -0.68640870
              26.48148330               11.39082712               79.09352097                0.00010000                0.99645296                1.63693958               -4.82539788               -0.79733789                1.96727813               -0.73716076
              27.49365345               10.86774501               78.67003149                0.00010000                1.36790165                1.76318894               -5.44561386               -0.54377412                1.33871973               -0.82288951
              28.50884133               10.34761494               78.24113645                0.00010000                1.57532502                1.77210412               -5.69778088               -0.24106836                0.69977967               -0.96688361
              29.52515995                9.82963743               77.80553328                0.40147151                1.63186196                1.60565980               -5.46883609               -0.03983777                0.38210216               -1.21233858
              20.02341686               16.04370616               81.93285031                1.00000000                0.02156452                0.09159810               -0.29360274               -0.07443815                0.22562295                0.39439020
              21.02363251               15.52256820               81.47157170                0.70044798               -0.02131881               -0.05762470                0.16334169               -0.09190062                0.59753755               -0.30666185
              22.02299049               15.00102294               81.01779066                0.36625542               -1.04620789               -0.19452386                0.54190032                0.71907814                3.30083460               -0.72441736
              23.00270835               14.49572203               80.61091403                0.36242726               -1.48579343                0.91158070               -0.77835763                0.40946410                4.95295075               -0.25673459
              23.99327462               13.97705368               80.20197686                0.36112786               -0.60289014                1.06186440               -1.97609876               -0.25123962                4.24262562               -0.26609096
              24.99065055               13.45495115               79.79089745                0.36186151                0.00154751                1.29728301               -3.11094123               -0.36524047                3.52594873               -0.28012693
              25.99330557               12.93124520               79.37640712                0.36550034                0.50037140                1.51243468               -4.16553165               -0.39933595                2.79237754               -0.30201107
              27.00065798               12.40780208               78.95778770                0.37115668                0.94474823                1.69749612               -5.07546707               -0.35252554                2.11221130               -0.32985484
              28.01220053               11.88584534               78.53454437                0.37964875                1.32802538                1.81003284               -5.73820398               -0.24873905                1.49521697               -0.37668313
              29.02721849               11.36573313               78.10596186                0.39189088                1.59693154                1.81181860               -6.02791899               -0.13943153                0.84557941               -0.45750662
              30.04413917               10.84630240               77.67009660                0.70086847                1.69206804                1.66649690               -5.80050039               -0.04515162                0.50711014               -0.63336799
              15.30009105                6.18127046               84.31835380                1.00000000                0.01299668                0.06305508               -0.22116369                0.05954297               -0.42146322                0.47713187
              16.30022101                5.66822904               83.89684897                1.00000000               -0.04227438               -0.02850101                0.09377915                0.06581182               -0.53813277                0.06307201
              17.29924556                5.15492754               83.47273203                1.00000000               -0.14474981               -0.10844043                0.39160275                0.06295200               -0.58438824               -0.02608811
              18.29732602                4.64097450               83.05025404                0.69687928               -0.25247553               -0.20830760                0.69669086                0.01506919               -0.53662036               -0.23201751
              19.29419605                4.12581542               82.62718565                0.53988297               -0.35289491               -0.31578707                1.00386201                0.00235338               -0.45614385               -0.24622276
              20.29026812                3.60959638               82.20663947                0.27313997               -0.45760525               -0.44849343                1.36388059               -0.14113790                0.12171424               -0.53901022
              21.28504394                3.09023106               81.79550051                0.00010000               -0.44937884               -0.49593970                1.61070632               -1.81318633                4.45175672               -1.32221597
              22.28128054                2.53901848               81.46059173                0.00010000                0.94998687               -0.20769394                0.10071423               -2.66296711                9.28218601               -1.93737758
              23.30404368                1.97115206               81.13341491                0.00010000                4.20678781               -1.95390168               -1.49050536               -2.64537375                9.80477068                0.20423345
              24.36541630                1.36789903               80.81782372                1.00000000                3.34738541                0.61059998               -2.18831375               -3.00057259                4.97917648               -0.07070522
              25.37099139                0.82810466               80.40304407                1.00000000                0.55750906                0.37913701               -1.48397360                0.05188069               -0.00593388               -0.07177313
              15.81372790                7.18190101               84.17907406                1.00000000                0.03226963                0.05485468               -0.23313505                0.01250388               -0.01067891                0.64982165
              16.81405059                6.66794403               83.75751621                1.00000000               -0.01127736               -0.03372195                0.08458248                0.02025572                0.04172198                0.08807510
              17.81350235                6.15384314               83.33665779                1.00000000               -0.10089120               -0.11472303                0.38587771                0.00576655                0.12438191               -0.18810849
              18.81203277                5.63889143               82.91647139                0.90479697               -0.17968516               -0.23189851                0.70105522               -0.01951164                0.25455506               -0.15266917
              19.80990865                5.12265755               82.49798522                0.78949707               -0.26919227               -0.34375043                1.04394959               -0.03837441                0.37413808               -0.16771842
              20.80664892                4.60511144               82.07967056                0.54336513               -0.38538096               -0.48077843                1.45778543               -0.12303771                0.61184098               -0.37094010
              21.80220103                4.08527166               81.66542651                0.18340257                0.37707236               -0.59671719                1.93249148               -1.51726912                3.83215557               -0.83461643
              22.81419037                3.53694154               81.31085272                0.00010000                3.04743212               -1.10218262               -0.62186822               -3.12199885                7.77341275               -0.68993106
              23.86314967                2.95161304               80.99793137                0.00010000                4.63719513               -2.08749573               -0.43293782               -3.63105507                9.69505104               -1.18610768
              24.90693427                2.37400503               80.67620299                1.00000000                2.40774506                0.55423073               -1.82031696               -1.72311593                4.67035990               -0.06967346
              25.91130457                1.83189603               80.26132726                1.00000000                0.43702973                0.32715886               -1.13374313               -0.06307818               -0.00192554               -0.09948712
              16.32825509                8.18236755               84.04293220                1.00000000                0.04289192                0.04382762               -0.24123775                0.00097189                0.11803417                0.75759605
              17.32868400                7.66755460               83.61846499                1.00000000                0.00792051               -0.03671458                0.08045355               -0.00375545                0.29511081                0.03210173
              18.32841350                7.15263308               83.19716896                0.00010000               -0.02813176               -0.11540099                0.39016709               -0.08924776                0.89559150               -0.61993000
              19.32812137                6.63633653               82.78429530                0.00010000               -0.06024749               -0.67654479                0.70231309               -0.45735987                1.33287268               -0.89506940
              20.32720855                6.11894041               82.37067123                0.00010000               -0.14640562               -1.04373356                1.05962717               -0.52118118                1.35507065               -1.13961705
              21.32519326                5.59998081               81.95683010                0.00010000               -0.21700434               -1.46277163                1.51461365               -0.34153063                1.69163815               -1.28179960
              22.32286846                5.07829671               81.54823593                0.00010000                1.36529630               -2.36891444                2.00922859               -1.44973719                4.09865394               -1.25060537
              23.35249918                4.51697483               81.18041891                0.00010000                3.57453163               -2.79761348                0.83773576               -4.26994875                5.89297829               -0.36823711
              24.39435909                3.92940215               80.83339898                0.00010000                4.90859053               -1.58956523               -0.25238120               -5.10038570                9.35601161               -4.56023742
              25.45067099                3.37898365               80.53475210                0.00010000                2.97943709                0.35234722               -1.47075518               -4.45093539                5.85164337               -6.68290540
              26.45394783                2.83464784               80.11979621                0.39240608                0.32768396                2.21174290               -0.80225070               -4.03109803                0.03736694               -6.10024907
              16.84337324                9.18277756               83.90563871                1.00000000                0.03367207                0.04516500               -0.23902351               -0.00755348                0.20197568                0.63100657
              17.84370996                8.66720974               83.47788414                0.57904883               -0.02188870               -0.03516134                0.08808626               -0.02381658                0.32714927               -0.24339962
              18.84293546                8.15153512               83.05236189                0.00010000               -0.35658608               -0.14225992                0.39096674               -0.56951655                0.89692476               -1.07105453
              19.83657824                7.62536053               82.63600245                0.00010000               -0.35473584               -0.88920637                0.33259953               -1.36031784                1.47975063               -1.80666971
              20.83584075                7.10178288               82.22263643                0.00010000                0.19418869               -1.48704285                0.28761170               -1.38919609                1.76511589               -2.30541446
              21.84046201                6.57585601               81.81274843                0.00010000                1.01857557               -2.16150367                0.21357689               -1.71337635                2.27675854               -2.62898685
              22.85621226                6.03789337               81.41208630                0.00010000                1.86119764               -3.07975439               -0.10861180               -2.54005770                2.69643003               -2.48663020
              23.87768596                5.48098928               81.02045295                0.00010000                2.14604400               -2.37952331               -0.58131109               -4.44470389                3.95204173               -3.64558614
              24.89913314                4.91982174               80.64651994                0.00010000                1.74919551               -0.21926736               -1.44093487               -5.03243922                4.07104881               -6.19351624
              25.91266987                4.38105198               80.26071774                0.00010000                1.01105470                0.87199558               -1.87832309               -4.62851777                2.55268143              -11.03952443
              26.91935423                3.87613089               79.85860250                0.39265711                0.66843589                2.74139573               -1.80838624               -2.80718734                1.95604161              -11.24040826
              17.35923966               10.18327085               83.76688930                1.00000000                0.02104569                0.05767488               -0.23280517               -0.00148250                0.01059356                0.51760938
              18.35945012                9.66685138               83.33318897                0.48746186               -0.01836452               -0.05013525                0.12641787               -0.04080596                0.22632921               -0.38848940
              19.35887237                9.14978788               82.90365766                0.00010000               -0.43914363               -0.20150733                0.41378031               -0.77932412                1.02433833               -1.35929941
              20.35066725                8.61855241               82.48597774                0.00010000               -0.49716141               -0.55959821                0.03462926               -1.57003484                1.65292634               -1.92536898
              21.34892915                8.08919956               82.07135786                0.00010000                0.20739953               -0.99356486               -0.34785428               -1.77134568                1.79321041               -2.46929824
              22.35481524                7.55675073               81.66005158                0.00010000                0.90024469               -1.40349702               -0.78746680               -2.40486030                1.84974866               -2.95497398
              23.36693404                7.01670163               81.25238025                0.00010000                1.34307497               -1.39001404               -1.30780464               -3.55435752                1.96998371               -3.60833508
              24.38167674                6.46938437               80.84935328                0.00010000                1.33567826               -0.50880923               -1.90625873               -4.35102205                2.03237999               -4.47027299
              25.39364760                5.92501680               80.44805668                0.00010000                1.00573754                0.80608500               -2.47029839               -3.99918236                1.85298807               -6.17482985
              26.40179149                5.39642356               80.04290382                0.00010000                0.69993310                1.54240193               -2.75256733               -2.36090746                1.15724414               -7.60227623
              27.40764627                4.88947575               79.62577757                0.39320158                0.58547772                1.24142417               -2.62003192               -1.15358003                0.72882598               -8.77371395
              17.87618255               11.18393106               83.62727018                1.00000000                0.01942678                0.07213735               -0.22869241               -0.00384678                0.00406921                0.49565828
              18.87637681               10.66620704               83.18948904                0.50290675               -0.02672964               -0.07059883                0.13946909               -0.05432837                0.06749181               -0.32234575
              19.87564795               10.14750497               82.75286800                0.00010000               -0.53054742               -0.22920504                0.48129583               -0.84697789                1.04328126               -1.33395017
              20.86576586                9.61416857               82.33462806                0.00010000               -0.67162239               -0.32277219               -0.18575425               -1.72255829                1.84338310               -1.91136064
              21.86221550                9.08191158               81.91788796                0.00010000               -0.04515642               -0.45445235               -0.82122079               -1.99687068                1.72296354               -2.42013708
              22.86486274                8.54778607               81.50269458                0.00010000                0.51379861               -0.47944343               -1.48221085               -2.60770679                1.54656806               -2.94278422
              23.87249148                8.01009309               81.08875617                0.00010000                0.87438070               -0.19173682               -2.16952668               -3.27471357                1.33087909               -3.52112968
              24.88235035                7.47081309               80.67546489                0.00010000                0.98094102                0.48577746               -2.83219837               -3.49965115                1.12164076               -4.25775472
              25.89211030                6.93594344               80.26153090                0.00010000                0.93212105                1.22177301               -3.35548160               -2.85995624                0.87726856               -5.13828341
              26.90099277                6.41190002               79.84449328                0.00010000                0.90339758                1.54382203               -3.60489925               -1.52526308                0.51551814               -6.03815962
              27.91017825                5.90095937               79.42150888                0.39400495                0.91854778                1.21108404               -3.48644852               -0.57080826                0.38278765               -6.68112751
              18.39461078               12.18471360               83.48796037                1.00000000                0.01788640                0.08279323               -0.23555873               -0.00167811               -0.00022554                0.52849957
              19.39478965               11.66543940               83.04605262                0.54010930               -0.03197489               -0.07686695                0.14626321               -0.05085812                0.02216007               -0.29914646
              20.39397128               11.14520378               82.60452310                0.00010000               -0.64900885               -0.22636956                0.51588276               -0.75024946                1.06909611               -1.16093252
              21.38180947               10.61209696               82.18354160                0.00010000               -0.92985271               -0.08041560               -0.34003618               -1.58035524                1.94107606               -1.74280315
              22.37537423               10.08011051               81.76441780                0.00010000               -0.36649365                0.05476204               -1.15958338               -1.87425782                1.73362012               -2.17671184
              23.37447960                9.54716187               81.34576027                0.00010000                0.15192582                0.24133802               -1.98483851               -2.32867543                1.38637548               -2.59205193
              24.37841275                9.01286689               80.92671732                0.00010000                0.56768858                0.57277767               -2.80334373               -2.68624192                1.00937812               -3.04222875
              25.38583337                8.47909991               80.50674823                0.00010000                0.84744040                1.03474225               -3.54841820               -2.63981745                0.68397088               -3.55149779
              26.39536155                7.94945226               80.08532788                0.00010000                1.02184636                1.44646058               -4.11428647               -2.04802555                0.43789329               -4.11909879
              27.40627029                7.42730000               79.66164479                0.00010000                1.13749186                1.58061396               -4.38031742               -1.05573454                0.23003190               -4.69103311
              28.41811139                6.91369743               79.23459178                0.39462883                1.18410966                1.34467627               -4.24608449               -0.38573727                0.20750410               -5.19235877
              18.91469739               13.18558693               83.34888231                1.00000000                0.01720846                0.08889127               -0.24807065                0.00084121                0.00077744                0.54792977
              19.91486947               12.66466970               82.90282802                0.57723417               -0.03559933               -0.07325198                0.15123376               -0.03840114                0.02442058               -0.28450563
              20.91398540               12.14297758               82.45720878                0.00010000               -0.78087210               -0.21717010                0.53824892               -0.52172054                1.16821954               -1.09604410
              21.89925203               11.61256026               82.03402650                0.00010000               -1.21599785                0.17100032               -0.44892930               -1.17017994                2.10888780               -1.47422872
              22.88966544               11.08300682               81.61302974                0.00010000               -0.68595910                0.48867202               -1.40131034               -1.47653314                1.84190336               -1.77926664
              23.88553285               10.55261283               81.19185142                0.00010000               -0.14184274                0.76442923               -2.35203006               -1.85349749                1.38376281               -2.06317138
              24.88682859               10.02154864               80.76935763                0.00010000                0.37178918                1.05846269               -3.28025656               -2.05576537                0.90034128               -2.36609555
              25.89296863                9.49150794               80.34512672                0.00010000                0.80605557                1.37321011               -4.11275778               -1.92823713                0.50686161               -2.70402473
              26.90294970                8.96487265               79.91912681                0.00010000                1.13321372                1.61622187               -4.73781983               -1.44185186                0.25438297               -3.07760838
              27.91563291                8.44351230               79.49135211                0.00010000                1.33594697                1.67039747               -5.02906039               -0.73155789                0.11504894               -3.46953775
              28.92966864                7.92785290               79.06143708                0.39537410                1.40357338                1.47342598               -4.87303842               -0.25251574                0.13713039               -3.85988687
              19.43646207               14.18649143               83.20987567                1.00000000                0.01689042                0.09005678               -0.26272687                0.00356516                0.01099656                0.54673263
              20.43663097               13.66397436               82.75971278                0.62471312               -0.04078763               -0.06568596                0.15858371               -0.02598127                0.04507384               -0.29031325
              21.43564631               13.14086038               82.31022153                0.00010000               -0.91271733               -0.20427600                0.56057189               -0.16877378                1.38798839               -0.93253028
              22.41837662               12.61551697               81.88693623                0.00010000               -1.49276609                0.43755591               -0.52629801               -0.54038563                2.43011865               -1.13109229
              23.40579099               12.08988395               81.46506615                0.00010000               -0.97543992                0.86822393               -1.57382200               -0.96463310                2.04886418               -1.27220608
              24.39886783               11.56245045               81.04251828                0.00010000               -0.36943300                1.12890473               -2.61947935               -1.31679988                1.48921960               -1.42574369
              25.39840233               11.03403614               80.61801880                0.00010000                0.25383961                1.36741752               -3.63776796               -1.44714343                0.92011367               -1.60173641
              26.40394462               10.50656412               80.19127743                0.00010000                0.80589123                1.58951646               -4.54934099               -1.30814847                0.47016680               -1.80268549
              27.41452016                9.98177670               79.76256320                0.00010000                1.23571360                1.74452370               -5.23291797               -0.93774828                0.19759643               -2.03331104
              28.42865889                9.46070795               79.33224867                0.00010000                1.49298585                1.76323256               -5.54718205               -0.45230727                0.07541487               -2.29443812
              29.44437987                8.94316595               78.90029543                0.39604577                1.57209838                1.58423709               -5.36254560               -0.13214071                0.10853031               -2.58330478
              19.95980283               15.18738806               83.07072703                1.00000000                0.01780704                0.09092832               -0.27999294                0.00418806                0.01806129                0.45650167
              20.95998090               14.66335598               82.61639305                0.52966774               -0.03677540               -0.06163257                0.17278830               -0.01623784                0.22556997               -0.28905547
              21.95906732               14.13889206               82.16622079                0.00010000               -1.02800750               -0.19627518                0.56038140                0.31580421                1.77457585               -0.72593017
              22.93942075               13.62131137               81.74297458                0.00010000               -1.78140088                0.83154059               -0.58426695                0.03732347                2.80196256               -0.65447282
              23.92343930               13.10037130               81.32149972                0.00010000               -1.21880438                1.12331245               -1.69975827               -0.44943999                2.31131733               -0.66564859
              24.91504466               12.57519092               80.89861657                0.00010000               -0.48336229                1.34684920               -2.81244713               -0.73771392                1.64155624               -0.72743698
              25.91377205               12.04889699               80.47328040                0.00010000                0.20102260                1.55313892               -3.89915181               -0.79415817                0.99887740               -0.80332738
              26.91906511               11.52329826               80.04534917                0.00010000                0.81394241                1.73380775               -4.87674554               -0.69331252                0.50185448               -0.89262923
              27.93005090               10.99976312               79.61528169                0.00010000                1.30661973                1.84895249               -5.61526505               -0.47042744                0.20503196               -1.00220424
              28.94519750               10.47877695               79.18360904                0.00010000                1.60294598                1.85266149               -5.95571086               -0.20731317                0.07177216               -1.13935820
              29.96210982                9.95953764               78.75032292                0.39669021                1.69123173                1.69678662               -5.74042655               -0.02592888                0.09895419               -1.31705823
              20.48461000               16.18830999               82.92990204                1.00000000                0.01922195                0.09219312               -0.29312627               -0.07611118                0.21869835                0.37231846
              21.48480222               15.66274171               82.47331764                0.71742477               -0.03014981               -0.06142685                0.17847955               -0.08662373                0.54904480               -0.27839562
              22.48400700               15.13693487               82.02337777                0.36549549               -1.35791840               -0.19571840                0.56109830                0.96427205                2.38251131               -0.66553738
              23.45764385               14.63214778               81.60371231                0.36212097               -2.05421802                1.08364066               -0.65192401                0.59307665                3.22213911               -0.24211050
              24.44292264               14.11235020               81.18300520                0.36076731               -1.10279969                1.19788966               -1.80154047               -0.18968307                2.52095485               -0.26948032
              25.43558786               13.58938743               80.76055846                0.36189130               -0.42554069                1.41965103               -2.95183123               -0.30824409                1.78110760               -0.30159482
              26.43441183               13.06509892               80.33528875                0.36472255                0.18121910                1.62019270               -4.08182337               -0.34338072                1.08006832               -0.33905278
              27.43921224               12.54124027               79.90718950                0.36987795                0.76105493                1.79420070               -5.10898113               -0.30244599                0.55482489               -0.37810594
              28.44963293               12.01875575               79.47690457                0.37775366                1.27629373                1.89926212               -5.90040255               -0.21575218                0.26249189               -0.42735617
              29.46473811               11.49776118               79.04512644                0.38827063                1.63534932                1.89842330               -6.28970501               -0.12864224                0.13558094               -0.49484523
              30.48233991               10.97710168               78.61155431                0.69867278                1.76018003                1.75640460               -6.07845731               -0.04294041                0.16179846               -0.61109255
              15.71570978                6.32538497               85.31582222                1.00000000                0.02477294                0.07581382               -0.27319787                0.06565040               -0.43999048                0.47851958
              16.71595751                5.80824812               84.89758569                1.00000000               -0.03536236               -0.01851745                0.05798111                0.07237923               -0.57112986                0.06543861
              17.71500254                5.29077734               84.47654443                1.00000000               -0.14523796               -0.09840533                0.36794894                0.06787451               -0.62257882               -0.02482487
              18.71305275                4.77242949               84.05723377                0.69877868               -0.25971944               -0.20634971                0.69007663                0.00685277               -0.56446695               -0.22845049
              19.70980815                4.25245106               83.63735940                0.55911287               -0.36511031               -0.32781336                1.01559089               -0.00374604               -0.43611791               -0.21622749
              20.70575055                3.73085953               83.22065865                0.32805583               -0.44639451               -0.48304359                1.41797278               -0.10475170                0.14669537               -0.47173102
              21.70088026                3.20626439               82.81240297                0.00010000               -0.12818851               -0.63849163                1.71402949               -0.83265865                3.42122821               -1.08129422
              22.70318678                2.66781132               82.46071365                0.00010000                1.08899100               -0.64568651                0.16481931               -2.78036968                7.31978409               -2.75358917
              23.72266008                2.10379981               82.11665340                0.00010000                3.68884775               -1.52477975               -1.22474306               -2.72432773                7.80690967                0.51995940
              24.77696373                1.50694031               81.79621185                1.00000000                2.97699663                0.61118282               -2.12205582               -2.68280684                4.37076574               -0.06794985
              25.78220001                0.96726605               81.38889935                1.00000000                0.52362777                0.34708145               -1.34621197                0.09389615               -0.00662704               -0.06737232
              16.23350315                7.32614311               85.17644260                1.00000000                0.04819787                0.06417631               -0.28247722                0.01651211               -0.02771422                0.64691114
              17.23398512                6.80806294               84.75818091                1.00000000                0.00437246               -0.02587110                0.05130485                0.02485795                0.01067359                0.09111245
              18.23359059                6.28979328               84.34041987                1.00000000               -0.08503514               -0.10647379                0.36092996                0.00329667                0.09264106               -0.17845951
              19.23228442                5.77036599               83.92348181                0.91639163               -0.15174633               -0.23810338                0.68608263               -0.02796058                0.25507776               -0.14540438
              20.23055567                5.24917292               83.50855534                0.81557801               -0.22440293               -0.36268416                1.03923072               -0.05108027                0.46280371               -0.14438866
              21.22779636                4.72602909               83.09471107                0.60862282               -0.32389462               -0.52332509                1.49844671               -0.13295063                0.85223892               -0.31971641
              22.22407778                4.19987948               82.68590965                0.31733353               -0.05904952               -0.73347245                2.10026042               -0.68482650                2.88141149               -0.71089425
              23.22661537                3.66135446               82.30955442                0.00327086                2.58872661               -0.93260760                0.79298859               -2.44858290                7.30860196               -1.45006573
              24.27585231                3.08855201               81.99624136                0.09089802                4.58935857               -2.35862697               -0.29060458               -3.06070250               10.15349847               -1.57806403
              25.31840254                2.51305213               81.65785699                1.00000000                2.34804603                0.57326366               -1.86899503               -1.61468999                3.45728781               -0.07270527
              26.32281323                1.97073686               81.25039233                1.00000000                0.44106844                0.30665324               -1.06531563               -0.03659387                0.00392917               -0.09123062
              16.75220037                8.32666850               85.04024741                1.00000000                0.06041343                0.04781121               -0.28651296                0.00102552                0.09920284                0.75801808
              17.75280450                7.80773069               84.61911607                1.00000000                0.02825258               -0.03072436                0.05125435               -0.00728111                0.26541578                0.04331119
              18.75276542                7.28864786               84.20100532                0.00010000                0.01547006               -0.10591051                0.36972567               -0.12817895                0.85995283               -0.60074422
              19.75311390                6.76766742               83.79129068                0.00010000                0.01790119               -0.69330964                0.67542831               -0.56290362                1.33665247               -1.06310696
              20.75312344                6.24519737               83.38132922                0.00010000               -0.03644601               -1.03950545                1.02756289               -0.72092639                1.47712182               -1.50787841
              21.75238498                5.72039303               82.97230152                0.00010000               -0.06325383               -1.41392914                1.49548989               -0.72097635                1.98667284               -1.92374063
              22.75185837                5.19159494               82.56916316                0.00010000                0.65788011               -1.99181936                2.05731396               -0.85168523                4.04921277               -2.36526220
              23.76554258                4.64915917               82.19575300                0.00010000                2.89449918               -2.69167314                1.52043235               -3.10893123                5.45511633               -2.59956564
              24.80974835                4.05662727               81.83623246                0.00010000                4.84712480               -2.00021729                1.35340366               -4.43135739                9.72629707               -4.75199752
              25.86248508                3.51840558               81.51948191                0.00010000                2.81751621                0.15389513               -1.61943008               -3.55286469                4.56044711               -6.98746679
              26.86609867                2.97339911               81.11190514                0.38826830                0.36135929                1.92514691               -0.78655924               -3.67959148                0.04180222               -6.75416149
              17.27139927                9.32709934               84.90301827                1.00000000                0.04608734                0.04721682               -0.27715724               -0.01299396                0.18014728                0.63717148
              18.27186014                8.80744845               84.47865358                0.60339966               -0.01544907               -0.02660224                0.06606147               -0.03565809                0.28995035               -0.21083187
              19.27109029                8.28767507               84.05627646                0.00010000               -0.36916528               -0.12982597                0.38512610               -0.63978688                0.66488168               -1.03809353
              20.26447684                7.75649980               83.63938099                0.00010000               -0.38393756               -0.87985269                0.33040728               -1.54704260                1.06347406               -2.11319758
              21.26341154                7.22838281               83.22561151                0.00010000                0.12512150               -1.41306954                0.28129610               -1.70092149                1.34100424               -2.98200738
              22.26697927                6.69775051               82.81506667                0.00010000                0.74331971               -1.91352243                0.19124123               -1.99600519                1.76258668               -3.77829813
              23.27827793                6.16004309               82.41162037                0.00010000                1.62125780               -2.49084492               -0.11373962               -2.60565871                2.18739084               -4.39230909
              24.29940442                5.60752099               82.01636890                0.00010000                1.98504099               -2.63580496               -0.50780792               -3.75680589                2.94131942               -5.93033988
              25.31797875                5.04854767               81.63212948                0.00010000                1.55844918               -0.06781505               -1.64570241               -4.39720785                2.63608549               -7.56668415
              26.33057341                4.51613004               81.24201490                0.00010000                1.06277896                0.46935882               -1.90464793               -3.95764753                2.12992351              -11.61424609
              27.33923433                4.00923980               80.84030077                0.38848709                0.86609232                2.29635328               -1.89851792               -2.46009668                1.60841043              -12.57560648
              17.79124225               10.32761284               84.76438290                1.00000000                0.02733515                0.06147649               -0.26170638               -0.00434356                0.01201078                0.52424853
              18.79151560                9.80719865               84.33439118                0.51979469               -0.01619581               -0.04295305                0.11271362               -0.05195927                0.18847457               -0.35472054
              19.79091834                9.28605134               83.90782811                0.00010000               -0.50251469               -0.19187793                0.41300710               -0.82785620                0.62045382               -1.29581335
              20.78146531                8.75007037               83.48647291                0.00010000               -0.65320164               -0.50455328                0.06035936               -1.69403366                0.89184900               -2.14882153
              21.77785430                8.21693598               83.06808164                0.00010000               -0.03303528               -0.85379861               -0.31710645               -1.90550092                0.96636103               -2.98090824
              22.78080460                7.68212258               82.65232821                0.00010000                0.60602034               -1.11085030               -0.78570119               -2.47890641                0.94099627               -3.80169598
              23.78997471                7.14177804               82.23941486                0.00010000                1.05486433               -1.12268420               -1.34950536               -3.35082057                0.93871782               -4.74875901
              24.80190189                6.59644307               81.83008478                0.00010000                1.16102198               -0.41295402               -2.03733525               -4.06055831                0.89966880               -5.78681195
              25.81319515                6.05527097               81.42262395                0.00010000                1.03690517                0.84492228               -2.65856083               -3.62863555                0.94556815               -7.26878746
              26.82263999                5.52779276               81.01447892                0.00010000                0.87410302                1.26764320               -3.00905692               -2.11677183                0.66913775               -8.68318580
              27.83067721                5.01932618               80.59886893                0.38934727                0.80372156                0.99083233               -2.86297645               -1.03931485                0.60598145               -9.86625632
              18.31214077               11.32832887               84.62485661                1.00000000                0.02416801                0.07753962               -0.24828100               -0.00691905                0.00312580                0.49452015
              19.31238245               10.80658939               84.19084784                0.53842011               -0.02396641               -0.06867022                0.12981550               -0.06072585                0.05055788               -0.30528050
              20.31166144               10.28383751               83.75771078                0.00010000               -0.63354652               -0.22540737                0.47769125               -0.85480770                0.51874861               -1.26500387
              21.29971152                9.74640873               83.33301130                0.00010000               -0.92060680               -0.24560154               -0.13490162               -1.73991499                0.80230564               -2.05631966
              22.29324931                9.21130684               82.90998413                0.00010000               -0.35762228               -0.29804561               -0.75648656               -1.97240804                0.62592920               -2.77708287
              23.29255908                8.67553350               82.48806913                0.00010000                0.18458603               -0.26528665               -1.45343635               -2.49458649                0.35894986               -3.51305912
              24.29694103                8.13758940               82.06694250                0.00010000                0.60706286                0.02060158               -2.22798126               -3.04768180                0.08982571               -4.28441945
              25.30470033                7.59926191               81.64655383                0.00010000                0.85576624                0.61013309               -3.00699395               -3.17027971               -0.04317355               -5.14512793
              26.31405635                7.06544611               81.22695818                0.00010000                0.97412125                1.19618371               -3.65509698               -2.56197800               -0.04470506               -6.07753148
              27.32418276                6.54148290               80.80709729                0.00010000                1.06624152                1.43993490               -3.99534393               -1.36627946                0.01446040               -7.03631123
              28.33538118                6.02905645               80.38525657                0.38957075                1.11984256                1.11020137               -3.89990193               -0.50480917                0.15868223               -7.70804177
              18.83458282               12.32916363               84.48552096                1.00000000                0.02096221                0.08720760               -0.24745355               -0.00398520               -0.00119828                0.51699918
              19.83479244               11.80582524               84.04749618                0.57700126               -0.02899879               -0.07666709                0.13909113               -0.05376133                0.01337558               -0.28461363
              20.83400284               11.28154319               83.60971318                0.00010000               -0.77973781               -0.22544648                0.51009079               -0.71300183                0.45653119               -1.11088407
              21.81919768               10.74515834               83.18045825                0.00010000               -1.23607342               -0.00230041               -0.26866003               -1.50141936                0.70404960               -1.82649503
              22.80928137               10.21097507               82.75324193                0.00010000               -0.72836855                0.19316595               -1.06436342               -1.74407596                0.43527157               -2.40907989
              23.80463031                9.67681685               82.32617634                0.00010000               -0.19943531                0.41647774               -1.93288468               -2.14457302                0.00713088               -2.98022344
              24.80529267                9.14219008               81.89854517                0.00010000                0.30046396                0.74206599               -2.85717581               -2.44377084               -0.38796682               -3.58066008
              25.81063959                8.60864573               81.47056155                0.00010000                0.72209676                1.15216999               -3.75156880               -2.37726174               -0.60316617               -4.21786288
              26.81973460                8.07919464               81.04288023                0.00010000                1.05322384                1.50305714               -4.47676067               -1.82919769               -0.56667859               -4.88823680
              27.83170407                7.55659145               80.61610647                0.00010000                1.28496644                1.60356375               -4.86940754               -0.93715128               -0.32811346               -5.51842201
              28.84543393                7.04153021               80.19031632                0.39032866                1.37298626                1.37793507               -4.77976678               -0.33080308               -0.03364375               -5.99482231
              19.35873784               13.33007302               84.34635265                1.00000000                0.01898246                0.09160704               -0.25382170               -0.00070283               -0.00031274                0.53025215
              20.35892766               12.80505605               83.90433388                0.61459528               -0.03347609               -0.07292764                0.14588637               -0.03794549                0.01607566               -0.26689003
              21.35806831               12.27932858               83.46261363                0.00010000               -0.93382014               -0.21559841                0.53150312               -0.44438672                0.48728817               -1.04629712
              22.34025126               11.74636273               83.02992876                0.00010000               -1.56795166                0.24370779               -0.35905846               -1.01957231                0.72855113               -1.51219333
              23.32670928               11.21517016               82.59954583                0.00010000               -1.08993240                0.61555335               -1.27798532               -1.29489806                0.39161944               -1.91968380
              24.31845261               10.68386306               82.16869577                0.00010000               -0.52362772                0.91839599               -2.27390675               -1.65140212               -0.14888105               -2.31846291
              25.31623673               10.15243072               81.73646910                0.00010000                0.08489614                1.21168981               -3.32136416               -1.84113953               -0.64483889               -2.73963571
              26.32015053                9.62230531               81.30326507                0.00010000                0.66449753                1.50706986               -4.32486347               -1.72376193               -0.91145061               -3.18778586
              27.32952668                9.09550725               80.87032858                0.00010000                1.14768177                1.72829075               -5.13518591               -1.28205974               -0.85760362               -3.64498809
              28.34310417                8.57355418               80.43911491                0.00010000                1.46804688                1.77769500               -5.57629224               -0.64439157               -0.50674208               -4.06974310
              29.35888761                8.05661515               80.01061684                0.39066231                1.57834468                1.60535336               -5.47984221               -0.21270069               -0.13840275               -4.40783099
              19.88460269               14.33099577               84.20722697                1.00000000                0.01752694                0.09104141               -0.26363873                0.00282398                0.00978575                0.52455771
              20.88477796               13.80436669               83.76130252                0.66431790               -0.03971306               -0.06487867                0.15465554               -0.02323295                0.03355832               -0.26462894
              21.88380843               13.27723123               83.31584088                0.00010000               -1.09066510               -0.20176219                0.55300384               -0.05579524                0.64880333               -0.88599332
              22.86296466               12.75003249               82.88214380                0.00010000               -1.89626766                0.51889800               -0.41731345               -0.34034720                0.93917781               -1.13497613
              23.84588308               12.22328614               82.44997748                0.00010000               -1.43114775                1.00064247               -1.42054609               -0.77855387                0.48084829               -1.34396040
              24.83434170               11.69518477               82.01681460                0.00010000               -0.79277277                1.27631659               -2.51028297               -1.14328582               -0.17100141               -1.57599285
              25.83002762               11.16642387               81.58165224                0.00010000               -0.06269410                1.51768125               -3.65575846               -1.28325063               -0.75798915               -1.83531171
              26.83308782               10.63878713               81.14509438                0.00010000                0.64084601                1.73785759               -4.75301464               -1.16474197               -1.07719823               -2.11382680
              27.84284454               10.11376046               80.70879102                0.00010000                1.23102586                1.89261482               -5.63935840               -0.83371167               -1.02161087               -2.39941955
              28.85770834                9.59214535               80.27475165                0.00010000                1.61067122                1.91979148               -6.11873457               -0.39959028               -0.60958629               -2.66574546
              29.87505797                9.07363727               79.84447504                0.39158410                1.73496273                1.77111214               -6.00093730               -0.10962466               -0.19902202               -2.87719520
              20.41205247               15.33189385               84.06792628                1.00000000                0.01750749                0.09033752               -0.27698753                0.00430985                0.02228572                0.43316908
              21.41222755               14.80375848               83.61813868                0.56632654               -0.03829318               -0.06077918                0.17063267               -0.01203949                0.19717203               -0.26016606
              22.41128661               14.27529334               83.17184846                0.00010000               -1.24190721               -0.19164950                0.55454780                0.47099116                0.97936692               -0.68248000
              23.38738940               13.75674069               82.73769292                0.00010000               -2.26503378                0.96859367               -0.45324998                0.22243587                1.23319400               -0.64365271
              24.36598593               13.23518301               82.30529396                0.00010000               -1.74701217                1.26834898               -1.51133651               -0.31934042                0.65414709               -0.69105585
              25.35244916               12.70938939               81.87113792                0.00010000               -0.95082902                1.49253540               -2.66496408               -0.63756108               -0.12000812               -0.79432659
              26.34696935               12.18278435               81.43443652                0.00010000               -0.14650248                1.70117863               -3.88370441               -0.70393238               -0.79421300               -0.91397654
              27.34951911               11.65706246               80.99598605                0.00010000                0.62624336                1.88860798               -5.05801784               -0.61869821               -1.16669717               -1.04367422
              28.35949422               11.13335955               80.55772618                0.00010000                1.28582185                2.01459915               -6.01344850               -0.42217850               -1.12373285               -1.17949828
              29.37523554               10.61195001               80.12202223                0.00010000                1.71085306                2.03280333               -6.53065120               -0.18750653               -0.68019772               -1.31082463
              30.39371128               10.09203739               79.69072475                0.39196846                1.84757345                1.89902457               -6.38175638               -0.01818962               -0.24452013               -1.41034820
              20.94095962               16.33280252               83.92698778                1.00000000                0.01780520                0.09086739               -0.28697995               -0.07442574                0.21164238                0.34907514
              21.94113768               15.80315111               83.47514129                0.73522143               -0.03567896               -0.06073699                0.17922986               -0.07920108                0.49676781               -0.24924432
              22.94024605               15.27339824               83.02901263                0.36504097               -1.68069848               -0.18951053                0.55471826                1.20860681                1.52763012               -0.61522625
              23.90752371               14.76940437               82.59787555                0.36200703               -2.66992405                1.26636808               -0.49085181                0.77617468                1.59224858               -0.23058949
              24.88684756               14.24865312               82.16594605                0.36086953               -1.67672819                1.34701069               -1.57159193               -0.13228137                0.81076955               -0.27597312
              25.87398914               13.72503547               81.73186082                0.36164912               -0.92858314                1.56460825               -2.75962841               -0.25628504               -0.05066685               -0.32484521
              26.86827590               13.20044745               81.29477065                0.36425467               -0.19252428                1.76630956               -4.02671171               -0.29315422               -0.80481229               -0.37600702
              27.87013866               12.67655929               80.85560808                0.36858188                0.56187649                1.94968239               -5.26215343               -0.25779528               -1.22572791               -0.42405039
              28.87951343               12.15405244               80.41653631                0.37545406                1.25708543                2.06928902               -6.28620682               -0.18597207               -1.19065823               -0.47307001
              29.89528037               11.63280142               79.98016776                0.38464227                1.75029837                2.08514151               -6.86927654               -0.11725160               -0.72165172               -0.52329879
              30.91451940               11.11161777               79.54852746                0.69620598                1.92390324                1.95803730               -6.72866449               -0.03755350               -0.26483089               -0.56271665
              16.12776430                6.46960009               86.31288984                1.00000000                0.03119032                0.08139553               -0.29841776                0.06799863               -0.46272949                0.47944964
              17.12807620                5.94834737               85.89800860                1.00000000               -0.03092009               -0.01114736                0.03256106                0.07506294               -0.61132279                0.06700477
              18.12714590                5.42668017               85.48009101                1.00000000               -0.14272478               -0.08671058                0.33961581                0.06893787               -0.66633455               -0.02742562
              19.12522171                4.90390941               85.06405557                0.69917940               -0.25485441               -0.19829734                0.66391795               -0.00134416               -0.59276584               -0.23120945
              20.12204881                4.37909899               84.64749747                0.57874228               -0.35316271               -0.32990312                0.98695487               -0.00396017               -0.39719804               -0.18959363
              21.11815845                3.85205691               84.23499893                0.38796653               -0.43176508               -0.49826600                1.40743467               -0.05726504                0.21439608               -0.37247827
              22.11341351                3.32159182               83.82978110                0.12172519                0.26336719               -0.72982304                1.77894027               -0.13234703                2.61601385               -0.63349145
              23.12342580                2.78626516               83.46388811                0.00010000                0.56350834               -1.33642827                0.54601227               -2.30033443                5.18534738               -2.32598670
              24.12468368                2.22237533               83.10892005                0.00010000                2.85799328               -2.19026297               -0.16647456                2.17256869                8.26377441               -0.54843134
              25.18058566                1.64324975               82.77538261                1.00000000                3.04000837                0.60311095               -2.00399696               -1.79586515                3.30567415               -0.10685511
              26.18548384                1.10377124               82.37611984                1.00000000                0.48981797                0.32943836               -1.25128928                0.13501122               -0.00979260               -0.04147601
              16.64969700                7.47041404               86.17342452                1.00000000                0.05897944                0.06760798               -0.30754230                0.01906216               -0.05064985                0.64329469
              17.65028680                6.94823590               85.75854231                1.00000000                0.01786308               -0.01996133                0.02549188                0.02786120               -0.03289814                0.09349204
              18.65005426                6.42581306               85.34387639                1.00000000               -0.06439711               -0.09592819                0.32617471               -0.00087137                0.04151873               -0.17051968
              19.64899885                5.90192643               84.93019305                0.93034929               -0.10594016               -0.23670920                0.64133536               -0.03521436                0.22981736               -0.14610410
              20.64793546                5.37579996               84.51876984                0.84556880               -0.13297308               -0.36861615                0.96978710               -0.05804279                0.52706265               -0.12477399
              21.64633939                4.84707425               84.10963950                0.68225831               -0.14747734               -0.54532532                1.41614726               -0.12860293                1.12124645               -0.24907663
              22.64498591                4.31429359               83.70743171                0.46587015                0.18456541               -0.81555346                2.00698909               -0.35928241                2.83161376               -0.44906789
              23.65003070                3.77290088               83.32671249                0.24818188                3.64655777               -1.40480617                1.79545460               -2.13572421                6.69057320               -1.34696292
              24.71791707                3.20047270               82.99211928                0.39329756                3.59491774               -1.19506258               -0.63855523                0.84262133                7.32241884               -0.30332365
              25.72192905                2.64928086               82.63882309                1.00000000                0.41976981                0.59133256               -1.90794283               -0.38927375                2.31656454               -0.13529815
              26.72631246                2.10706563               82.24002095                1.00000000                0.43834094                0.29424658               -1.01967050                0.00115570                0.02862666               -0.03758023
              17.17250183                8.47095225               86.03720194                1.00000000                0.07325835                0.04857275               -0.31071993                0.00001764                0.07335028                0.76080343
              18.17323441                7.94794815               85.61949008                1.00000000                0.04680559               -0.02589549                0.02643194               -0.01133350                0.22148721                0.05661657
              19.17343794                7.42476160               85.20456347                0.00010000                0.06480531               -0.09313044                0.33552060               -0.16607462                0.79055637               -0.57427822
              20.17453052                6.89917522               84.79780387                0.00010000                0.11511004               -0.70060418                0.60819619               -0.67605590                1.27612920               -1.21009602
              21.17574014                6.37172667               84.39122249                0.00010000                0.12811257               -1.02048284                0.91073559               -0.94925667                1.50090577               -1.83209593
              22.17709277                5.84115040               83.98673990                0.00010000                0.23305444               -1.34054448                1.30806095               -1.15402116                2.16677905               -2.49462060
              23.18040123                5.30528075               83.58938221                0.00010000                0.87197174               -1.72490489                1.76478469               -1.46547159                3.84387094               -3.32801527
              24.19453221                4.75816904               83.21082755                0.00010000                4.23774447               -2.24250911                1.33657889               -2.04170656                6.39422848               -4.60129188
              25.26515612                4.19847408               82.86046705                0.00010000                3.58375275               -0.91880627                0.87297130               -4.74004262                6.79428022               -5.35333606
              26.26620726                3.65507640               82.50236350                0.00010000                0.23906531                0.22445971               -1.75986415               -3.18249498                2.04943567               -7.29305414
              27.26993743                3.10965617               82.10406503                0.38427260                0.37301660                1.52946731               -0.77623020               -3.11011065                0.03611877               -7.39861613
              17.69570555                9.47138550               85.90009556                1.00000000                0.05452187                0.04826170               -0.29740535               -0.01867540                0.15316417                0.65015439
              18.69625077                8.94771799               85.47920537                0.62944048               -0.00999282               -0.01927216                0.04526112               -0.04475275                0.24617341               -0.17416534
              19.69550570                8.42395045               85.06006441                0.00010000               -0.38690527               -0.11621520                0.36495748               -0.70209321                0.42222453               -0.99983024
              20.68851267                7.88791435               84.64261059                0.00010000               -0.42652744               -0.86147784                0.31413448               -1.74199841                0.60852019               -2.36094582
              21.68697515                7.35539031               84.22826235                0.00010000                0.05961117               -1.32589491                0.24187466               -2.04950338                0.81893282               -3.55629712
              22.68970489                6.82026336               83.81657326                0.00010000                0.58413482               -1.67180232                0.07904672               -2.51928183                1.07910843               -4.77606905
              23.69865784                6.27979549               83.40981151                0.00010000                1.31491765               -1.94382172               -0.30677600               -3.23310365                1.42938842               -6.13871761
              24.71600324                5.72805069               83.01029679                0.00010000                1.37755030               -1.73529183               -0.87141366               -3.78850489                1.41302762               -7.77017353
              25.72620885                5.18209657               82.61360589                0.00010000                1.55469067               -0.68308641               -1.69502530               -5.56359622                1.51097136               -9.91253027
              26.74709706                4.65377005               82.22262478                0.00010000                1.43709283                0.13005281               -2.07994679               -3.58597967                1.49081547              -12.59719569
              27.75495071                4.13765497               81.82063214                0.38469292                0.78536505                1.87693240               -2.12662144               -2.55908577                1.03915836              -14.09981998
              18.21946334               10.47191748               85.76165517                1.00000000                0.03110702                0.06489559               -0.27575991               -0.00762546                0.01191530                0.54043162
              19.21977441                9.94756270               85.33544324                0.55408540               -0.01318080               -0.03607847                0.09642598               -0.05985762                0.14849306               -0.31981328
              20.21919972                9.42243730               84.91191780                0.00010000               -0.57618547               -0.18153116                0.39596994               -0.86316312                0.22705808               -1.24043459
              21.20825070                8.88194566               84.48718493                0.00010000               -0.83993266               -0.44287569                0.09299418               -1.81012845                0.12859074               -2.31435826
              22.20240107                8.34520877               84.06501573                0.00010000               -0.29743735               -0.70903318               -0.28197147               -2.07651030                0.07360347               -3.39329142
              23.20230195                7.80771435               83.64433756                0.00010000                0.27753766               -0.82933032               -0.80734793               -2.67129896               -0.10279207               -4.52509211
              24.20795182                7.26640431               83.22539015                0.00010000                0.70795383               -0.72605511               -1.48322722               -3.35528520               -0.29790071               -5.74119157
              25.21646103                6.72346320               82.80860657                0.00010000                1.01065082               -0.03084619               -2.28201735               -3.80620060               -0.33425744               -7.02918449
              26.22816484                6.18481235               82.39488547                0.00010000                1.12341204                0.60199764               -3.00545457               -3.06609266               -0.11892543               -8.34416803
              27.23892927                5.65767746               81.98272268                0.00010000                1.14105196                0.78880907               -3.44691950               -2.08654956                0.09525024              -10.03315057
              28.25098587                5.14719482               81.56851805                0.38497908                1.20566087                0.88480847               -3.36352200               -0.94413273                0.37069443              -11.31672454
              18.74426260               11.47268341               85.62230456                1.00000000                0.02712062                0.08200332               -0.25576631               -0.01004683                0.00160619                0.50256494
              19.74453380               10.94699642               85.19208535                0.57504929               -0.02015617               -0.06508054                0.11542458               -0.06365237                0.03123536               -0.28954725
              20.74385947               10.42031983               84.76242183                0.00010000               -0.74975906               -0.21770225                0.45660958               -0.84997323                0.02435171               -1.20846940
              21.72953862                9.87905683               84.33193003                0.00010000               -1.20916106               -0.16480340               -0.06316649               -1.74995863               -0.20410873               -2.15505246
              22.71967625                9.34120964               83.90275823                0.00010000               -0.72276274               -0.14207791               -0.66104735               -1.97097937               -0.50913655               -3.05993039
              23.71508337                8.80367675               83.47362586                0.00010000               -0.19364797               -0.03917967               -1.41881217               -2.44591169               -0.94892148               -4.00122584
              24.71580329                8.26527439               83.04419655                0.00010000                0.31939154                0.26613854               -2.32830040               -2.89632948               -1.32002017               -4.99576401
              25.72147120                7.72743377               82.61532501                0.00010000                0.74347224                0.72841095               -3.28763483               -2.90819521               -1.41483510               -6.03473839
              26.73067274                7.19413652               82.18842896                0.00010000                1.07561956                1.17523902               -4.13530250               -2.37846575               -1.14483196               -7.14550722
              27.74298359                6.66954624               81.76458640                0.00010000                1.31802929                1.36182407               -4.65327657               -1.27213557               -0.60308424               -8.23203547
              28.75703332                6.15535114               81.34351084                0.38549674                1.40497344                1.06229480               -4.63599350               -0.51786220               -0.10303383               -8.99329804
              19.27063638               12.47355755               85.48301130                1.00000000                0.02285656                0.09012729               -0.24938732               -0.00634137               -0.00248956                0.51292985
              20.27086494               11.94626109               85.04883444                0.61562781               -0.02482667               -0.07354339                0.12580276               -0.05390449                0.00207209               -0.27163557
              21.27013984               11.41808325               84.61472492                0.00010000               -0.92516157               -0.21979451                0.48498302               -0.66673443               -0.10915611               -1.06846332
              22.25236171               10.87864960               84.17816840                0.00010000               -1.58891391                0.07870014               -0.16580335               -1.41819074               -0.46746811               -1.87836816
              23.23836156               10.34236721               83.74313053                0.00010000               -1.15213702                0.33339783               -0.92279064               -1.63321326               -0.88301609               -2.59110670
              24.22931897                9.80693076               83.30710257                0.00010000               -0.60466774                0.59642851               -1.85753507               -2.00457692               -1.48359057               -3.32276166
              25.22626821                9.27172709               82.86957381                0.00010000                0.00580078                0.91872382               -2.94442827               -2.26700614               -1.97504945               -4.09846979
              26.22943498                8.73803142               82.43171686                0.00010000                0.61074235                1.28928088               -4.07174806               -2.20005051               -2.11808296               -4.91399197
              27.23848306                8.20831713               81.99579267                0.00010000                1.14184766                1.59627904               -5.05565010               -1.69212146               -1.78951703               -5.73993429
              28.25227194                7.68491394               81.56425664                0.00010000                1.52678818                1.69630118               -5.67273878               -0.88250985               -1.02391678               -6.48767674
              29.26901882                7.16844072               81.13899645                0.38622147                1.67468816                1.50932063               -5.70122657               -0.30415227               -0.34047295               -6.98380591
              19.79872868               13.47448596               85.34380587                1.00000000                0.02013313                0.09257029               -0.25133602               -0.00252466               -0.00164115                0.51816907
              20.79893001               12.94552555               84.90574575                0.65471918               -0.02961977               -0.06920588                0.13323847               -0.03693618                0.00675069               -0.25083439
              21.79813628               12.41592394               84.46783884                0.00010000               -1.10195816               -0.20887868                0.50343351               -0.36267262               -0.13230766               -1.00136548
              22.77689085               11.88063084               84.02684533                0.00010000               -1.97027290                0.32018454               -0.22941656               -0.86922348               -0.56145951               -1.52963958
              23.75873082               11.34787760               83.58747003                0.00010000               -1.56294443                0.74447015               -1.09582838               -1.13249603               -1.06283795               -2.02852426
              24.74563196               10.81560532               83.14637328                0.00010000               -0.96841562                1.07788385               -2.16131847               -1.48873326               -1.79128353               -2.54680426
              25.73936251               10.28364886               82.70293034                0.00010000               -0.23759056                1.38177022               -3.39248211               -1.68456854               -2.38886201               -3.10559604
              26.74088015                9.75321939               82.25862945                0.00010000                0.52926381                1.67675872               -4.66258638               -1.58799333               -2.57898201               -3.69354923
              27.74994779                9.22606211               81.81642309                0.00010000                1.21648278                1.90367846               -5.77088837               -1.18997578               -2.20752390               -4.27113289
              28.76520980                8.70347226               81.37982626                0.00010000                1.69744665                1.97858879               -6.47175781               -0.60066757               -1.28061729               -4.76152430
              29.78389672                8.18553755               80.95184024                0.38676942                1.86869193                1.85367081               -6.51573988               -0.19677950               -0.48414744               -5.06937847
              20.32850669               14.47540895               85.20460289                1.00000000                0.01815504                0.09023409               -0.25765164                0.00155490                0.00817077                0.50649033
              21.32868824               13.94487698               84.76280589                0.70615879               -0.03627898               -0.06058336                0.14217962               -0.02155646                0.02225882               -0.24062162
              22.32778111               13.41390568               84.32128161                0.00010000               -1.28323286               -0.19266149                0.52348767                0.05702248               -0.01475775               -0.84353660
              23.30302358               12.88505329               83.87858996                0.00010000               -2.35219727                0.60378625               -0.26094769               -0.14503909               -0.43727093               -1.12649383
              24.28073716               12.35725662               83.43665522                0.00010000               -1.96252704                1.13520091               -1.19614200               -0.61092202               -1.07616069               -1.39685829
              25.26377304               11.82848844               82.99231262                0.00010000               -1.28871954                1.43264212               -2.35447104               -1.00120761               -1.93642881               -1.71057785
              26.25496277               11.29936249               82.54490363                0.00010000               -0.42555804                1.69250917               -3.69620455               -1.16223466               -2.64126985               -2.06356252
              27.25526188               10.77156659               82.09621714                0.00010000                0.47339498                1.93458446               -5.08285366               -1.07052180               -2.88680740               -2.43597770
              28.26443067               10.24639070               81.64977603                0.00010000                1.27606303                2.11828770               -6.29412822               -0.77442992               -2.49429764               -2.79520234
              29.28078314                9.72448572               81.20987397                0.00010000                1.82609852                2.18360380               -7.05677145               -0.37456912               -1.45683971               -3.08247065
              30.30095264                9.20551413               80.78027669                0.38707387                2.01695023                2.08703539               -7.09228357               -0.10127523               -0.58368161               -3.21959139
              20.85982373               15.47629064               85.06518728                1.00000000                0.01784242                0.08797690               -0.26783025                0.00378189                0.02583643                0.41276672
              21.86000216               14.94431389               84.61980571                0.60340987               -0.03616548               -0.05626859                0.15806159               -0.00977193                0.17058558               -0.23286051
              22.85910042               14.41207071               84.17731175                0.00010000               -1.46815143               -0.18018325                0.52560690                0.62184562                0.27518581               -0.64419767
              23.83063913               13.89270656               83.73390958                0.00010000               -2.80115932                1.10587145               -0.26572910                0.40213661               -0.19522423               -0.62552223
              24.80307723               13.37058162               83.29127299                0.00010000               -2.35685970                1.41349712               -1.23650186               -0.20163993               -0.97431789               -0.70827341
              25.78350193               12.84425816               82.84531729                0.00010000               -1.50187859                1.64781456               -2.45401558               -0.55528473               -1.98177491               -0.85375954
              26.77303966               12.31749905               82.39560632                0.00010000               -0.55302142                1.87740129               -3.87616743               -0.63707626               -2.79915348               -1.02070958
              27.77244150               11.79191108               81.94418881                0.00010000                0.42502024                2.09743125               -5.35614827               -0.57005229               -3.11331609               -1.19679374
              28.78154007               11.26842786               81.49501272                0.00010000                1.30767389                2.26416937               -6.65743845               -0.39686679               -2.72521879               -1.36608214
              29.79859498               10.74714434               81.05299601                0.00010000                1.91371556                2.32592123               -7.47570493               -0.18093984               -1.60798442               -1.49619245
              30.81981438               10.22727826               80.62268779                0.38764554                2.12193970                2.23639058               -7.48214373               -0.01804366               -0.67380493               -1.50604903
              21.39253582               16.47716849               84.92416244                1.00000000                0.01769030                0.08778542               -0.27583100               -0.07047938                0.20556515                0.32844165
              22.39271273               15.94375160               84.47690224                0.75186726               -0.03552410               -0.05622823                0.16724780               -0.07226667                0.44726956               -0.22203887
              23.39182534               15.41030201               84.03447213                0.36434336               -2.00786629               -0.17686934                0.52488518                1.44344770                0.78420240               -0.57244845
              24.35255540               14.90717072               83.59389528                0.36176086               -3.33362902                1.44641540               -0.25874543                0.95285477                0.14241588               -0.22534649
              25.32515276               14.38552656               83.15157336                0.36097664               -2.34027447                1.49449429               -1.23362257               -0.07874674               -0.85228611               -0.28906229
              26.30574991               13.86144473               82.70536590                0.36162159               -1.52922163                1.71865655               -2.47948626               -0.20600424               -1.98178957               -0.35343553
              27.29456833               13.33691052               82.25475452                0.36359785               -0.64089462                1.94114679               -3.95596485               -0.24360890               -2.91662696               -0.41656075
              28.29293202               12.81351522               81.80194643                0.36737526                0.33458733                2.16041403               -5.51236307               -0.21277005               -3.31147940               -0.47175504
              29.30126008               12.29167408               81.35118044                0.37338357                1.26909592                2.32462246               -6.90345869               -0.15355313               -2.95129484               -0.51805329
              30.31831394               11.77100414               80.90774091                0.38131550                1.95319188                2.38598043               -7.81063023               -0.09971133               -1.78643040               -0.54652830
              31.34032391               11.25024195               80.47698102                0.69395026                2.20099756                2.29636837               -7.83194495               -0.02526597               -0.80516848               -0.48657390
              16.53621768                6.61390461               87.30985386                1.00000000                0.03122065                0.07923034               -0.29235600                0.06530721               -0.48669349                0.47862921
              17.53652989                6.08852079               86.89823691                1.00000000               -0.02944059               -0.00694852                0.02039255                0.07221273               -0.65417438                0.06746217
              18.53562887                5.56265806               86.48333675                1.00000000               -0.13694580               -0.07476337                0.30981980                0.06461388               -0.71156384               -0.03448898
              19.53379097                5.03553035               86.07051213                0.69833318               -0.23540214               -0.18347329                0.61851477               -0.00754571               -0.62642814               -0.24222186
              20.53092083                4.50611445               85.65709850                0.59890115               -0.30180672               -0.31620210                0.90871045                0.00288787               -0.36615810               -0.17646520
              21.52775484                3.97412882               85.24880734                0.45098004               -0.33047399               -0.48222369                1.29040994               -0.01059799                0.34562080               -0.29274547
              22.52431135                3.43829334               84.84798178                0.25500922               -0.00000296               -0.69963302                1.70423180                0.00827167                2.12633911               -0.36429325
              23.52775478                2.89564284               84.47163389                0.07447733                2.60648625               -0.81670791                0.93482510               -0.79458218                4.06628857               -1.22349724
              24.57644107                2.32643271               84.11332391                0.25165843                2.40613237                0.45058168               -0.05540199               -2.51112809                6.12343193               -1.19261036
              25.57587743                1.77792225               83.75613191                1.00000000                0.20443137                0.54430317               -1.81628626               -0.29444665                1.73373185               -0.21625646
              26.58052970                1.23863430               83.36387356                1.00000000                0.46522738                0.34057673               -1.24898763                0.11723904               -0.05076577                0.02821822
              17.06225457                7.61469691               87.17029175                1.00000000                0.06207169                0.06544606               -0.30364606                0.01910979               -0.07785059                0.63799264
              18.06287529                7.08845130               86.75869074                1.00000000                0.02578281               -0.01604145                0.01025526                0.02781670               -0.08683406                0.09500594
              19.06277023                6.56191043               86.34694336                1.00000000               -0.04439850               -0.08418903                0.28627343               -0.00609017               -0.03005430               -0.16496343
              20.06198732                6.03369562               85.93630852                0.94965194               -0.05598804               -0.22411964                0.57072556               -0.03857482                0.16218909               -0.15643464
              21.06165047                5.50295243               85.52795108                0.88089510               -0.02139525               -0.35257526                0.84210782               -0.05521674                0.50370938               -0.11376344
              22.06155942                4.96930659               85.12303402                0.76263407                0.09932952               -0.52809844                1.20335964               -0.09247124                1.19201856               -0.19270507
              23.06363706                4.43129701               84.72604943                0.62163742                0.70899272               -0.78192459                1.58379067               -0.07470235                2.64555817               -0.27106640
              24.07573927                3.88747576               84.34546351                0.49961986                2.32765145               -1.10469052                1.39782347               -0.28854725                4.61321578               -0.72077994
              25.11019009                3.33093853               83.98347025                0.69523280                2.05464484                0.08206128               -0.66660385               -1.32267736                2.78502366               -0.01983159
              26.11683217                2.78336528               83.61969813                1.00000000                0.53999735                0.54102761               -1.76742734               -0.24500330                1.45893820               -0.24885817
              27.12099004                2.24204007               83.22999892                1.00000000                0.41578684                0.30906492               -1.04242206                0.01189409                0.14292779                0.05729578
              17.58909109                8.61521353               87.03403301                1.00000000                0.07816149                0.04761374               -0.30947534               -0.00193933                0.04192865                0.76492176
              18.58987271                8.08819996               86.61964470                1.00000000                0.05858308               -0.02196614                0.00889295               -0.01498893                0.16449820                0.07154183
              19.59026276                7.56097428               86.20771573                0.00010000                0.10523823               -0.07931436                0.29174299               -0.18963379                0.68295585               -0.54021900
              20.59197747                7.03104796               85.80345460                0.00010000                0.19713831               -0.68978983                0.51110438               -0.77246771                1.12503746               -1.31496722
              21.59420552                6.49906295               85.39954393                0.00010000                0.27916815               -0.97444034                0.73534136               -1.16520208                1.34816900               -2.07464793
              22.59756084                5.96356686               84.99846274                0.00010000                0.52213052               -1.23375581                1.00237354               -1.54776195                1.97154541               -2.93818204
              23.60464813                5.42265485               84.60445885                0.00010000                1.23907379               -1.50181021                1.20351537               -2.02563637                3.10738168               -3.99667256
              24.62234231                4.87354903               84.22248458                0.00010000                2.47249375               -1.65686282                0.82303585               -2.32247926                4.21595216               -5.22427832
              25.65409801                4.32807394               83.85369189                0.00010000                1.87667556               -0.75299407               -0.56469316               -2.95630652                1.88756689               -6.26737316
              26.65987582                3.78874280               83.48428463                0.00010000                0.46599962                0.02308316               -1.61293243               -2.33635208                1.07680102               -7.75288124
              27.66341800                3.24481560               83.09638054                0.38040847                0.35421763                1.03751564               -0.83985258               -2.24208230                0.14252791               -8.14702295
              18.11624293                9.61564918               86.89707016                1.00000000                0.05718367                0.04994719               -0.29645690               -0.02305408                0.12232211                0.66885272
              19.11681476                9.08801198               86.47955881                0.65752472               -0.00566837               -0.01387756                0.02733559               -0.04874599                0.19792593               -0.13422108
              20.11612956                8.56032414               86.06357561                0.00010000               -0.41827311               -0.10445244                0.33001165               -0.73285541                0.18616052               -0.95634412
              21.10844930                8.01989982               85.64566367                0.00010000               -0.51510152               -0.82920920                0.31341998               -1.89493984                0.13501720               -2.51182605
              22.10582753                7.48346362               85.23044901                0.00010000               -0.07185119               -1.22443341                0.22162713               -2.36500632                0.18227580               -3.96325968
              23.10701228                6.94463147               84.81664760                0.00010000                0.36573172               -1.44993592               -0.03084391               -3.06946525                0.15965332               -5.54085033
              24.11314216                6.40126080               84.40548485                0.00010000                0.84291577               -1.50428358               -0.51471352               -3.75967117                0.17446668               -7.34302426
              25.12387059                5.85433850               83.99894063                0.00010000                1.13640126               -1.13589301               -1.22822942               -4.10015222                0.12942495               -9.12813285
              26.13587019                5.31587865               83.59822897                0.00010000                1.47464366               -0.72546991               -1.82618917               -4.39545179                0.58424346              -11.45250440
              27.15336346                4.78382694               83.20041596                0.00010000                1.40662988               -0.17873367               -2.49642815               -3.10258361                0.24749355              -14.16177951
              28.16400278                4.26279038               82.79776834                0.38095093                1.06393197                1.26486945               -2.60757205               -1.94953719                0.36728316              -15.95945184
              18.64390442               10.61621247               86.75886771                1.00000000                0.03184141                0.06874256               -0.27301262               -0.01058707                0.01032759                0.56487368
              19.64422284               10.08792241               86.33631970                0.59181500               -0.00933067               -0.03023655                0.07800595               -0.06260579                0.10825873               -0.28334388
              20.64371781                9.55888523               85.91574751                0.00010000               -0.66418222               -0.17315634                0.36165139               -0.86421964               -0.12643830               -1.18779128
              21.63093919                9.01446377               85.48833279                0.00010000               -1.07720330               -0.37878014                0.16718791               -1.87336518               -0.59070133               -2.39599509
              22.62217374                8.47457428               85.06244221                0.00010000               -0.62824206               -0.57350923               -0.18496282               -2.21762085               -0.86690666               -3.66949513
              23.61837435                7.93456814               84.63618125                0.00010000               -0.12130316               -0.59437496               -0.77700982               -2.84375267               -1.31057310               -5.05989001
              24.61974768                7.39256917               84.20975031                0.00010000                0.36735356               -0.38851689               -1.60800986               -3.40188295               -1.70093768               -6.54813629
              25.62572142                6.85083117               83.78444444                0.00010000                0.84764264                0.05591814               -2.56768454               -3.53520022               -1.72664940               -8.15391934
              26.63670053                6.31356454               83.36251486                0.00010000                1.25954982                0.28750576               -3.49348533               -2.98174558               -1.34020413               -9.92458504
              27.65091242                5.78516812               82.94554053                0.00010000                1.48999201                0.57406452               -4.15133786               -1.98879136               -0.60364487              -11.78863441
              28.66650037                5.27011299               82.53159849                0.38132564                1.55879542                0.79608512               -4.23593472               -0.93207100               -0.03087778              -13.23304741
              19.17261131               11.61702404               86.61974129                1.00000000                0.02785766                0.08542188               -0.25039200               -0.01256241               -0.00039413                0.51879447
              20.17288989               11.08740725               86.19315634                0.61511620               -0.01537551               -0.05951384                0.09715370               -0.06327981                0.01269014               -0.27298503
              21.17230380               10.55686101               85.76684297                0.00010000               -0.87984697               -0.20641595                0.41823469               -0.81575410               -0.40274201               -1.15719015
              22.15529295               10.01232422               85.33174797                0.00010000               -1.54665285               -0.08940529                0.06597469               -1.71820291               -1.11482975               -2.19108411
              23.14137074                9.47199344               84.89676319                0.00010000               -1.15753118               -0.00665750               -0.48004395               -1.95335559               -1.65451261               -3.24433533
              24.13214233                8.93274397               84.45969289                0.00010000               -0.62646353                0.15230259               -1.31619640               -2.41810496               -2.37165056               -4.39383669
              25.12884147                8.39349047               84.02037649                0.00010000                0.00144475                0.44588550               -2.41542656               -2.79286963               -2.92433983               -5.65533783
              26.13217122                7.85545686               83.58080113                0.00010000                0.65284216                0.81151422               -3.65073686               -2.77620273               -3.02030927               -6.99460466
              27.14189832                7.32162876               83.14425213                0.00010000                1.24339846                1.14186420               -4.81511405               -2.27223465               -2.48256130               -8.39289490
              28.15703919                6.79530823               82.71403175                0.00010000                1.67866589                1.32149682               -5.63731762               -1.29035744               -1.39032595               -9.74055041
              29.17547164                6.27871208               82.29253670                0.38167499                1.84324453                1.17058511               -5.81225892               -0.52739034               -0.43746208              -10.65359987
              19.70288675               12.61792091               86.48053321                1.00000000                0.02335173                0.09103865               -0.24127446               -0.00818055               -0.00395871                0.51603737
              20.70312027               12.08673213               86.05001224                0.65519541               -0.02004940               -0.06696679                0.10793044               -0.05120920               -0.00822815               -0.25801425
              21.70248576               11.55475691               85.61941284                0.00010000               -1.08387792               -0.20582149                0.44477713               -0.60188448               -0.58591997               -1.03362246
              22.68144271               11.01267567               85.17714218                0.00010000               -1.98994426                0.15120789                0.00525446               -1.31089281               -1.50445619               -1.88579531
              23.66268687               10.47444113               84.73478612                0.00010000               -1.64637413                0.45407717               -0.68108852               -1.52538230               -2.18565733               -2.71120676
              24.64851522                9.93761419               84.28902564                0.00010000               -1.07547395                0.74864800               -1.70319775               -1.89649685               -3.08764606               -3.61620458
              25.64117740                9.40148688               83.83965661                0.00010000               -0.32280779                1.07492580               -3.02377226               -2.15954475               -3.78388331               -4.61375592
              26.64205907                8.86706145               83.38912658                0.00010000                0.51135385                1.42385895               -4.49454128               -2.10890668               -3.92053233               -5.68042890
              27.65140447                8.33640183               82.94176723                0.00010000                1.29814407                1.72362341               -5.87532240               -1.65911606               -3.29665384               -6.75148141
              28.66802195                7.81159806               82.50265170                0.00010000                1.88701931                1.86990635               -6.86036846               -0.89208256               -1.90572523               -7.68663105
              29.68914486                7.29352469               82.07629179                0.38235463                2.11229089                1.76176285               -7.12083968               -0.32208302               -0.73639538               -8.26457595
              20.23482526               13.61884481               86.34132593                1.00000000                0.02044460                0.09116295               -0.24078342               -0.00402145               -0.00326389                0.51207376
              21.23502970               13.08606791               85.90699865                0.69507781               -0.02513398               -0.06189128                0.11544704               -0.03380366               -0.00290290               -0.23470498
              22.23432258               12.55274458               85.47268230                0.00010000               -1.28194134               -0.19346595                0.46000993               -0.27380461               -0.64442223               -0.96293225
              23.20939088               12.01534837               85.02534043                0.00010000               -2.41990012                0.38813504               -0.02251903               -0.71333394               -1.68273879               -1.51868545
              24.18592458               11.48107498               84.57762927                0.00010000               -2.11121226                0.85524451               -0.80084742               -0.98405541               -2.48342882               -2.09998161
              25.16716663               10.94771693               84.12546940                0.00010000               -1.48606288                1.22075033               -1.96023687               -1.36182499               -3.54581998               -2.75039580
              26.15620332               10.41498898               83.66861946                0.00010000               -0.60442425                1.54948823               -3.45416484               -1.58312922               -4.37071756               -3.47914989
              27.15507815                9.88393404               83.21001334                0.00010000                0.39880340                1.87233817               -5.11498292               -1.52337733               -4.55972008               -4.25427092
              28.16417939                9.35610123               82.75491081                0.00010000                1.34982630                2.14324788               -6.67372706               -1.16652011               -3.86725608               -5.00506860
              29.18207467                8.83270636               82.30967975                0.00010000                2.04986640                2.28640632               -7.79108351               -0.60524767               -2.25748356               -5.61256595
              30.20517671                8.31394734               81.88030204                0.38293610                2.31020414                2.24366013               -8.10302370               -0.20419924               -0.92550029               -5.92846467
              20.76836011               14.61974417               86.20207394                1.00000000                0.01843095                0.08724121               -0.24498054                0.00036843                0.00594472                0.49355393
              21.76854442               14.08549431               85.76414611                0.74682416               -0.03154517               -0.05314969                0.12360930               -0.01857438                0.01060608               -0.21759010
              22.76772921               13.55088759               85.32631063                0.00010000               -1.48493962               -0.17628583                0.47629694                0.16539634               -0.55240445               -0.80496914
              23.73884563               13.02043837               84.87692484                0.00010000               -2.85459997                0.67882760               -0.01798342                0.03956110               -1.61211506               -1.10206940
              24.71063721               12.49154602               84.42605464                0.00010000               -2.57404515                1.25122134               -0.84499785               -0.46209406               -2.57939618               -1.42951884
              25.68736472               11.96202920               83.96972517                0.00010000               -1.86697535                1.57719935               -2.09630121               -0.88778331               -3.80804430               -1.83341266
              26.67329770               11.43247665               83.50772815                0.00010000               -0.84427269                1.87651420               -3.71849123               -1.08047666               -4.77008254               -2.29844143
              27.67047927               10.90450821               83.04343730                0.00010000                0.30020272                2.17316274               -5.52718567               -1.02208134               -5.02672803               -2.79128038
              28.67930176               10.37926678               82.58290845                0.00010000                1.37958086                2.42661350               -7.22664964               -0.75893883               -4.29565169               -3.25488253
              29.69807089                9.85732619               82.13361622                0.00010000                2.16385759                2.57264309               -8.44027041               -0.37713894               -2.51897644               -3.58987523
              30.72257891                9.33839789               81.70262937                0.38321076                2.45080190                2.56323695               -8.76637857               -0.10908349               -1.07114627               -3.66529990
              21.30333235               15.62058963               86.06256967                1.00000000                0.01824407                0.08384336               -0.25313956                0.00308949                0.02832730                0.39658810
              22.30351479               15.08500492               85.62129991                0.63843591               -0.03229541               -0.04885221                0.13777168               -0.00709071                0.14524130               -0.20740813
              23.30268644               14.54921886               85.18236060                0.00010000               -1.69955596               -0.16295503                0.47798423                0.75639284               -0.28160317               -0.61027008
              24.26952367               14.02892493               84.73237834                0.00010000               -3.37972893                1.22438443                0.02003375                0.56528585               -1.38529626               -0.59855001
              25.23509186               13.50609941               84.28056392                0.00010000               -3.05216699                1.53625591               -0.81525370               -0.09849965               -2.52330276               -0.71871314
              26.20848033               12.97926092               83.82205761                0.00010000               -2.14885494                1.79201801               -2.11886912               -0.48863392               -3.94110628               -0.90952408
              27.19211477               12.45251927               83.35691317                0.00010000               -1.03169736                2.06715861               -3.83072083               -0.58992476               -5.05684538               -1.13068142
              28.18784639               11.92739730               82.88886309                0.00010000                0.20339350                2.35503633               -5.75460513               -0.54409397               -5.40936751               -1.36374453
              29.19618264               11.40463350               82.42457742                0.00010000                1.37771983                2.60445759               -7.57264727               -0.39233892               -4.67912054               -1.57902785
              30.21540078               10.88415922               81.97250813                0.00010000                2.23344972                2.75274372               -8.86751626               -0.18705682               -2.76722268               -1.71780175
              31.24085163               10.36521208               81.54108188                0.38370297                2.54508481                2.74509666               -9.17205534               -0.02686874               -1.21624938               -1.62855157
              21.83959133               16.62142104               85.92147116                1.00000000                0.01820463                0.08314021               -0.26056668               -0.06447978                0.20083885                0.31152584
              22.83977337               16.08451726               85.47848625                0.76774031               -0.03271353               -0.04876583                0.14565024               -0.06376901                0.40204926               -0.19746360
              23.83893706               15.54762849               85.03951033                0.36371825               -2.32512868               -0.15903734                0.47582261                1.64550109                0.21820051               -0.53564814
              24.79327080               15.04492606               84.59270065                0.36177069               -4.03029181                1.60011292                0.09295959                1.10684498               -1.00842686               -0.23275504
              25.75833122               14.52227114               84.14127360                0.36108721               -3.10493058                1.61717269               -0.71820636               -0.02888933               -2.40569551               -0.31601924
              26.73117219               13.99786956               83.68227110                0.36137984               -2.24841969                1.86086364               -2.03993034               -0.15338012               -4.00568782               -0.39482190
              27.71336283               13.47381982               83.21565136                0.36316644               -1.18445175                2.13005557               -3.81267512               -0.18822462               -5.29844745               -0.46819903
              28.70748315               12.95160894               82.74536082                0.36654488                0.06651137                2.42116430               -5.83212689               -0.15951753               -5.78023697               -0.52889514
              29.71469305               12.43135593               82.27846714                0.37122011                1.31340099                2.67224318               -7.76704828               -0.11035207               -5.10797421               -0.57018818
              30.73375117               11.91238106               81.82395516                0.37813572                2.26213779                2.82218418               -9.18059588               -0.06776624               -3.12257419               -0.57200341
              31.75993581               11.39329983               81.39188856                0.69207737                2.61846369                2.80877467               -9.50999102                0.00029457               -1.49339006               -0.38546483
              16.94126434                6.75829689               88.30704272                1.00000000                0.02454908                0.06978591               -0.25464038                0.05697257               -0.50628570                0.47458824
              17.94150983                6.22878895               87.89841645                1.00000000               -0.03124705               -0.00607232                0.02285963                0.06288037               -0.69072053                0.06692496
              18.94063940                5.69877715               87.48628740                1.00000000               -0.12892189               -0.06423435                0.28251490                0.05376175               -0.74886838               -0.04416194
              19.93893139                5.16747218               87.07642587                0.69716112               -0.21044830               -0.16169172                0.55832686               -0.01527944               -0.66530159               -0.26040653
              20.93643044                4.63386452               86.66567168                0.62000486               -0.23719024               -0.27852579                0.79207080               -0.00080580               -0.38599780               -0.17759046
              21.93418759                4.09774864               86.26080713                0.51476989               -0.16583468               -0.41838919                1.07460685                0.00468858                0.37161641               -0.25073514
              22.93311374                3.55817065               85.86386574                0.38714950                0.26109249               -0.57754619                1.33849911                0.05475121                1.70721797               -0.32585716
              23.93940944                3.01413598               85.48258462                0.29293043                1.47702799               -0.65013881                0.81103172               -0.45053581                2.84680753               -0.75377861
              24.96265430                2.45823043               85.10781201                0.51535193                1.26506028                0.14776572               -0.41615828               -1.44432874                1.42272186                0.19537299
              25.96471065                1.91179217               84.73905688                1.00000000                0.31654575                0.43588026               -1.57142621               -0.32042667                0.93695893               -0.23984206
              26.96898522                1.37208488               84.35114008                1.00000000                0.42745706                0.36196838               -1.30417030               -0.01230648               -0.05841853                0.02768449
              17.47134201                7.75899475               88.16735160                1.00000000                0.05564943                0.05876930               -0.26983153                0.01598108               -0.10504530                0.62998050
              18.47189851                7.22872822               87.75874741                1.00000000                0.02466941               -0.01390124                0.00777431                0.02359429               -0.14299013                0.09574967
              19.47183540                6.69813481               87.34960186                1.00000000               -0.03317944               -0.07260900                0.24816871               -0.01125974               -0.11365466               -0.16098900
              20.47123492                6.16585527               86.94160756                0.97365752               -0.02756256               -0.19757309                0.48588405               -0.03919362                0.05362487               -0.17462032
              21.47128415                5.63107926               86.53561200                0.92183060                0.04232484               -0.30643675                0.68703896               -0.05127828                0.36850721               -0.10989802
              22.47208141                5.09356475               86.13370669                0.84764527                0.20917184               -0.44877343                0.92348816               -0.06314577                0.96850180               -0.15581611
              23.47546758                4.55239518               85.73910753                0.77819978                0.63963895               -0.61293834                1.05458017               -0.02584394                1.84556741               -0.21267847
              24.48487419                4.00763459               85.35466896                0.74371594                1.19576670               -0.69648139                0.67696159               -0.12391649                2.38935339               -0.48861610
              25.49938292                3.45970808               84.97878720                0.97711419                0.98524785                0.00687340               -0.37962959               -0.65152577                1.33808056               -0.03762059
              26.50457915                2.91615097               84.60347454                1.00000000                0.45932589                0.37543878               -1.32772243               -0.18297627                0.75341296               -0.25322963
              27.50856944                2.37570457               84.21917251                1.00000000                0.39902875                0.34307080               -1.16093282               -0.06409251                0.27604939                0.04495404
              18.00211701                8.75947227               88.03101243                1.00000000                0.07246439                0.04665542               -0.28155253               -0.00450065                0.00906710                0.76834636
              19.00284166                8.22851092               87.61966793                1.00000000                0.05850735               -0.01848227                0.00116965               -0.01709842                0.10175383                0.08685781
              20.00328716                7.69732497               87.21039833                0.00010000                0.11807050               -0.06715111                0.24562930               -0.18507792                0.54737416               -0.50113505
              21.00520307                7.16352072               86.80802595                0.00010000                0.22041122               -0.65278153                0.40573182               -0.82422441                0.89718631               -1.35027075
              22.00769539                6.62773579               86.40592931                0.00010000                0.32028423               -0.89262185                0.55475983               -1.31974809                1.03963552               -2.19882600
              23.01160875                6.08877317               86.00678737                0.00010000                0.54158177               -1.09184570                0.69625089               -1.80216024                1.44672266               -3.22153583
              24.01852702                5.54591188               85.61345252                0.00010000                0.90047293               -1.23758202                0.70937012               -2.20901265                1.93709904               -4.42542465
              25.02961821                5.00020635               85.22728827                0.00010000                1.12901920               -1.20532064                0.36974162               -2.32852798                2.02214932               -5.60751238
              26.04110741                4.45836789               84.84917319                0.00010000                0.77182114               -0.77422827               -0.37073772               -2.19349713                0.91098947               -7.04467087
              27.04505463                3.91930095               84.47010485                0.00010000                0.37443844               -0.34362015               -1.08365379               -1.57465900                0.48210851               -8.51538818
              28.04859617                3.37894630               84.08726797                0.37707586                0.35415399                0.37717086               -1.00713699               -1.08435530                0.26485427               -9.27275417
              18.53317471                9.75992786               87.89416642                1.00000000                0.05291341                0.05357779               -0.27352768               -0.02448327                0.09057646                0.69020798
              19.53370384                9.22835858               87.47975209                0.68724211               -0.00253334               -0.01063117                0.01406569               -0.04589763                0.14923825               -0.09322094
              20.53312404                8.69679179               87.06666464                0.00010000               -0.46821125               -0.09554294                0.28219772               -0.70941217               -0.00645791               -0.90926106
              21.52433961                8.15279964               86.64887899                0.00010000               -0.67436520               -0.77896251                0.36505729               -1.95130319               -0.28533696               -2.52390996
              22.51963673                7.61322683               86.23269489                0.00010000               -0.32387502               -1.11155478                0.28329949               -2.57763553               -0.49062903               -4.15546284
              23.51786211                7.07172784               85.81595638                0.00010000                0.01087095               -1.26509523               -0.03836048               -3.42048242               -0.85719377               -6.05310004
              24.51985415                6.52764354               85.39951724                0.00010000                0.39927520               -1.26809666               -0.61590130               -4.05284006               -1.14269224               -8.23540252
              25.52584762                5.98352818               84.98573221                0.00010000                0.82821147               -1.08410217               -1.40849377               -4.19373712               -1.16478758              -10.59749648
              26.53641838                5.44422352               84.57708211                0.00010000                1.33299718               -0.90352026               -2.31911914               -3.75461755               -0.82532751              -13.47458388
              27.55250756                4.90927857               84.17269622                0.00010000                1.55866188               -0.55059831               -3.10931589               -2.41287132               -0.64295460              -16.12295031
              28.56759162                4.38324799               83.76848070                0.37756347                1.50840588                0.44096055               -3.37799434               -1.12024715               -0.09927096              -18.33358272
              19.06476591               10.76054383               87.75619492                1.00000000                0.02938687                0.07329681               -0.25345223               -0.01205783                0.00750329                0.59406088
              20.06505978               10.22829830               87.33700336                0.63114734               -0.00540244               -0.02571977                0.05883910               -0.05738179                0.07054610               -0.24510507
              21.06465786                9.69541411               86.91915083                0.00010000               -0.76589053               -0.16405442                0.31378098               -0.81339292               -0.38941262               -1.13642010
              22.04974197                9.14794147               86.49052869                0.00010000               -1.37216917               -0.31869363                0.32281817               -1.84636135               -1.17295764               -2.37098345
              23.03721448                8.60550469               86.06131648                0.00010000               -1.04797895               -0.46238957                0.03695089               -2.27329294               -1.77893181               -3.79215686
              24.02878239                8.06347127               85.62879736                0.00010000               -0.57722988               -0.43861073               -0.62447404               -2.93899031               -2.59742390               -5.44692122
              25.02566988                7.52054995               85.19322995                0.00010000                0.01905546               -0.26911027               -1.64187033               -3.42964306               -3.23179019               -7.33105221
              26.02916350                6.97852431               84.75725288                0.00010000                0.72973934               -0.03343243               -2.87971228               -3.44553507               -3.31519096               -9.44500070
              27.04026466                6.44029749               84.32501576                0.00010000                1.43046219                0.14013677               -4.14271488               -2.94314116               -2.74382431              -11.74700538
              28.05777274                5.90828898               83.89969593                0.00010000                1.89938673                0.41727438               -5.18287049               -1.90735185               -1.53914047              -13.97439038
              29.07825240                5.38776551               83.48379935                0.37775706                2.04796594                0.71689277               -5.56388628               -0.86821831               -0.47014639              -15.57216813
              19.59742462               11.76139379               87.61729672                1.00000000                0.02613064                0.08749107               -0.23273326               -0.01329864               -0.00273046                0.54037022
              20.59768592               11.22784418               87.19402842                0.65679849               -0.01058050               -0.05198997                0.07686605               -0.05610584               -0.00429314               -0.25286151
              21.59721301               10.69351070               86.77078652                0.00010000               -1.01820553               -0.19213175                0.36650113               -0.73923888               -0.70606245               -1.10593548
              22.57732181               10.14642576               86.33324952                0.00010000               -1.92859632               -0.03001225                0.29500957               -1.61871612               -1.82747978               -2.14941916
              23.55864108                9.60397903               85.89315735                0.00010000               -1.66423797                0.08861557               -0.15224247               -1.89598316               -2.74308684               -3.32354966
              24.54403705                9.06295562               85.44730193                0.00010000               -1.12164128                0.26794440               -1.07938337               -2.39022633               -3.87906157               -4.71389723
              25.53620825                8.52226134               84.99588801                0.00010000               -0.34238384                0.53295266               -2.44156335               -2.76381838               -4.74156977               -6.32374862
              26.53718937                7.98285953               84.54231027                0.00010000                0.57913183                0.83431619               -4.07756936               -2.77424330               -4.91533286               -8.10241934
              27.54779089                7.44702625               84.09212668                0.00010000                1.48515633                1.11656666               -5.72417615               -2.32376357               -4.13715430               -9.95856111
              28.56689250                6.91762406               83.65184005                0.00010000                2.17416503                1.36221712               -7.02186080               -1.37901382               -2.39550751              -11.64614798
              29.59127419                6.39758584               83.22726566                0.37829788                2.43816886                1.38091734               -7.54624750               -0.56590524               -0.90218245              -12.77349525
              20.13159916               12.76229365               87.47818581                1.00000000                0.02215978                0.08964554               -0.22388486               -0.00884783               -0.00556732                0.52462874
              21.13182075               12.22725850               87.05099305                0.69736508               -0.01538289               -0.05733030                0.08772419               -0.04462553               -0.01653857               -0.24083831
              22.13129150               11.69157148               86.62362046                0.00010000               -1.24607235               -0.18715989                0.39164599               -0.51121094               -0.91388587               -0.99694201
              23.10689931               11.14734123               86.17827349                0.00010000               -2.42632724                0.20243502                0.28944009               -1.16635932               -2.29915147               -1.83945291
              24.08276495               10.60727700               85.72950876                0.00010000               -2.21018758                0.53152047               -0.27593309               -1.41094351               -3.40951092               -2.76395345
              25.06269556               10.06883016               85.27303862                0.00010000               -1.61376762                0.84711250               -1.40683017               -1.81898453               -4.78761734               -3.86969702
              26.05048960                9.53120900               84.80909836                0.00010000               -0.68909200                1.18664941               -3.04844930               -2.12117790               -5.83862114               -5.15706810
              27.04891372                8.99521063               84.34182603                0.00010000                0.42676327                1.54818605               -5.00655457               -2.11875778               -6.06881760               -6.57000470
              28.05902487                8.46262882               83.87828622                0.00010000                1.53595796                1.88966299               -6.96697304               -1.72659726               -5.16108827               -7.98891696
              29.07963287                7.93553332               83.42704927                0.00010000                2.39929297                2.13161812               -8.51738119               -0.97342829               -3.03417579               -9.21396916
              30.10701073                7.41538386               82.99657966                0.37856403                2.73778515                2.15224185               -9.18277855               -0.37154910               -1.24706553               -9.95048084
              20.66731797               13.76318670               87.33899021                1.00000000                0.01976187                0.08713186               -0.22299004               -0.00480896               -0.00497337                0.51142733
              21.66751559               13.22669758               86.90805469                0.73466448               -0.02059546               -0.05172954                0.09517621               -0.02881441               -0.01023685               -0.21654733
              22.66690606               12.68976750               86.47703904                0.00010000               -1.46132417               -0.17217412                0.40646379               -0.17801609               -0.98586111               -0.92698523
              23.63828910               12.15047446               86.02639495                0.00010000               -2.89863893                0.43163825                0.30820183               -0.55100477               -2.52260494               -1.47353948
              24.60893328               11.61460944               85.57145309                0.00010000               -2.72818693                0.92272915               -0.32783947               -0.84963201               -3.80378592               -2.13164686
              25.58372536               11.07989787               85.10716854                0.00010000               -2.07645291                1.32009059               -1.60586133               -1.26860149               -5.39388767               -2.93645417
              26.56740422               10.54599433               84.63384705                0.00010000               -1.01654830                1.69454748               -3.45939911               -1.53576153               -6.61546656               -3.88105897
              27.56339440               10.01382325               84.15632979                0.00010000                0.27660177                2.08403011               -5.66872833               -1.52707584               -6.91243016               -4.90811588
              28.57293626                9.48481951               83.68294855                0.00010000                1.56372509                2.44988088               -7.87939095               -1.21264892               -5.91058778               -5.90737858
              29.59466890                8.96025642               83.22400459                0.00010000                2.56029397                2.71632528               -9.63096106               -0.65695102               -3.49236113               -6.70474811
              30.62414213                8.44063068               82.78977976                0.37911086                2.94732362                2.80222205              -10.40432305               -0.23794019               -1.49092013               -7.09489644
              21.20448123               14.76403629               87.19970328                1.00000000                0.01824368                0.08192383               -0.22653430               -0.00064678                0.00337059                0.48605885
              22.20466367               14.22622391               86.76527808                0.78598132               -0.02634724               -0.04359921                0.10213672               -0.01539109                0.00058871               -0.19490349
              23.20395429               13.68812800               86.33080755                0.00010000               -1.68132004               -0.15509479                0.41986193                0.26169826               -0.89626445               -0.77114643
              24.17103727               13.15597399               85.87823029                0.00010000               -3.38026909                0.72426481                0.35970752                0.20221820               -2.46352267               -1.05972614
              25.13634891               12.62573158               85.41975527                0.00010000               -3.25493130                1.31894763               -0.29914372               -0.33716995               -3.95572378               -1.44382327
              26.10593864               12.09523197               84.95038659                0.00010000               -2.52499573                1.68119417               -1.66807356               -0.80132215               -5.76254276               -1.95266902
              27.08584899               11.56509995               84.47053380                0.00010000               -1.31958148                2.04839414               -3.67287588               -1.03238383               -7.16649366               -2.55653610
              28.07954701               11.03689124               83.98567343                0.00010000                0.12448647                2.44447103               -6.07140179               -1.01389975               -7.55423724               -3.20752019
              29.08833872               10.51162644               83.50524304                0.00010000                1.55678379                2.82345500               -8.47402294               -0.78275252               -6.49824600               -3.82006666
              30.11068269                9.98985983               83.04106857                0.00010000                2.65823421                3.10964689              -10.37225755               -0.40604863               -3.85081627               -4.24670078
              31.14150340                9.47142830               82.60494912                0.37943039                3.08207165                3.24086837              -11.19943959               -0.13316439               -1.68835559               -4.29143823
              21.74292979               15.76482518               87.06012449                1.00000000                0.01862624                0.07798722               -0.23389133                0.00210090                0.02983233                0.38513136
              22.74311606               15.22582559               86.62256114                0.67052499               -0.02699287               -0.03971205                0.11325461               -0.00543514                0.12371109               -0.18399762
              23.74238994               14.68666560               86.18687143                0.00010000               -1.91930899               -0.14192058                0.41970406                0.85774182               -0.61544052               -0.58182511
              24.70472988               14.16495976               85.73431026                0.00010000               -3.97290172                1.29485017                0.45545596                0.69545613               -2.20220354               -0.56252410
              25.66293190               13.64098840               85.27496792                0.00010000               -3.81996609                1.60276206               -0.17454554               -0.01592570               -3.90832903               -0.72676766
              26.62833056               13.11352176               84.80293991                0.00010000               -2.89173121                1.89446728               -1.58586841               -0.43532174               -5.96795618               -0.96874501
              27.60509728               12.58696221               84.31899190                0.00010000               -1.58703219                2.24851088               -3.69159130               -0.55742055               -7.58663904               -1.25436261
              28.59658991               12.06271267               83.82909671                0.00010000               -0.03923327                2.65253132               -6.23336945               -0.53545566               -8.11241893               -1.55988891
              29.60431261               11.54128861               83.34355977                0.00010000                1.50780772                3.04322147               -8.79243299               -0.40478937               -7.05993992               -1.84045979
              30.62674607               11.02244936               82.87564569                0.00010000                2.70146452                3.34050961              -10.80829336               -0.20411084               -4.21403784               -2.00575748
              31.65834190               10.50544805               82.43924668                0.37982713                3.15958373                3.47454962              -11.63121340               -0.04583548               -1.89975884               -1.81485413
              22.28252243               16.76559603               86.91895111                1.00000000                0.01921147                0.07708536               -0.24202386               -0.05737344                0.19745379                0.29875724
              23.28271454               16.22542967               86.47981524                0.78268564               -0.02737364               -0.03959252                0.11821513               -0.05547396                0.36390615               -0.17602931
              24.28197495               15.68528958               86.04398859                0.36298336               -2.60454715               -0.13760203                0.41539701                1.78056825               -0.08005592               -0.50709608
              25.23062360               15.18187100               85.59575447                0.36159726               -4.72532788                1.69112350                0.62364033                1.21423427               -1.69541288               -0.26238369
              26.18746840               14.65778683               85.13720923                0.36107797               -3.96826025                1.67984294                0.05856685                0.01616541               -3.74909740               -0.36852781
              27.15125839               14.13312132               84.66456729                0.36111668               -3.09793668                1.95995594               -1.35533668               -0.09304907               -6.08624186               -0.46054027
              28.12550966               13.61007017               84.17850102                0.36264716               -1.83734489                2.31079570               -3.52902409               -0.11773417               -7.97076590               -0.54206316
              29.11451150               13.08994186               83.68530389                0.36550672               -0.25017075                2.72291888               -6.18979026               -0.08680641               -8.69525036               -0.60657024
              30.12050625               12.57249087               83.19583947                0.36944669                1.39647711                3.12022562               -8.89932074               -0.04422853               -7.74340154               -0.64080160
              31.14244104               12.05667002               82.72412899                0.37515854                2.70415353                3.42206621              -11.07127599               -0.00908158               -4.79398998               -0.61141565
              32.17458932               11.54091929               82.28678120                0.69015370                3.21482804                3.54712462              -11.93387869                0.04966880               -2.36404044               -0.26749927
              17.34334452                6.90277861               89.30476105                1.00000000                0.01262787                0.05481976               -0.19101165                0.04362654               -0.51502331                0.46603101
              18.34347080                6.36919736               88.89869410                1.00000000               -0.03512156               -0.00825463                0.03813926                0.04780809               -0.70997096                0.06608675
              19.34264209                5.83514591               88.48898704                1.00000000               -0.11850648               -0.05661931                0.25957839                0.03756459               -0.76593576               -0.05232899
              20.34110067                5.29995883               88.08167867                0.69530328               -0.19112372               -0.13557119                0.48914769               -0.02829315               -0.69823752               -0.27910135
              21.33881961                4.76268201               87.67293991                0.64015933               -0.20537776               -0.21851759                0.66571140               -0.02200501               -0.45022281               -0.17625988
              22.33699311                4.22331499               87.27029948                0.57492553               -0.10706957               -0.31049739                0.83528821               -0.02538913                0.22554359               -0.21739283
              23.33667822                3.68129261               86.87475176                0.50877343                0.18757755               -0.38359579                0.89352203               -0.05502869                1.02797674               -0.29533964
              24.34074466                3.13639858               86.48785453                0.48769229                0.58725135               -0.33987982                0.41988801               -0.33494162                1.40888978               -0.45254306
              25.34842325                2.58838978               86.10500074                0.73912969                0.52719346                0.04351548               -0.23793228               -0.63313714                0.66902487                0.06480533
              26.35128853                2.04429009               85.72470338                1.00000000                0.33858410                0.29626247               -1.22319431               -0.24067269                0.44227750               -0.02757225
              27.35519493                1.50312314               85.33779016                1.00000000                0.39063977                0.36881171               -1.31452431               -0.12467899                0.05360467               -0.12255427
              17.87736204                7.90332681               89.16489512                1.00000000                0.04031875                0.04935088               -0.21083011                0.00964519               -0.12629798                0.61831645
              18.87776523                7.36911481               88.75884623                1.00000000                0.01374757               -0.01324564                0.01745091                0.01519961               -0.18893621                0.09623976
              19.87763699                6.83457972               88.35190674                1.00000000               -0.03577726               -0.06285574                0.21758806               -0.01507766               -0.19011736               -0.15681945
              20.87704968                6.29860312               87.94602620                1.00000000               -0.03577560               -0.15938640                0.40288476               -0.03966633               -0.06506051               -0.19282544
              21.87692148                5.76049684               87.54169186                0.96603989                0.01921180               -0.23392420                0.54132372               -0.04879494                0.18174986               -0.10248875
              22.87743392                5.22021002               87.14150378                0.93258889                0.13323300               -0.32142718                0.66969990               -0.05306046                0.61626675               -0.12247190
              23.87958614                4.67745666               86.74714103                0.92755518                0.32063718               -0.37779846                0.64561219               -0.04996222                1.05248486               -0.15407453
              24.88384666                4.13299978               86.35900274                0.96512605                0.42799900               -0.30315238                0.32467734               -0.11558780                1.17534478               -0.20847217
              25.88814612                3.58882493               85.97587766                1.00000000                0.38342303                0.02479199               -0.26813766               -0.23345490                0.78731916               -0.01281902
              26.89151512                3.04725271               85.59314368                1.00000000                0.34844830                0.24616312               -0.89613338               -0.09394975                0.46039799               -0.09238901
              27.89511509                2.50681126               85.20678027                1.00000000                0.35999632                0.34645918               -1.19830275               -0.08444985                0.21379184               -0.11083741
              18.41196143                8.90376563               89.02840196                1.00000000                0.05604565                0.04720198               -0.23062742               -0.00726449               -0.01913550                0.76842950
              19.41252188                8.36893244               88.61966810                1.00000000                0.04453971               -0.01513374                0.00365142               -0.01703780                0.04532509                0.10058955
              20.41285222                7.83388880               88.21262831                0.00010000                0.09341686               -0.05966492                0.20479469               -0.14624184                0.41128748               -0.46245794
              21.41439022                7.29677111               87.81156924                0.00010000                0.16922966               -0.58421186                0.31500617               -0.81113191                0.65275601               -1.28746371
              22.41623681                6.75800353               87.41063912                0.00010000                0.22909316               -0.77648182                0.41345710               -1.39342873                0.70273667               -2.18076951
              23.41897208                6.21688645               87.01238775                0.00010000                0.33262009               -0.93252702                0.47998838               -1.93273738                0.90741080               -3.36167843
              24.42288921                5.67373664               86.61864626                0.00010000                0.40462723               -1.03406658                0.42711828               -2.28122842                1.06992181               -4.80411254
              25.42706463                5.13033553               86.22987941                0.00010000                0.33060006               -1.02879115                0.20657094               -2.28438587                1.02877292               -6.39176584
              26.42950122                4.58888562               85.84627714                0.00010000                0.21792923               -0.91402652               -0.26143854               -1.84343395                0.71441234               -8.18840794
              27.43142321                4.04921335               85.46261156                0.00010000                0.24438130               -0.77379267               -0.66410717               -1.06213185                0.43640545               -9.80756799
              28.43438884                3.51005233               85.07623780                0.37390367                0.29656303               -0.36119545               -1.05554794               -0.14943644                0.23698387              -10.87583570
              18.94688313                9.90427085               88.89159961                1.00000000                0.04181795                0.05988815               -0.23162765               -0.02206249                0.06176497                0.70967330
              19.94730131                9.36881213               88.47984012                0.71934596               -0.00048183               -0.00942369                0.00668238               -0.03642322                0.10503148               -0.05455874
              20.94687349                8.83338642               88.06921957                0.00010000               -0.52944987               -0.09269242                0.22591453               -0.61706205               -0.10328420               -0.86013083
              21.93671231                8.28691888               87.65296482                0.00010000               -0.89679661               -0.70487646                0.50147026               -1.87475232               -0.54182955               -2.35354070
              22.92893756                7.74496720               87.23611500                0.00010000               -0.68331278               -0.98674223                0.47313414               -2.66348924               -1.07796905               -4.09892192
              23.92304606                7.20155948               86.81588039                0.00010000               -0.42125347               -1.13011437                0.09697211               -3.63257784               -1.81094913               -6.34972955
              24.92051249                6.65677532               86.39316682                0.00010000               -0.00180427               -1.20796465               -0.61067123               -4.26841912               -2.36334850               -9.12967581
              25.92300997                6.11242396               85.97077075                0.00010000                0.59435654               -1.24912219               -1.60064916               -4.28318773               -2.48431985              -12.33550505
              26.93239962                5.57054440               85.55184659                0.00010000                1.30479051               -1.26528776               -2.77234888               -3.53836544               -2.11975751              -15.84349929
              27.94910578                5.03177686               85.13822965                0.00010000                1.90243942               -1.13384325               -3.84363761               -2.05171246               -1.38419357              -18.96370590
              28.97044841                4.49958735               84.73020845                0.37414680                2.13426297               -0.50838305               -4.41235977               -0.49386347               -0.35085475              -21.38986343
              19.48243761               10.90496339               88.75379866                1.00000000                0.02402405                0.07848488               -0.21966007               -0.01143447                0.00406905                0.62276449
              20.48267785               10.36874397               88.33749648                0.67352214               -0.00166905               -0.02259021                0.04109975               -0.04577673                0.03896240               -0.20524585
              21.48240423                9.83203495               87.92202313                0.00010000               -0.86817295               -0.15568736                0.25812657               -0.69912142               -0.49475463               -1.08061768
              22.46531439                9.28267358               87.49478915                0.00010000               -1.70388984               -0.26639256                0.59822431               -1.70530227               -1.49046050               -2.21372211
              23.44832643                8.73826868               87.06318123                0.00010000               -1.54009946               -0.38185187                0.43539028               -2.24351876               -2.56116443               -3.74297721
              24.43451240                8.19428416               86.62369177                0.00010000               -1.08350388               -0.36673545               -0.30279530               -2.99534812               -3.88039058               -5.72864368
              25.42665635                7.64957735               86.17691291                0.00010000               -0.34403048               -0.28141213               -1.57081413               -3.52209144               -4.89576249               -8.16753677
              26.42763179                7.10535309               85.72685019                0.00010000                0.63623252               -0.17943135               -3.21930805               -3.56907774               -5.16311622              -10.98384345
              27.43938101                6.56357986               85.27966056                0.00010000                1.68571122               -0.06786613               -5.01140971               -3.07953866               -4.44338247              -13.96977800
              28.46134602                6.02653649               84.84188312                0.00010000                2.47547944                0.16275311               -6.56287648               -1.94054633               -2.62937925              -16.70079221
              29.48889059                5.49988466               84.42032076                0.37469659                2.75445769                0.54372626               -7.38176048               -0.85876441               -0.96908442              -18.57019814
              20.01909329               11.90584055               88.61508662                1.00000000                0.02209302                0.08783008               -0.20494370               -0.01185594               -0.00504594                0.56329721
              21.01931422               11.36836033               88.19469366                0.70079927               -0.00659173               -0.04274364                0.05714742               -0.04454399               -0.01642031               -0.22702916
              22.01896146               10.83027267               87.77417299                0.00010000               -1.14708464               -0.17346989                0.30801752               -0.61229609               -0.81148426               -1.05150556
              22.99637253               10.28159103               87.33764816                0.00010000               -2.32524294                0.00337984                0.66855599               -1.43427612               -2.20530630               -2.00940844
              23.97245660                9.73733016               86.89371834                0.00010000               -2.22710514                0.12988168                0.38405905               -1.79805844               -3.68026284               -3.28365181
              24.95183043                9.19422477               86.43810522                0.00010000               -1.67274301                0.30347357               -0.64952927               -2.37611031               -5.42838483               -4.96707125
              25.93900174                8.65114708               85.97154523                0.00010000               -0.71022616                0.54045699               -2.36553179               -2.82141160               -6.77531989               -7.04242672
              26.93762590                8.10883533               85.49924974                0.00010000                0.53118562                0.81443743               -4.55731138               -2.90484678               -7.15257744               -9.40951967
              27.94962545                7.56918708               85.02976861                0.00010000                1.81820756                1.11108751               -6.88523705               -2.51124753               -6.16864646              -11.87162426
              28.97399005                7.03503192               84.57359454                0.00010000                2.84756582                1.43088256               -8.88101338               -1.55131127               -3.67735765              -14.07152218
              30.00657677                6.51046188               84.14161175                0.37522281                3.25867126                1.60581540               -9.95267055               -0.64439519               -1.49529643              -15.51906848
              20.55716093               12.90672000               88.47605552                1.00000000                0.01939191                0.08576691               -0.19897049               -0.00791377               -0.00714028                0.53627373
              21.55735485               12.36788910               88.05176672                0.73918280               -0.01166623               -0.04541953                0.06789767               -0.03462699               -0.02216214               -0.21809833
              22.55692760               11.82856555               87.62724576                0.00010000               -1.38917351               -0.16274424                0.33226711               -0.39221428               -1.01388203               -0.95597239
              23.52957138               11.28274117               87.18293098                0.00010000               -2.85980395                0.21648741                0.73645619               -0.97735130               -2.70394749               -1.72405792
              24.49973153               10.74086632               86.72926745                0.00010000               -2.81990502                0.54326869                0.36176014               -1.28844343               -4.45946984               -2.73669411
              25.47317328               10.20035364               86.26088904                0.00010000               -2.20569813                0.87075528               -0.90022906               -1.77076667               -6.53770578               -4.08460834
              26.45561756                9.66038649               85.77868762                0.00010000               -1.08392101                1.23926387               -2.96753862               -2.14903982               -8.14299594               -5.74647805
              27.45149486                9.12164184               85.28899549                0.00010000                0.36709503                1.65444985               -5.59022210               -2.22413689               -8.60591284               -7.62400051
              28.46295946                8.58580161               84.80242777                0.00010000                1.87750706                2.09048803               -8.36387228               -1.89101599               -7.44894575               -9.53241597
              29.48904500                8.05515414               84.33230407                0.00010000                3.10916611                2.47800901              -10.74080528               -1.11972314               -4.46057869              -11.18709459
              30.52514279                7.53200097               83.89263622                0.37531837                3.60977870                2.66090379              -12.06088307               -0.45375653               -1.90410440              -12.21600397
              21.09659682               13.90755589               88.33686613                1.00000000                0.01793124                0.08055322               -0.19925275               -0.00454463               -0.00664719                0.51480376
              22.09677613               13.36745194               87.90890217                0.77406475               -0.01658612               -0.03996535                0.07505284               -0.02205107               -0.01526589               -0.19483925
              23.09626509               12.82701779               87.48081157                0.00010000               -1.61256973               -0.14666368                0.34621942               -0.08035291               -1.07315192               -0.88811161
              24.06452473               12.28592078               87.03150446                0.00010000               -3.35949132                0.42936821                0.81642930               -0.38830852               -2.92361683               -1.38634625
              25.02907527               11.74819554               86.57107248                0.00010000               -3.38149076                0.91442024                0.39678250               -0.73229986               -4.92058507               -2.11874902
              25.99689492               11.21163988               86.09335217                0.00010000               -2.71712640                1.34254061               -1.02500062               -1.20505607               -7.28236686               -3.10878520
              26.97473274               10.67593236               85.59943148                0.00010000               -1.45834384                1.79072910               -3.35326972               -1.53260593               -9.11637484               -4.32923031
              27.96772804               10.14192433               85.09663877                0.00010000                0.17800448                2.29745288               -6.30547912               -1.58725416               -9.67106652               -5.69251439
              28.97829283                9.61099684               84.59732299                0.00010000                1.88340957                2.82263057               -9.42599069               -1.31749964               -8.39606482               -7.04229714
              30.00539623                9.08459210               84.11706053                0.00010000                3.27575689                3.27984676              -12.10659935               -0.75067030               -5.03632621               -8.14230485
              31.04380797                8.56367995               83.67221558                0.37578179                3.84117336                3.55506186              -13.62736806               -0.29581975               -2.20530065               -8.71853843
              21.63727793               14.90833106               88.19754325                1.00000000                0.01739950                0.07442745               -0.20343619               -0.00118291                0.00095766                0.48323353
              22.63745193               14.36708979               87.76618885                0.82143889               -0.02131138               -0.03320697                0.08062564               -0.01164199               -0.00655278               -0.17184062
              23.63685170               13.82563228               87.33470787                0.00010000               -1.84122349               -0.13082302                0.35861092                0.33010832               -0.95756516               -0.73827446
              24.60062746               13.29132854               86.88411899                0.00010000               -3.87426359                0.71147434                0.92786410                0.31904152               -2.82350181               -0.99843893
              25.55936643               12.75915472               86.42007176                0.00010000               -3.96460617                1.29572775                0.51813655               -0.24518622               -5.09104655               -1.44303171
              26.52133533               12.22720445               85.93636370                0.00010000               -3.23427198                1.70327220               -0.99316829               -0.73756710               -7.73615987               -2.07787343
              27.49468099               11.69620107               85.43427063                0.00010000               -1.83250215                2.17662196               -3.50154676               -1.00605510               -9.81461474               -2.85565449
              28.48468529               11.16759089               84.92200927                0.00010000               -0.03696485                2.73223621               -6.69618758               -1.03223768              -10.49575387               -3.71534814
              29.49394170               10.64225423               84.41342799                0.00010000                1.83315965                3.31155163              -10.07791833               -0.83488981               -9.15588408               -4.54074802
              30.52134848               10.12075107               83.92617107                0.00010000                3.35544993                3.81957700              -12.97875709               -0.45575684               -5.50015819               -5.12852881
              31.56105069                9.60310221               83.47864058                0.37631687                3.97022106                4.17014819              -14.62025335               -0.17256137               -2.45989577               -5.20589577
              22.17905570               15.90904444               88.05789185                1.00000000                0.01863725                0.07059435               -0.21114860                0.00104616                0.03059118                0.37801424
              23.17924207               15.36678780               87.62356501                0.69836492               -0.02135947               -0.03006630                0.08785018               -0.00405091                0.10616218               -0.16259016
              24.17862851               14.82440133               87.19075468                0.00010000               -2.09294782               -0.11900083                0.35640634                0.89537401               -0.62971185               -0.55645190
              25.13738312               14.30015027               86.74148745                0.00010000               -4.51664393                1.27307142                1.09907521                0.76116037               -2.46087780               -0.51835432
              26.08829563               13.77411009               86.27707301                0.00010000               -4.61429456                1.56316133                0.76719624                0.03625359               -4.99999411               -0.73985793
              27.04509723               13.24570532               85.79034024                0.00010000               -3.70352215                1.90997726               -0.77279532               -0.39125314               -7.98770273               -1.04110507
              28.01422519               12.71946480               85.28308135                0.00010000               -2.20335450                2.38796233               -3.39545784               -0.53031779              -10.36575693               -1.40446141
              29.00103014               12.19656905               84.76419570                0.00010000               -0.28951681                2.97361328               -6.76862955               -0.53412597              -11.24539593               -1.80340350
              30.00843485               11.67722788               84.24872876                0.00010000                1.72014884                3.58631385              -10.35617944               -0.42635902               -9.92035193               -2.17744065
              31.03543311               11.16098364               83.75634227                0.00010000                3.36098063                4.12175337              -13.42576510               -0.22818997               -5.99620060               -2.39971730
              32.07565447               10.64708291               83.30845761                0.37640910                4.02213538                4.48892992              -15.09609397               -0.07507807               -2.74867169               -2.11841497
              22.72181213               16.90974295               87.91663068                1.00000000                0.02018908                0.06985112               -0.22076861               -0.04980582                0.19515546                0.28983743
              23.72201402               16.36648846               87.48085055                0.79485165               -0.02077056               -0.02993370                0.08866296               -0.04733997                0.33318004               -0.15769720
              24.72139672               15.82325226               87.04781827                0.36249531               -2.79360597               -0.11490674                0.34880027                1.79189557                0.00153846               -0.48247376
              25.66614190               15.31678997               86.60517345                0.36132838               -5.34301326                1.66396978                1.40100172                1.23416265               -1.69466442               -0.32986033
              26.61453645               14.79041795               86.14244493                0.36088067               -4.89931671                1.63078574                1.18983553                0.05478310               -4.73286740               -0.46342280
              27.56815556               14.26540399               85.65516437                0.36135493               -4.06627727                1.96986713               -0.33118848               -0.01704763               -8.14100868               -0.56673848
              28.53321091               13.74396032               85.14507088                0.36251334               -2.59579349                2.44955220               -3.02969295               -0.01847008              -10.91101301               -0.65320623
              29.51623969               13.22706316               84.62156501                0.36434320               -0.61054905                3.04941076               -6.55007022                0.02196496              -12.08412658               -0.71967042
              30.52099992               12.71398050               84.10048073                0.36768688                1.53449749                3.67526278              -10.32879027                0.06265608              -10.91727863               -0.74564784
              31.54692964               12.20318614               83.60252964                0.37240846                3.31753323                4.22024976              -13.60035211                0.09466841               -6.85517111               -0.68210565
              32.58735059               11.69288081               83.15321098                0.68837609                4.04209448                4.57978932              -15.33185341                0.13907899               -3.44742621               -0.14865324
              17.74309779                7.04734937               90.30322249                1.00000000               -0.00133619                0.03707998               -0.11271537                0.02731025               -0.50863586                0.45245526
              18.74308442                6.50980642               89.89917923                1.00000000               -0.03808332               -0.01274012                0.06099497                0.02946497               -0.70478973                0.06538128
              19.74233612                5.97189119               89.49147897                1.00000000               -0.10353243               -0.05340370                0.23966854                0.02112927               -0.75543902               -0.05430738
              20.74101378                5.43319509               89.08620882                0.69322165               -0.17654772               -0.10868987                0.41401180               -0.03930722               -0.70680106               -0.29090178
              21.73880517                4.89283543               88.67898591                0.65796488               -0.20635801               -0.15051516                0.54868781               -0.04650543               -0.50463585               -0.17147871
              22.73688662                4.35099218               88.27751289                0.62785056               -0.13434684               -0.19651420                0.63374640               -0.06041029                0.05906469               -0.17232015
              23.73611823                3.80748530               87.88173618                0.61193483                0.02258190               -0.20661062                0.57723604               -0.12016514                0.54461592               -0.22247404
              24.73733825                3.26278869               87.49098238                0.64693041                0.15338574               -0.13484246                0.25331707               -0.25501003                0.71165473               -0.22808174
              25.73918594                2.71777269               87.10305336                0.91080493                0.17142637                0.04026180               -0.17982500               -0.24118666                0.44347010               -0.03767301
              26.74076678                2.17436012               86.71459300                1.00000000                0.23489089                0.20348974               -0.83711669               -0.09418329                0.25637057                0.02176378
              27.74388376                1.63165358               86.32484960                1.00000000                0.31169804                0.33866034               -1.17851299               -0.10181999                0.10319709               -0.17649371
              18.28091384                8.04772017               90.16313500                1.00000000                0.01943278                0.03935039               -0.13678922                0.00109702               -0.13709566                0.60254489
              19.28110817                7.50967902               89.75909643                1.00000000               -0.00303797               -0.01388003                0.03557051                0.00371792               -0.21365279                0.09653056
              20.28085308                6.97135715               89.35395362                1.00000000               -0.04797921               -0.05641013                0.19426310               -0.01475903               -0.23823287               -0.14950881
              21.28014858                6.43210819               88.94966525                1.00000000               -0.07057579               -0.11811284                0.33619444               -0.03966352               -0.15309685               -0.20559118
              22.27944156                5.89133028               88.54643847                1.00000000               -0.05955041               -0.15690846                0.43338436               -0.04773563                0.03764476               -0.09482912
              23.27895757                5.34902704               88.14710069                1.00000000               -0.02116207               -0.19145931                0.48541930               -0.05239279                0.35139446               -0.08823741
              24.27901832                4.80541920               87.75201977                1.00000000                0.03434426               -0.18407321                0.41286396               -0.06356008                0.61123503               -0.09565458
              25.27964446                4.26144026               87.36116251                1.00000000                0.09850189               -0.10928321                0.17984189               -0.10096761                0.73590173               -0.07484545
              26.28098836                3.71817531               86.97342445                1.00000000                0.16200223                0.04290583               -0.20709353               -0.07838400                0.67530134               -0.02753299
              27.28288450                3.17639502               86.58555187                1.00000000                0.22918729                0.18517505               -0.66857173               -0.00399126                0.42184796               -0.03262508
              28.28557211                2.63504018               86.19520645                1.00000000                0.26876018                0.31739125               -1.05348313               -0.02550346                0.21549978               -0.19703920
              18.81920203                9.04813638               90.02639988                1.00000000                0.03197758                0.05022242               -0.16519291               -0.00999883               -0.03788198                0.76265224
              19.81952181                8.50952882               89.61974096                1.00000000                0.02048709               -0.01199995                0.01398913               -0.01485263                0.00723099                0.11084131
              20.81961177                7.97076298               89.21449423                0.00010000                0.03627864               -0.05813975                0.17139309               -0.08077080                0.30640092               -0.43142503
              21.82024738                7.43083283               88.81432608                0.00010000                0.06599152               -0.47996414                0.25708870               -0.73033575                0.46836754               -1.09623378
              22.82093160                6.88969726               88.41419845                0.00010000                0.07512298               -0.63119981                0.32855392               -1.39748098                0.46816156               -1.99192826
              23.82174984                6.34716299               88.01638714                0.00010000                0.07510992               -0.77989033                0.35474197               -2.01298438                0.57766865               -3.37239681
              24.82243380                5.80380384               87.62199489                0.00010000                0.04064762               -0.93179111                0.29625393               -2.39407328                0.69071424               -5.19346668
              25.82256279                5.26060303               87.23141969                0.00010000                0.01148539               -1.07964833                0.13125515               -2.36680184                0.77608119               -7.34583084
              26.82266351                4.71863081               86.84394442                0.00010000                0.06296464               -1.21026001               -0.20320029               -1.84817114                0.80211060               -9.63604653
              27.82382208                4.17806362               86.45682271                0.00010000                0.17099307               -1.28310645               -0.53670979               -0.85260397                0.57504574              -11.65519075
              28.82608337                3.63800140               86.06615701                0.37132131                0.22612867               -1.18362140               -0.92634043                0.54601836                0.33658614              -13.05147846
              19.35792898               10.04872462               89.88953387                1.00000000                0.02555303                0.06878637               -0.17738300               -0.01607863                0.03930683                0.72256743
              20.35818451                9.50943902               89.47988573                0.75437493                0.00023371               -0.00944885                0.00514268               -0.02187579                0.06911272               -0.02139011
              21.35793365                8.97019435               89.07118293                0.00010000               -0.57884590               -0.09573256                0.16791241               -0.45358989               -0.04482216               -0.81247199
              22.34660759                8.42250891               88.65890840                0.00010000               -1.13859374               -0.59245676                0.74337549               -1.64803998               -0.51590600               -1.94114754
              23.33516178                7.87870628               88.24215757                0.00010000               -1.10081437               -0.83277267                0.81480822               -2.64613511               -1.48215809               -3.72787261
              24.32459131                7.33342923               87.81789582                0.00010000               -0.87324771               -1.02447118                0.38330575               -3.81149216               -2.64565530               -6.41309679
              25.31769683                6.78678338               87.38730381                0.00010000               -0.35549253               -1.24915153               -0.51771162               -4.57097646               -3.54056524               -9.99351321
              26.31748146                6.23984730               86.95371922                0.00010000                0.44337568               -1.51172885               -1.81304021               -4.61112683               -3.86684427              -14.25433826
              27.32656434                5.69397011               86.52163513                0.00010000                1.44901871               -1.78254483               -3.33768903               -3.77069126               -3.45102406              -18.75696222
              28.34646183                5.15073289               86.09582347                0.00010000                2.50262878               -1.95776902               -4.77529192               -2.09497425               -2.19377989              -22.75644171
              29.37661691                4.61136775               85.68023350                0.37142247                3.01550856               -1.65215764               -5.73616096               -0.14091116               -0.63733338              -25.65023106
              19.89745166               11.04951211               89.75180172                1.00000000                0.01629006                0.08391311               -0.17648042               -0.00819415                0.00077292                0.64553426
              20.89761456               10.50933984               89.33782536                0.71853624                0.00092173               -0.02028318                0.02703826               -0.02885716                0.01553301               -0.16453587
              21.89747009                9.96884833               88.92431336                0.00010000               -0.94199513               -0.14681971                0.20110040               -0.51304918               -0.36465556               -1.01501332
              22.87877465                9.41898369               88.50249317                0.00010000               -2.01907585               -0.22065681                1.02922681               -1.43718899               -1.39517814               -1.87929510
              23.85708857                8.87304180               88.07002428                0.00010000               -2.06658772               -0.32432517                1.05541141               -2.14465725               -3.11204083               -3.46683845
              24.83744290                8.32667357               87.62274146                0.00010000               -1.62461842               -0.35061528                0.22702591               -3.05849167               -5.11608652               -5.85584004
              25.82459620                7.77882081               87.16181367                0.00010000               -0.71446892               -0.35726425               -1.37972120               -3.72223084               -6.69925735               -9.00752245
              26.82315352                7.23036845               86.69286672                0.00010000                0.58839430               -0.36617310               -3.57979347               -3.87039548               -7.28658142              -12.73156388
              27.83636409                6.68297991               86.22478756                0.00010000                2.06857164               -0.35717757               -6.06016229               -3.39756891               -6.46177478              -16.65329969
              28.86452495                6.13890824               85.76843840                0.00010000                3.28156657               -0.24801167               -8.33570550               -2.14906419               -3.93830018              -20.22053182
              29.90199542                5.60495825               85.33616414                0.37162326                3.74704688                0.17606304               -9.76253768               -0.95915321               -1.55928804              -22.61167289
              20.43810962               12.05040288               89.61319784                1.00000000                0.01615182                0.08637558               -0.17034886               -0.00783804               -0.00706466                0.58328013
              21.43827114               11.50903336               89.19517137                0.74524908               -0.00404020               -0.03259131                0.04053774               -0.02861039               -0.02346039               -0.19487523
              22.43802882               10.96725796               88.77694687                0.00010000               -1.23004011               -0.15174402                0.24790859               -0.42790412               -0.62840851               -0.98810469
              23.41367034               10.41809577               88.34662064                0.00010000               -2.67250309                0.00100334                1.23351172               -1.15070883               -2.07432936               -1.73441963
              24.38457876                9.87221978               87.90083853                0.00010000               -2.80139363                0.10735884                1.19145111               -1.65749583               -4.34730367               -3.07733189
              25.35764247                9.32641693               87.43431134                0.00010000               -2.25107139                0.26087344                0.03342141               -2.37516564               -6.94939142               -5.11234455
              26.33955733                8.77963809               86.94857738                0.00010000               -1.08640122                0.47861883               -2.13918658               -2.94830325               -9.00285325               -7.78411411
              27.33591444                8.23252384               86.45116404                0.00010000                0.52579177                0.74865729               -5.06529879               -3.14548716               -9.75548312              -10.91903297
              28.35007317                7.68682656               85.95442193                0.00010000                2.27938813                1.07231050               -8.31907217               -2.81889488               -8.62233303              -14.21331760
              29.38150221                7.14577266               85.47421978                0.00010000                3.76303353                1.47085978              -11.28858018               -1.81248218               -5.26323878              -17.18980494
              30.42533384                6.61488901               85.02821225                0.37183388                4.38316309                1.77508498              -13.18297526               -0.77491810               -2.23204273              -19.21914086
              20.98003394               13.05123962               89.47420640                1.00000000                0.01533266                0.07960787               -0.16887655               -0.00499446               -0.00836646                0.54831594
              21.98018727               12.50868802               89.05235100                0.77877983               -0.00921740               -0.03273482                0.05079799               -0.02162430               -0.02437271               -0.18979080
              22.97984960               11.96581345               88.63026580                0.00010000               -1.46943051               -0.13574015                0.27240244               -0.24361758               -0.78663085               -0.90948287
              23.95079866               11.41900376               88.19300261                0.00010000               -3.21160486                0.17318791                1.39986153               -0.73694748               -2.52597376               -1.51396122
              24.91561750               10.87518898               87.73674396                0.00010000               -3.41386943                0.46051883                1.30427104               -1.15088052               -5.19697582               -2.59876188
              25.88252127               10.33189104               87.25503404                0.00010000               -2.80471347                0.79152890               -0.11057318               -1.73596202               -8.24575340               -4.23733036
              26.85952323                9.78839319               86.74974759                0.00010000               -1.47329806                1.20943109               -2.72235866               -2.21583269              -10.64904938               -6.37572098
              27.85305531                9.24534159               86.23002159                0.00010000                0.36070713                1.72176770               -6.21724696               -2.38999766              -11.52686071               -8.86583865
              28.86673737                8.70442612               85.71100877                0.00010000                2.35787710                2.30733950              -10.09026179               -2.12480599              -10.18947192              -11.45234158
              29.90021285                8.16832544               85.21223317                0.00010000                4.07634874                2.88853358              -13.63764591               -1.32092966               -6.21985646              -13.76323496
              30.94826435                7.64045995               84.75536199                0.37210192                4.80514943                3.26832668              -15.96766679               -0.56693975               -2.72313263              -15.32380293
              21.52311294               14.05199504               89.33500515                1.00000000                0.01518859                0.07178118               -0.17140345               -0.00287521               -0.00800731                0.52049471
              22.52326482               13.50837866               88.90955575                0.80927523               -0.01361064               -0.02818789                0.05746329               -0.01355765               -0.01817917               -0.16993372
              23.52284073               12.96454316               88.48396343                0.00010000               -1.68544813               -0.11970256                0.28675062                0.01020547               -0.79975507               -0.84720995
              24.48955586               12.42155953               88.04272354                0.00010000               -3.70834276                0.35092314                1.55833112               -0.23541643               -2.67654915               -1.24462596
              25.44867387               11.88143015               87.57938874                0.00010000               -3.99184189                0.78407171                1.44966174               -0.63231282               -5.67880507               -2.04945017
              26.40971902               11.34224750               87.08666853                0.00010000               -3.34418739                1.23976944               -0.14065308               -1.15540669               -9.09931379               -3.26259473
              27.38179012               10.80382671               86.56678165                0.00010000               -1.88187341                1.79719025               -3.07389269               -1.54502049              -11.80353545               -4.83238595
              28.37208156               10.26695919               86.03022021                0.00010000                0.14015399                2.48428748               -6.99786147               -1.67170516              -12.81099460               -6.63991806
              29.38459320                9.73297335               85.49442873                0.00010000                2.34841144                3.24897962              -11.34802844               -1.45469970              -11.33939981               -8.48265138
              30.41904978                9.20354333               84.98187260                0.00010000                4.25664092                3.98410376              -15.34758964               -0.87318572               -6.91844371              -10.05624692
              31.46972602                8.68025555               84.51723240                0.37262096                5.06762365                4.53042024              -18.03003337               -0.37367240               -3.08535189              -11.00830105
              22.06720920               15.05267524               89.19563456                1.00000000                0.01588032                0.06514983               -0.17703937               -0.00098029               -0.00083746                0.48364230
              23.06736800               14.50812426               88.76689059                0.85238056               -0.01681790               -0.02332869                0.06126997               -0.00720989               -0.01094311               -0.14872852
              24.06687284               13.96341940               88.33797977                0.00010000               -1.90823324               -0.10584969                0.29679714                0.34652454               -0.62355604               -0.70491181
              25.02920334               13.42602222               87.89678757                0.00010000               -4.22947871                0.59893449                1.74413648                0.35445713               -2.46817722               -0.91846262
              25.98228327               12.89087042               87.43011800                0.00010000               -4.60933786                1.11939578                1.68467374               -0.19652177               -5.81448563               -1.43115754
              26.93701658               12.35668643               86.93052323                0.00010000               -3.91860658                1.58257437                0.00668232               -0.68421422               -9.59937836               -2.21838689
              27.90391113               11.82433699               86.40050287                0.00010000               -2.32710031                2.21230118               -3.14217648               -0.97612618              -12.62698155               -3.21307266
              28.89047457               11.29502734               85.85174968                0.00010000               -0.14259470                3.00648335               -7.37582674               -1.04891242              -13.81117548               -4.34676356
              29.90105924               10.76940571               85.30368467                0.00010000                2.24961823                3.88568593              -12.07886052               -0.89270120              -12.27364671               -5.47399019
              30.93546694               10.24800751               84.78149342                0.00010000                4.31536110                4.72765541              -16.40407645               -0.51469717               -7.49126986               -6.33069277
              31.98736646                9.73106835               84.31254405                0.37291849                5.18995242                5.41268978              -19.31398702               -0.22332785               -3.39974671               -6.55406831
              22.61219530               16.05329804               89.05590152                1.00000000                0.01811706                0.06199329               -0.18599794                0.00023534                0.03102700                0.37435309
              23.61237647               15.50791209               88.62431814                0.71748245               -0.01610229               -0.02098123                0.06416762               -0.00246596                0.09345558               -0.14370434
              24.61187325               14.96242616               88.19399956                0.00010000               -2.15912398               -0.09532385                0.29368331                0.82180560               -0.20205093               -0.53458541
              25.56919399               14.43353822               87.75629176                0.00010000               -4.88970107                1.09397853                2.00972527                0.71461089               -1.91862169               -0.46992116
              26.51407923               13.90381807               87.29031184                0.00010000               -5.33129123                1.34520544                2.09060584                0.04488220               -5.60737387               -0.76914650
              27.46256816               13.37389899               86.78748400                0.00010000               -4.50762737                1.77259366                0.40162973               -0.34748169               -9.85544864               -1.13902498
              28.42392668               12.84807274               86.25108274                0.00010000               -2.82667899                2.43449971               -2.87719890               -0.49162549              -13.29512657               -1.59561616
              29.40603458               12.32708886               85.69372411                0.00010000               -0.50838374                3.28912438               -7.33279903               -0.52205644              -14.76014025               -2.11493612
              30.41375901               11.81068707               85.13643618                0.00010000                2.05293076                4.23341287              -12.30471514               -0.44278063              -13.26070254               -2.62233870
              31.44709320               11.29809644               84.60713039                0.00010000                4.26893875                5.13228231              -16.86868270               -0.25186499               -8.13582279               -2.95010044
              32.49913778               10.78850934               84.13732480                0.37339893                5.20445836                5.86855636              -19.86352386               -0.11312701               -3.77596475               -2.61276529
              23.15798580               17.05391511               88.91453573                1.00000000                0.02047521                0.06170718               -0.19741851               -0.04199680                0.19330409                0.28433670
              24.15819056               16.50770464               88.48158850                0.80263302               -0.01514905               -0.02074521                0.06042633               -0.03870057                0.30963223               -0.14315867
              25.15768282               15.96151292               88.05096459                0.36213242               -2.80434533               -0.09132397                0.28418189                1.59081498                0.60915701               -0.46572396
              26.10210365               15.44790179               87.62377450                0.36113730               -5.74313438                1.43635779                2.49276678                1.10404601               -0.71398254               -0.45664732
              27.04282013               14.91777452               87.16100594                0.36099510               -5.81456853                1.39564560                2.76728428                0.08591572               -5.14282186               -0.62446357
              27.98581228               14.39213830               86.65794352                0.36120270               -5.09656881                1.82393098                1.12468816                0.08703438              -10.01623876               -0.73500912
              28.94088876               13.87302698               86.11790716                0.36185375               -3.41965819                2.49542491               -2.23938633                0.12978401              -14.01954759               -0.82136128
              29.91741911               13.36080983               85.55430249                0.36384698               -0.98463554                3.37209742               -6.87567007                0.19080224              -15.90184225               -0.88777392
              30.92119605               12.85407397               84.98926366                0.36620852                1.75941230                4.33869050              -12.08677773                0.23587032              -14.63477918               -0.90604966
              31.95260736               12.35065316               84.45212195                0.37019230                4.15410310                5.25567229              -16.90747446                0.26969158               -9.33302454               -0.80892908
              33.00427811               11.84843948               83.98014413                0.68673019                5.16707494                5.99301382              -19.99362349                0.29266475               -4.76060601               -0.05577250
              18.14125831                7.19200270               91.30250675                1.00000000               -0.01397944                0.01976158               -0.03330064                0.01068315               -0.48775586                0.43425219
              19.14111852                6.65067058               90.89991400                1.00000000               -0.03772964               -0.01868933                0.08516992                0.01089158               -0.67545011                0.06482009
              20.14050372                6.10911047               90.49378042                1.00000000               -0.08304040               -0.05361791                0.21965405                0.00784692               -0.72139646               -0.05173059
              21.13945771                5.56722793               90.08995890                0.69210682               -0.15404479               -0.08538901                0.33704818               -0.03363851               -0.68702661               -0.28164467
              22.13742282                5.02434732               89.68391367                0.67525012               -0.20167866               -0.09596094                0.44138535               -0.04513498               -0.51124560               -0.14815631
              23.13542414                4.48069300               89.28297441                0.67183455               -0.16608843               -0.11219726                0.47130390               -0.05793154               -0.03830200               -0.13435232
              24.13410105                3.93627595               88.88629648                0.69107203               -0.08817808               -0.09910888                0.37731784               -0.09601839                0.30277095               -0.14198497
              25.13366057                3.39147669               88.49292087                0.76209939               -0.02095115               -0.04111272                0.15163634               -0.11914577                0.44962125               -0.12134242
              26.13368203                2.84689414               88.10140424                1.00000000                0.04795672                0.04890745               -0.16344713               -0.07537855                0.33464076               -0.06592278
              27.13461971                2.30280761               87.70796105                1.00000000                0.15318189                0.15628864               -0.55820920               -0.04569201                0.17744628               -0.00310589
              28.13674567                1.75887956               87.31421990                1.00000000                0.21259603                0.26835011               -0.91928503               -0.05578059                0.08087043               -0.15404056
              18.68269726                8.19220032               91.16215934                1.00000000               -0.00237105                0.03085516               -0.06026931               -0.00849708               -0.13597048                0.58269540
              19.68267355                7.65048369               90.75955764                1.00000000               -0.01968733               -0.01553082                0.05661058               -0.00861944               -0.21449313                0.09607861
              20.68230351                7.10857429               90.35579200                1.00000000               -0.05853258               -0.05397414                0.17443869               -0.01091211               -0.24544956               -0.14045678
              21.68150290                6.56637404               89.95275009                1.00000000               -0.10322868               -0.08123230                0.28071447               -0.02954727               -0.18026022               -0.20144247
              22.68023894                6.02338771               89.55035955                1.00000000               -0.13111959               -0.09507294                0.35784963               -0.03434290               -0.02371346               -0.08246025
              23.67888051                5.47957102               89.15121217                1.00000000               -0.12449574               -0.10248073                0.37101518               -0.03989806                0.24693783               -0.06514626
              24.67774902                4.93528486               88.75539831                1.00000000               -0.08602436               -0.08463375                0.29736208               -0.04677840                0.48643721               -0.05586805
              25.67716002                4.39106556               88.36259958                1.00000000               -0.02431213               -0.03072441                0.11876317               -0.04627497                0.64834049               -0.04097884
              26.67726278                3.84738322               87.97173579                1.00000000                0.05050312                0.05299350               -0.15861396               -0.01183408                0.60036417               -0.04992015
              27.67817008                3.30437050               87.57977225                1.00000000                0.14265688                0.15151631               -0.50600531                0.01358327                0.37182932               -0.02935416
              28.68011592                2.76156306               87.18571061                1.00000000                0.19458388                0.25580749               -0.83605316                0.00456997                0.20299766               -0.20150655
              19.22452162                9.19261980               91.02509810                1.00000000                0.00505344                0.05600216               -0.09605764               -0.01256973               -0.04529394                0.74955959
              20.22457216                8.65035997               90.61994788                1.00000000               -0.00632489               -0.00918757                0.02803389               -0.01139341               -0.00859297                0.11603098
              21.22439512                8.10803098               90.21605618                0.00010000               -0.02594075               -0.06282218                0.14313833               -0.00529051                0.25671233               -0.41209367
              22.22405334                7.56560329               89.81671101                0.00010000               -0.04280718               -0.32226028                0.22152780               -0.58342361                0.38778891               -0.73829004
              23.22353898                7.02244586               89.41721020                0.00010000               -0.06621582               -0.44018944                0.27960296               -1.34459336                0.36858228               -1.58608949
              24.22272903                6.47864338               89.01948259                0.00010000               -0.09340153               -0.63138982                0.28922873               -2.08781908                0.47819752               -3.20203899
              25.22167095                5.93458327               88.62457133                0.00010000               -0.10461546               -0.90992890                0.23585851               -2.58262115                0.64399133               -5.52993081
              26.22063672                5.39086220               88.23250451                0.00010000               -0.07652705               -1.25876998                0.09225829               -2.62237552                0.79915988               -8.37600382
              27.22014041                4.84795401               87.84221313                0.00010000                0.00374084               -1.64105999               -0.15819947               -2.05060736                0.84730425              -11.41384127
              28.22071153                4.30583794               87.45187736                0.00010000                0.11557718               -1.96690801               -0.45498758               -0.77482896                0.61144186              -14.10003417
              29.22245195                3.76399571               87.05771099                0.36850003                0.17404201               -2.24937273               -0.75967839                1.25406432                0.37244062              -15.94276817
              19.76696554               10.19332036               90.88805195                1.00000000                0.00689620                0.07951513               -0.11920149               -0.00783337                0.02449760                0.72566605
              20.76703450                9.65029994               90.47994297                0.79240521               -0.00055772               -0.00961768                0.00809419               -0.00489013                0.04321583                0.00431093
              21.76695438                9.10731784               90.07257782                0.00010000               -0.58074758               -0.10301216                0.11491950               -0.21614640                0.22736963               -0.76909681
              22.75541955                8.55992884               89.66783233                0.00010000               -1.33237049               -0.41139257                1.10773518               -1.25436794               -0.09738590               -1.20144570
              23.74030697                8.01458392               89.25241116                0.00010000               -1.52164188               -0.60974487                1.32727596               -2.53436275               -1.63668448               -2.92277659
              24.72498671                7.46694323               88.82354651                0.00010000               -1.32145947               -0.89457707                0.83383858               -3.99126880               -3.36288401               -6.10707532
              25.71387779                6.91708628               88.38281259                0.00010000               -0.68224720               -1.32149680               -0.31259801               -5.00890384               -4.74621102              -10.68900951
              26.71134177                6.36589016               87.93450995                0.00010000                0.36985545               -1.87926038               -1.99804950               -5.21173568               -5.39858341              -16.29605579
              27.72127489                5.81456202               87.48509281                0.00010000                1.76450199               -2.51134732               -4.01007708               -4.32121966               -4.98242613              -22.26991724
              28.74663181                5.26503234               87.04272381                0.00010000                3.38033895               -3.10542016               -5.98255871               -2.37472551               -3.23337086              -27.68159300
              29.78888167                4.71657560               86.61548523                0.36869949                4.22498656               -3.21616226               -7.42863129                0.14439577               -1.04158622              -31.59651540
              20.31040580               11.19421011               90.75026905                1.00000000                0.00710727                0.08905544               -0.12980341               -0.00227918               -0.00171746                0.65859171
              21.31047687               10.65016761               90.33803724                0.76379807                0.00187510               -0.01813801                0.01810252               -0.00889409                0.00089530               -0.12488715
              22.31044330               10.10597074               89.92604514                0.00010000               -0.93884817               -0.13798531                0.14937158               -0.24012722                0.08870280               -0.94146920
              23.29169991                9.55737543               89.51537369                0.00010000               -2.23029831               -0.17678162                1.65182227               -1.00725208               -0.71694025               -1.29003896
              24.26583733                9.01025096               89.08428946                0.00010000               -2.56493086               -0.27600367                1.94403711               -1.95553739               -3.31534714               -2.85237932
              25.24040129                8.46075184               88.62823229                0.00010000               -2.16456959               -0.36289644                1.01457375               -3.09902962               -6.23555418               -5.70579053
              26.22254594                7.90815334               88.14931848                0.00010000               -1.07375118               -0.47777007               -1.01479364               -3.96303307               -8.60614263               -9.73471768
              27.21892627                7.35327699               87.65525432                0.00010000                0.60139476               -0.62951762               -3.91236851               -4.25481766               -9.69050320              -14.63034516
              28.23457384                6.79772707               87.15845731                0.00010000                2.61385854               -0.79312476               -7.29308464               -3.83496508               -8.85118401              -19.87141092
              29.27120344                6.24372954               86.67516901                0.00010000                4.38397528               -0.87956436              -10.56141474               -2.48757251               -5.53551490              -24.75325576
              30.32225334                5.69967246               86.22507001                0.36879482                5.10499057               -0.48471982              -12.85924301               -1.15224228               -2.28744569              -28.17975238
              20.85500494               12.19510147               90.61167964                1.00000000                0.00910432                0.08344509               -0.13272154               -0.00149889               -0.00832858                0.59725272
              21.85509598               11.64993718               90.19550441                0.78729950               -0.00304612               -0.02293552                0.02869574               -0.01061028               -0.02544216               -0.15859209
              22.85494402               11.10455814               89.77913117                0.00010000               -1.20508493               -0.13057038                0.19262353               -0.17219480               -0.04945748               -0.91994880
              23.83099429               10.55639320               89.36231839                0.00010000               -2.85620998               -0.05081927                2.03690545               -0.73102279               -1.21941157               -1.26527930
              24.79781982               10.00906385               88.91754736                0.00010000               -3.29452702                0.00449548                2.33209112               -1.43923273               -4.57867231               -2.62226563
              25.76510375                9.45968530               88.43877365                0.00010000               -2.78639229                0.12490001                1.03519549               -2.33398366               -8.31065883               -5.06448471
              26.74209197                8.90753088               87.92876149                0.00010000               -1.42160304                0.32572323               -1.69959217               -3.06412039              -11.32583508               -8.47932853
              27.73667169                8.35329981               87.39794377                0.00010000                0.60155371                0.59959539               -5.55374851               -3.40305833              -12.66464084              -12.61095903
              28.75412305                7.79869952               86.86338716                0.00010000                2.91316387                0.95104599              -10.01707470               -3.17370740              -11.48896587              -17.05718421
              29.79493496                7.24744105               86.34782293                0.00010000                4.99139654                1.42535414              -14.32760391               -2.13635515               -7.17241292              -21.22196025
              30.85395098                6.70688121               85.87795225                0.36922489                5.90160164                1.84161511              -17.44375564               -0.94752769               -3.12358121              -24.30428741
              21.40070440               13.19587901               90.47267799                1.00000000                0.01035954                0.07180792               -0.13613345               -0.00048397               -0.00901299                0.55830399
              22.40080800               12.64970890               90.05278268                0.81640486               -0.00805108               -0.02117499                0.03782053               -0.00806979               -0.02377514               -0.15787209
              23.40054338               12.10335933               89.63269381                0.00010000               -1.41171268               -0.10992579                0.21624138               -0.05958359               -0.11084635               -0.85776941
              24.37257374               11.55635905               89.21092821                0.00010000               -3.33913979                0.04250488                2.33176176               -0.42221508               -1.51743425               -1.17226108
              25.33376058               11.01034087               88.75535287                0.00010000               -3.86595788                0.23843260                2.61940609               -0.96874258               -5.42061244               -2.30085722
              26.29525458               10.46324984               88.25867758                0.00010000               -3.30557786                0.56067480                1.03262207               -1.66305445               -9.73620059               -4.28163129
              27.26764903                9.91466780               87.72424045                0.00010000               -1.77790637                1.04992410               -2.24735447               -2.24812815              -13.20875990               -7.01566282
              28.25969646                9.36526890               87.16465055                0.00010000                0.46547095                1.70490363               -6.84293479               -2.53652160              -14.72900729              -10.30428486
              29.27695844                8.81674798               86.60062253                0.00010000                3.02990960                2.49841982              -12.15596840               -2.36514460              -13.33634108              -13.82859945
              30.32029465                8.27223662               86.05955115                0.00010000                5.37320184                3.33829283              -17.31878486               -1.54772476               -8.30644272              -17.13331786
              31.38442248                7.73650476               85.57328288                0.36972677                6.41278324                3.97253344              -21.16780311               -0.70166793               -3.70471977              -19.62611914
              21.94733547               14.19653763               90.33343806                1.00000000                0.01187915                0.06142654               -0.14139214               -0.00015893               -0.00845375                0.52651189
              22.94745426               13.64951368               89.91005144                0.83833855               -0.01166355               -0.01780387                0.04371103               -0.00490729               -0.01780862               -0.14347340
              23.94710220               13.10235962               89.48654658                0.00010000               -1.59429092               -0.09307097                0.23221308                0.08349220               -0.03558723               -0.80506134
              24.91556845               12.55724330               89.06267109                0.00010000               -3.77740134                0.15160062                2.58619877               -0.09875911               -1.51319378               -1.03324075
              25.87155418               12.01383250               88.60006571                0.00010000               -4.40263588                0.46337984                2.89782110               -0.53820105               -5.85129720               -1.90619804
              26.82751573               11.47089880               88.09053911                0.00010000               -3.82219109                0.93856971                1.11585125               -1.07974127              -10.63686466               -3.38500517
              27.79511035               10.92852936               87.53795362                0.00010000               -2.18273300                1.64853647               -2.55895405               -1.51175140              -14.49206407               -5.39036974
              28.78386107               10.38739788               86.95668154                0.00010000                0.23710415                2.59414087               -7.70723609               -1.71389615              -16.19270234               -7.77673102
              29.79985244                9.84866792               86.37036242                0.00010000                3.01813107                3.70094944              -13.66635916               -1.57122020              -14.66653949              -10.30354322
              30.84422369                9.31420691               85.81010874                0.00010000                5.57644483                4.83214080              -19.48873235               -0.99834917               -9.12037626              -12.60210191
              31.91138133                8.78633187               85.31161491                0.36987300                6.71576432                5.77118399              -23.92180400               -0.46090199               -4.12589996              -14.23199282
              22.49474912               15.19710754               90.19400247                1.00000000                0.01387363                0.05463478               -0.14893595               -0.00009535               -0.00157992                0.48562480
              23.49488785               14.64935283               89.76741425                0.87401925               -0.01327593               -0.01489392                0.04547744               -0.00253718               -0.01282508               -0.12702314
              24.49448360               14.10149791               89.34064381                0.00010000               -1.78810860               -0.08174131                0.23986771                0.27749523                0.24292588               -0.67393690
              25.45912568               13.55939106               88.91900172                0.00010000               -4.25712663                0.32608080                2.85826854                0.26202547               -1.11145417               -0.82245665
              26.40934107               13.01960847               88.45376524                0.00010000               -5.00813930                0.70033604                3.26368966               -0.19840425               -5.87877820               -1.41516197
              27.35896290               12.48202124               87.93649735                0.00010000               -4.42130774                1.23028661                1.39559661               -0.61341579              -11.11923114               -2.38470753
              28.32091491               11.94763853               87.37142710                0.00010000               -2.68414599                2.08094119               -2.53738941               -0.89486620              -15.39180273               -3.64531739
              29.30527998               11.41715172               86.77449273                0.00010000               -0.10949502                3.21598180               -8.07757493               -1.01293662              -17.33603666               -5.13340984
              30.31872501               10.89076697               86.17185078                0.00010000                2.86918656                4.52670956              -14.50668661               -0.91550936              -15.75853050               -6.68164719
              31.36266371               10.36887943               85.59808954                0.00010000                5.61147488                5.85730997              -20.79858858               -0.56170933               -9.79626226               -7.96455868
              32.43095451                9.85192844               85.09236084                0.36998595                6.82908013                7.04478266              -25.61874208               -0.27684896               -4.49870337               -8.51797586
              23.04284299               16.19763032               90.05417189                1.00000000                0.01701533                0.05268553               -0.15960574               -0.00027468                0.03150610                0.37266978
              24.04301315               15.64921580               89.62484836                0.73046052               -0.01145608               -0.01341295                0.04380379               -0.00077879                0.08537039               -0.12798413
              25.04261387               15.10072480               89.19662834                0.00010000               -2.01573728               -0.07451005                0.23494780                0.57296876                0.81395653               -0.51421054
              26.00269840               14.56376492               88.78168196                0.00010000               -4.88289780                0.66502416                3.23574152                0.49048195               -0.26910058               -0.42598610
              26.94495592               14.02783922               88.31888513                0.00010000               -5.77405246                0.84660044                3.85681890               -0.00452306               -5.46002840               -0.83155774
              27.88721735               13.49550453               87.79837284                0.00010000               -5.14366834                1.38817716                1.99904072               -0.28621803              -11.31873938               -1.27890383
              28.84208255               12.97014818               87.22553737                0.00010000               -3.33717297                2.31228661               -2.08199423               -0.41204696              -16.14625395               -1.84465083
              29.82047389               12.45171752               86.61753972                0.00010000               -0.61340088                3.54996082               -7.89568630               -0.46898545              -18.47837987               -2.51691201
              30.82981453               11.93920211               86.00263445                0.00010000                2.56770715                4.97187849              -14.67112967               -0.43022704              -16.97815163               -3.21114938
              31.87182803               11.43135311               85.41896861                0.00010000                5.49659041                6.40724985              -21.29359425               -0.26248012              -10.59996437               -3.71619855
              32.93974634               10.92722753               84.91118713                0.37045911                6.79183043                7.70991302              -26.28457968               -0.15557810               -4.96961541               -3.39044795
              23.59157267               17.19816125               89.91268231                1.00000000                0.02051360                0.05309270               -0.17279048               -0.03470060                0.19180708                0.28097991
              24.59177781               16.64908457               89.48205908                0.80761148               -0.00894058               -0.01312335                0.03579728               -0.03121087                0.29467199               -0.13219584
              25.59139386               16.10000771               89.05350191                0.36137368               -2.49784539               -0.07170830                0.22471843                1.05834757                1.91343707               -0.45050956
              26.54182090               15.57269154               88.65502879                0.36108259               -5.69414314                0.89266271                3.95515177                0.73888799                1.60774838               -0.67543905
              27.47751100               15.03654048               88.19779062                0.36099555               -6.54456634                0.87012579                4.86001124                0.11016975               -4.68345676               -0.88360986
              28.41092957               14.50978478               87.67765813                0.36112372               -6.05250055                1.42802512                3.08044549                0.23841123              -11.45128313               -0.99371669
              29.35646098               13.99388426               87.10028315                0.36160635               -4.20416137                2.37360777               -1.09792578                0.35615131              -17.06682388               -1.07181546
              30.32684634               13.48815093               86.48405161                0.36278598               -1.29880527                3.64334167               -7.13103313                0.45325927              -19.97101540               -1.13601787
              31.33048488               12.99020454               85.85874517                0.36483217                2.12711714                5.10024351              -14.20028543                0.51070979              -18.79448337               -1.14997540
              32.36938869               12.49702443               85.26438015                0.36793795                5.28046145                6.56713239              -21.14256453                0.55217311              -12.19634356               -1.02528193
              33.43609411               12.00612670               84.75333851                0.68501195                6.67054216                7.88991748              -26.26532328                0.54500397               -6.29284375               -0.02852989
              18.53852817                7.33672923               92.30255648                1.00000000               -0.02264111                0.00534931                0.03578995               -0.00440274               -0.45643115                0.41332933
              19.53830175                6.79181554               91.90088263                1.00000000               -0.03324389               -0.02488306                0.10498500               -0.00640240               -0.62903514                0.06297609
              20.53786329                6.24683341               91.49587205                1.00000000               -0.05808828               -0.05611536                0.19888885               -0.00295128               -0.66994706               -0.04605704
              21.53713999                5.70197982               91.09294978                0.69446902               -0.11492701               -0.06525870                0.26134498               -0.00905901               -0.64192838               -0.25797710
              22.53556475                5.15698054               90.68781362                0.69185004               -0.17011123               -0.05960070                0.34465947               -0.01346333               -0.48490734               -0.11956921
              23.53373776                4.61182961               90.28693897                0.70533720               -0.16687805               -0.06136846                0.34075663               -0.01495026               -0.07965496               -0.08991867
              24.53222719                4.06644194               89.88928254                0.74483708               -0.12574237               -0.04149549                0.24665334               -0.02801274                0.20124224               -0.08490397
              25.53122292                3.52100442               89.49401510                0.82891501               -0.06943040                0.00326238                0.07867446               -0.02745274                0.34585986               -0.07932585
              26.53083858                2.97579113               89.09978442                1.00000000                0.01385672                0.05768832               -0.16153229               -0.01800118                0.27555757               -0.06765827
              27.53150005                2.43067560               88.70342881                1.00000000                0.10724475                0.12160225               -0.39816792               -0.02536654                0.11644114               -0.02084611
              28.53298347                1.88559135               88.30646390                1.00000000                0.14834221                0.19276091               -0.65172857               -0.03123789                0.03036267               -0.13340198
              19.08339783                8.33678273               92.16192961                1.00000000               -0.02121845                0.02528649                0.00777626               -0.01817995               -0.12530735                0.55974338
              20.08318564                7.79156671               91.76022864                1.00000000               -0.03230953               -0.01757182                0.07541592               -0.02101784               -0.19584864                0.09343537
              21.08275164                7.24627225               91.35744239                1.00000000               -0.06049072               -0.05490556                0.15496516               -0.00599414               -0.22172914               -0.13290374
              22.08197583                6.70132723               90.95527954                1.00000000               -0.11232107               -0.04975139                0.22460288               -0.00892869               -0.15944507               -0.18475551
              23.08050522                6.15638454               90.55359546                1.00000000               -0.15591323               -0.05283448                0.28742002               -0.00721923               -0.01299956               -0.06990702
              24.07885756                5.61121593               90.15452099                1.00000000               -0.15727804               -0.05208691                0.28765900               -0.00713310                0.23150393               -0.04566249
              25.07735966                5.06602698               89.75796701                1.00000000               -0.12918870               -0.03254959                0.21568848               -0.00571824                0.44523605               -0.03631017
              26.07627379                4.52103704               89.36353777                1.00000000               -0.07683407                0.00840809                0.06884048                0.00111553                0.58077302               -0.03700002
              27.07582297                3.97636802               88.97025217                1.00000000                0.00362434                0.06029149               -0.14748927                0.01263768                0.53167711               -0.06056628
              28.07634628                3.43189163               88.57543176                1.00000000                0.09661868                0.12178890               -0.38627058                0.01019765                0.32097266               -0.03776285
              29.07775535                2.88751896               88.17848539                1.00000000                0.14090700                0.18900308               -0.61899052                0.00680593                0.16701286               -0.17866896
              19.62859659                9.33723496               92.02447873                1.00000000               -0.02047232                0.06421319               -0.03284454               -0.01513302               -0.04333127                0.72920017
              20.62839187                8.79146411               91.62030164                1.00000000               -0.03068537               -0.00654179                0.04166172               -0.00811755               -0.00534213                0.11555083
              21.62798289                8.24573529               91.21735699                0.00010000               -0.07713707               -0.07243978                0.11799455                0.06803680                0.25312458               -0.40578709
              22.62684913                7.70098479               90.81875663                0.00010000               -0.12256112               -0.07549592                0.18544358               -0.34803708                0.38433114               -0.14832523
              23.62553166                7.15592385               90.41979051                0.00010000               -0.14482365               -0.16065233                0.23089017               -1.19941099                0.36987178               -0.87162259
              24.62395266                6.61078787               90.02217171                0.00010000               -0.16199792               -0.43389474                0.23808384               -2.10291388                0.49071663               -2.76125430
              25.62229171                6.06579095               89.62671206                0.00010000               -0.15242322               -0.88854736                0.18436462               -2.75828911                0.66248368               -5.71431722
              26.62090419                5.52117258               89.23326486                0.00010000               -0.10274791               -1.49303338                0.05683447               -2.89191020                0.79501481               -9.46220205
              27.62023675                4.97699696               88.84078043                0.00010000               -0.01755650               -2.20202186               -0.13810885               -2.25911081                0.80776174              -13.54827002
              28.62055306                4.43311138               88.44772296                0.00010000                0.08140887               -2.90411210               -0.37660771               -0.62849203                0.57671472              -17.24000875
              29.62186493                3.88937141               88.05096345                0.36582867                0.13118631               -3.77202666               -0.59293981                2.25135271                0.35423850              -19.80026590
              20.17463688               10.33806699               91.88714984                1.00000000               -0.01139202                0.09106417               -0.06473879                0.00110521                0.01653398                0.71798104
              21.17452296                9.79143588               91.48004762                0.83432274               -0.00225951               -0.00917214                0.01348250                0.01104866                0.02626289                0.02242096
              22.17459169                9.24482346               91.07348132                0.00010000               -0.48482165               -0.11348484                0.07099016                0.11531233                0.77385806               -0.73138196
              23.16482653                8.69981731               90.68106310                0.00010000               -1.39388897               -0.11439670                1.61350344               -0.61547848                0.83069670                0.00040505
              24.14671391                8.15317149               90.26870309                0.00010000               -1.89471659               -0.25329174                2.03387217               -2.24439542               -1.47399545               -1.49491175
              25.12693220                7.60253803               89.83457259                0.00010000               -1.74523725               -0.67286262                1.47982009               -4.05826603               -3.92599476               -5.23837044
              26.11180917                7.04825604               89.38105185                0.00010000               -0.98513137               -1.38066966                0.05775512               -5.41010238               -5.95539681              -11.05070294
              27.10722957                6.49117637               88.91375823                0.00010000                0.34463952               -2.34224277               -2.09276494               -5.83140099               -7.09124029              -18.40958773
              28.11870196                5.93232758               88.44143359                0.00010000                2.20862105               -3.48698136               -4.74105702               -4.90890062               -6.82251714              -26.45806595
              29.15140199                5.37380938               87.97617229                0.00010000                4.57801922               -4.71836903               -7.46833665               -2.68001273               -4.61173333              -33.98028041
              30.21026234                4.81207843               87.53166088                0.36628822                5.88603519               -5.52376112               -9.61878720                0.55588327               -1.61270150              -39.76561759
              20.72188093               11.33905625               91.74920565                1.00000000               -0.00245482                0.09360079               -0.08503312                0.00527354               -0.00293104                0.66071657
              21.72185638               10.79128066               91.33818741                0.80966045                0.00133865               -0.01598978                0.01427027                0.00985844               -0.00555765               -0.08843054
              22.72190770               10.24346560               90.92730079                0.00010000               -0.78324257               -0.13065700                0.10646837                0.15250963                0.96384152               -0.86276655
              23.70619153                9.69869685               90.53552962                0.00010000               -2.19923319               -0.12908246                2.49967737               -0.32840958                0.74996183               -0.34153254
              24.67792303                9.15085802               90.10890503                0.00010000               -2.92443673               -0.22302206                3.14340835               -1.57650445               -2.99945361               -1.75047271
              25.64770279                8.59733062               89.64303293                0.00010000               -2.62358592               -0.39280450                2.11221725               -2.96987524               -7.07772992               -5.11933969
              26.62545132                8.03817755               89.14151779                0.00010000               -1.37490819               -0.65632399               -0.40560177               -4.04707768              -10.46745190              -10.22282119
              27.62020463                7.47432773               88.61461935                0.00010000                0.69872050               -1.01339752               -4.14214332               -4.50769140              -12.27423219              -16.63388416
              28.63942573                6.90725734               88.07892587                0.00010000                3.34986672               -1.44049642               -8.67169665               -4.19354992              -11.59114874              -23.69388571
              29.68720196                6.33874400               87.55721010                0.00010000                5.85093904               -1.84290400              -13.29277864               -2.81371348               -7.45354357              -30.54859819
              30.75644451                5.77889619               87.07897928                0.36649219                6.92425452               -1.57440179              -16.86953879               -1.36771865               -3.17670513              -35.82540097
              21.27029352               12.33993901               91.61054341                1.00000000                0.00172607                0.07955186               -0.09558618                0.00587604               -0.00843019                0.60384641
              22.27031078               11.79111608               91.19574529                0.82760721               -0.00339128               -0.01485561                0.02180723                0.00554406               -0.02295608               -0.12146437
              23.27022569               11.24221032               90.78079934                0.00010000               -0.97224320               -0.11114765                0.14488222                0.18495097                1.05072387               -0.84953064
              24.25086591               10.69723566               90.38735875                0.00010000               -2.68378181               -0.17455055                3.11757582               -0.09499432                0.62816195               -0.52662951
              25.21655006               10.14871105               89.94748035                0.00010000               -3.53253780               -0.21022664                3.85194015               -1.05104337               -4.13114301               -1.81399100
              26.18021516                9.59468194               89.45501525                0.00010000               -3.13397733               -0.14188347                2.40894285               -2.11872995               -9.26191258               -4.71774946
              27.15387051                9.03512956               88.91458554                0.00010000               -1.61096010                0.03551229               -0.98003763               -2.99248902              -13.49483832               -9.04400307
              28.14799596                8.47090842               88.34008907                0.00010000                0.82720867                0.30951985               -5.95285560               -3.48617258              -15.67353091              -14.45615778
              29.17041468                7.90351765               87.75408044                0.00010000                3.77464556                0.68107692              -11.94954556               -3.41364484              -14.64797668              -20.47527972
              30.22348887                7.33695130               87.18766771                0.00010000                6.60944545                1.23146392              -18.07438294               -2.43527867               -9.36725239              -26.40444527
              31.30260359                6.78059039               86.67933714                0.36701954                7.91147243                1.76893548              -22.99654150               -1.12299197               -4.16008631              -31.28301395
              21.81964430               13.34064728               91.47148374                1.00000000                0.00516513                0.06308951               -0.10326091                0.00480638               -0.00876293                0.56465775
              22.81969595               12.79098355               91.05310741                0.84912515               -0.00785799               -0.01192282                0.02926748                0.00423551               -0.02080875               -0.12518703
              23.81948714               12.24124264               90.63459063                0.00010000               -1.09525205               -0.08591956                0.16742380                0.17529659                1.15545577               -0.80284595
              24.79779091               11.69520584               90.23963785                0.00010000               -3.00156250               -0.22072307                3.56939358                0.01588941                0.63041335               -0.65488828
              25.75945589               11.14665349               89.78913208                0.00010000               -3.94406102               -0.19086107                4.34801739               -0.67415220               -4.83929872               -1.78424491
              26.71890969               10.59449295               89.27568648                0.00010000               -3.50404161                0.10228420                2.57400071               -1.44435151              -10.69562136               -4.15994371
              27.68937505               10.03888780               88.70480050                0.00010000               -1.84083033                0.68515550               -1.48580330               -2.10194656              -15.49682609               -7.62424087
              28.68209308                9.48051812               88.09316289                0.00010000                0.78674477                1.53369837               -7.40763117               -2.50930833              -17.92531191              -11.93566097
              29.70510995                8.92087888               87.46788941                0.00010000                3.96652853                2.60782912              -14.54163149               -2.48621532              -16.69692967              -16.73337528
              30.76142365                8.36337328               86.86585747                0.00010000                7.07982730                3.80058019              -21.88444108               -1.73515384              -10.63783402              -21.50312876
              31.84670650                7.81427490               86.33200593                0.36718177                8.52828455                4.79736718              -27.97555246               -0.83023416               -4.81532401              -25.53691916
              22.36971711               14.34120080               91.33217731                1.00000000                0.00830177                0.05033141               -0.11102775                0.00316991               -0.00773692                0.53108408
              23.36980013               13.79087762               90.91042997                0.86025765               -0.01038892               -0.00983378                0.03383779                0.00326692               -0.01498097               -0.11743396
              24.36950933               13.24049193               90.48860769                0.00010000               -1.20136335               -0.06918709                0.18334242                0.13001610                1.37009477               -0.76157295
              25.34577286               12.69282120               90.09444751                0.00010000               -3.28647136               -0.23218126                3.93232124                0.02319104                0.89884888               -0.73807807
              26.30377990               12.14489383               89.63734516                0.00010000               -4.33395217               -0.14528636                4.77209847               -0.41686926               -5.11605926               -1.67181926
              27.25909382               11.59672763               89.10898556                0.00010000               -3.89867479                0.33327983                2.77684910               -0.90003770              -11.53787321               -3.46035500
              28.22580641               11.04883267               88.51560257                0.00010000               -2.16375521                1.24795499               -1.76404534               -1.32202957              -16.80309262               -5.99589537
              29.21581871               10.50158239               87.87607549                0.00010000                0.60144057                2.54914240               -8.38540765               -1.59606765              -19.47375542               -9.11945696
              30.23783522                9.95567423               87.22110155                0.00010000                3.97855274                4.13109309              -16.37448164               -1.57188045              -18.13772586              -12.57329865
              31.29538977                9.41296291               86.59209796                0.00010000                7.31802251                5.82415925              -24.64905502               -1.07642578              -11.53251909              -15.94105916
              32.38419567                8.87653773               86.03879632                0.36746032                8.88059022                7.34308589              -31.65384305               -0.53535278               -5.28111151              -18.69460233
              22.92035404               15.34165391               91.19265584                1.00000000                0.01161187                0.04353958               -0.12065053                0.00106480               -0.00081309                0.48744792
              23.92047016               14.79078688               90.76780014                0.88641872               -0.01050778               -0.00850235                0.03353725                0.00161419               -0.01145084               -0.10805499
              24.92014388               14.23985890               90.34277712                0.00010000               -1.33086658               -0.06040353                0.19017870                0.07923971                1.79736529               -0.64521669
              25.89385282               13.69056222               89.95395294                0.00010000               -3.64659035               -0.19148846                4.29468772               -0.01644041                1.59239170               -0.72046376
              26.84721208               13.14374776               89.49539179                0.00010000               -4.84413650               -0.08661471                5.27403817               -0.24978950               -4.93925881               -1.40931965
              27.79697009               12.60115855               88.95843516                0.00010000               -4.45661887                0.52162544                3.19264282               -0.47267716              -11.90723705               -2.59103780
              28.75807970               12.06384690               88.34975508                0.00010000               -2.68199684                1.67455025               -1.65518524               -0.68146315              -17.69383007               -4.16750132
              29.74333016               11.53150097               87.69019818                0.00010000                0.21060634                3.28046733               -8.76374751               -0.83974850              -20.69137235               -6.10166037
              30.76229182               11.00350074               87.01355094                0.00010000                3.78507386                5.19477269              -17.36413911               -0.83563209              -19.34110260               -8.21987856
              31.81903163               10.47985646               86.36552165                0.00010000                7.32789821                7.22594719              -26.29297462               -0.56063276              -12.28954487              -10.14247313
              32.90884979                9.96113662               85.80016921                0.36764248                8.98181537                9.15924884              -33.90621440               -0.31634647               -5.70331491              -11.29769076
              23.47147248               16.34207159               91.05270940                1.00000000                0.01549422                0.04299722               -0.13315408               -0.00068200                0.03221239                0.37161431
              24.47162742               15.79070758               90.62519422                0.73394172               -0.00768476               -0.00737959                0.02738524                0.00032553                0.08153732               -0.11614266
              25.47131878               15.23928385               90.19869851                0.00010000               -1.50361123               -0.05516493                0.18300085                0.05609125                2.58109955               -0.49736301
              26.44155519               14.68899143               89.82100659                0.00010000               -4.15654991               -0.14314299                4.79430811               -0.00026195                2.85176225               -0.40208641
              27.38818778               14.14316153               89.36744822                0.00010000               -5.60070298               -0.07282076                6.07477398               -0.12608568               -4.18940627               -0.95296092
              28.32954113               13.60716014               88.82746482                0.00010000               -5.31765303                0.62674189                4.02745963               -0.17569363              -11.96692877               -1.48243990
              29.28183472               13.08232367               88.20944286                0.00010000               -3.50856158                1.91261087               -0.98806671               -0.24446471              -18.48233445               -2.16985741
              30.25936990               12.56719174               87.53581039                0.00010000               -0.45338200                3.67823620               -8.42761504               -0.32736784              -22.00091698               -3.03051974
              31.27276708               12.05956969               86.84301359                0.00010000                3.35856646                5.76761437              -17.46377819               -0.35119359              -20.78685758               -3.97791497
              32.32654123               11.55748185               86.18125850                0.00010000                7.12706759                7.97339903              -26.83603995               -0.23957325              -13.25377957               -4.75752991
              33.41530843               11.05972271               85.61163321                0.36762774                8.87672025               10.12147532              -34.73946982               -0.19317807               -6.27116300               -4.55233964
              24.02306842               17.34251386               90.91107992                1.00000000                0.01959816                0.04422686               -0.14752769               -0.02786313                0.19014228                0.27868465
              25.02326440               16.79063928               90.48230445                0.80870122               -0.00432826               -0.00682934                0.01550303               -0.02421455                0.28551016               -0.12483562
              26.02298185               16.23875560               90.05545896                0.36161921               -1.66472465               -0.05282504                0.17118573                0.01931085                4.10493384               -0.43847114
              26.98996991               15.68769936               89.70287754                0.36081783               -4.82300977               -0.12920726                5.80938970                0.01825821                5.69784391               -1.02934102
              27.92652166               15.14229134               89.25820617                0.36100341               -6.78379106               -0.08701891                7.47792487                0.13308875               -2.96444387               -1.28330694
              28.85429409               14.61369339               88.71955243                0.36079116               -6.66814285                0.65332509                5.54160640                0.46568357              -12.03029625               -1.37859536
              29.79315880               14.10209912               88.09594864                0.36148943               -4.73786509                1.97754451                0.41258169                0.70102313              -19.61492193               -1.43553081
              30.75953678               13.60506569               87.41168183                0.36195324               -1.40904806                3.78739558               -7.28895122                0.85438346              -23.88987143               -1.49498330
              31.76497784               13.11885302               86.70525796                0.36319424                2.72751821                5.92833364              -16.67732613                0.93401314              -23.10707913               -1.51153393
              32.81408715               12.63932445               86.02927066                0.36564695                6.77633355                8.18425931              -26.43853980                0.99024646              -15.30809142               -1.37198515
              33.90050451               12.16356612               85.45483767                0.68389725                8.64173625               10.38434127              -34.52496553                0.94377535               -7.98363823               -0.11768098
              18.93547738                7.48152302               93.30322255                1.00000000               -0.02551413               -0.00500844                0.08863361               -0.01692617               -0.42106557                0.39152167
              19.93522223                6.93323808               92.90201370                1.00000000               -0.02198763               -0.03046936                0.11663251               -0.02156282               -0.57497679                0.06020452
              20.93503762                6.38504864               92.49775819                0.97666963               -0.02723285               -0.06173706                0.18026587               -0.01341987               -0.61987277               -0.04421217
              21.93467758                5.83740887               92.09518580                0.70162671               -0.06510676               -0.05367892                0.19741191                0.01551496               -0.59025960               -0.22545776
              22.93373549                5.29039224               91.69080686                0.70889521               -0.11577308               -0.03795717                0.26017734                0.01628623               -0.44180498               -0.10032757
              23.93236212                4.74373058               91.28978954                0.72978224               -0.13428621               -0.03055476                0.24085403                0.01852504               -0.09707041               -0.06853302
              24.93104976                4.19720891               90.89122955                0.77177469               -0.11431146               -0.00797767                0.15621765                0.01443355                0.14780926               -0.05890471
              25.93007589                3.65084484               90.49449436                0.84807911               -0.06351451                0.02309688                0.02405960                0.01127139                0.27440425               -0.06169830
              26.92977947                3.10460547               90.09817360                1.00000000                0.00965835                0.05704073               -0.14616312               -0.00071735                0.21132061               -0.05375021
              27.93026905                2.55838478               89.69999769                1.00000000                0.07516392                0.09363136               -0.29351872               -0.01312087                0.07194033               -0.02091574
              28.93128275                2.01216853               89.30118533                1.00000000                0.10136985                0.13215973               -0.43960882               -0.01500780                0.00067999               -0.12489115
              19.48359305                8.48147293               93.16231486                1.00000000               -0.03492563                0.02302812                0.06120590               -0.02736459               -0.10899678                0.53498189
              20.48324379                7.93293339               92.76106596                1.00000000               -0.03875095               -0.01930360                0.08858973               -0.03384219               -0.16669808                0.08893685
              21.48281803                7.38443127               92.35889130                1.00000000               -0.05414322               -0.05861646                0.13515174               -0.00481529               -0.18417189               -0.12993903
              22.48216093                6.83687208               91.95724215                1.00000000               -0.10402662               -0.02778246                0.17239315                0.01051312               -0.11856924               -0.16055936
              23.48073750                6.29001267               91.55610795                1.00000000               -0.15109480               -0.02432328                0.21702737                0.01693967                0.01876317               -0.06377777
              24.47913903                5.74342503               91.15696535                1.00000000               -0.15502641               -0.01819406                0.20511339                0.01880817                0.22640538               -0.03955677
              25.47763697                5.19712913               90.75971208                1.00000000               -0.13243558                0.00015893                0.13903171                0.02142481                0.40604856               -0.03034713
              26.47649032                4.65107581               90.36397639                1.00000000               -0.08173205                0.02764279                0.02161328                0.02197468                0.51296248               -0.03785271
              27.47600233                4.10517588               89.96878601                1.00000000               -0.00670022                0.06008623               -0.13946165                0.01516789                0.46287062               -0.05543039
              28.47635632                3.55932110               89.57204684                1.00000000                0.06733000                0.09562257               -0.29609659                0.00540027                0.27239912               -0.03558658
              29.47734893                3.01349013               89.17333079                1.00000000                0.09926120                0.13231848               -0.43485776                0.00555250                0.13746373               -0.15886636
              20.03200917                9.48198358               93.02444121                1.00000000               -0.04221227                0.07400623                0.01843289               -0.01777610               -0.03562328                0.70294024
              21.03158705                8.93285201               92.62078111                1.00000000               -0.05032741               -0.00353980                0.05229262               -0.00613896                0.00976338                0.10995332
              22.03100262                8.38387631               92.21841607                0.00010000               -0.11403031               -0.08424345                0.09437624                0.12996216                0.27821020               -0.40951629
              23.02930644                7.83685322               91.82041988                0.00010000               -0.17406448                0.31459337                0.14478644                0.03401229                0.41941117                0.74988329
              24.02752133                7.28990578               91.42182801                0.00010000               -0.18423134                0.27792514                0.17393743               -0.84532245                0.40296871                0.26487491
              25.02562182                6.74336670               91.02424427                0.00010000               -0.18469254               -0.10552138                0.17349068               -1.88573307                0.51232868               -1.92199119
              26.02382748                6.19721209               90.62825863                0.00010000               -0.15765898               -0.79313254                0.12328727               -2.70108808                0.65649733               -5.64257995
              27.02246864                5.65139769               90.23364120                0.00010000               -0.09949702               -1.73659496                0.01813315               -2.93799939                0.75387228              -10.54660298
              28.02183754                5.10580720               89.83945095                0.00010000               -0.02029125               -2.89603109               -0.13158858               -2.23461494                0.73524496              -16.04708953
              29.02206281                4.56029723               89.44434521                0.00010000                0.06091001               -4.16907549               -0.30339360               -0.15893816                0.51172633              -21.21101910
              30.02305574                4.01481490               89.04585219                0.36381817                0.09929314               -6.01213553               -0.43896807                3.86684388                0.31236842              -24.95119923
              20.58150066               10.48295306               92.88675717                1.00000000               -0.02723877                0.10236437               -0.01908275                0.00967838                0.01319839                0.70056710
              21.58122828                9.93286259               92.48021262                0.87962141               -0.00423019               -0.00753380                0.01927187                0.02384379                0.01559742                0.03377367
              22.58141606                9.38274640               92.07399762                0.00010000               -0.22082823               -0.12394629                0.03759232                0.58383251                1.65846376               -0.69859869
              23.57681171                8.84316395               91.70010240                0.00010000               -1.20492435                0.36979577                2.27356681                0.43066182                2.40930933                1.82650848
              24.55731757                8.29557117               91.29308861                0.00010000               -2.13468270                0.32792372                2.94505837               -1.55128659               -0.86620494                0.77681741
              25.53411806                7.74131460               90.85314291                0.00010000               -2.08666821               -0.27221544                2.34299351               -3.68462914               -4.18567861               -3.57555751
              26.51558421                7.18126648               90.38396769                0.00010000               -1.24914159               -1.35244309                0.63643963               -5.35938474               -7.00782381              -10.89064497
              27.50913523                6.61634391               89.89265465                0.00010000                0.34131399               -2.85646129               -2.03621304               -6.02231599               -8.82756776              -20.49600712
              28.52241049                6.04725526               89.39027167                0.00010000                2.75173118               -4.73023491               -5.47394891               -5.10408751               -8.93471355              -31.35208311
              29.56416985                5.47593959               88.89335707                0.00010000                6.16199939               -6.95175365               -9.23160552               -2.69957481               -6.35858867              -41.93412461
              30.64565048                4.89324742               88.42310949                0.36407128                8.14806270               -8.96633586              -12.44616833                1.33703975               -2.37995573              -50.83834080
              21.13238367               11.48403087               92.74856839                1.00000000               -0.01130917                0.09736294               -0.04609262                0.01364306               -0.00278809                0.65282393
              22.13227058               10.93270133               92.33832265                0.85433039               -0.00028759               -0.01373539                0.01414213                0.02595898               -0.00595816               -0.05690317
              23.13237792               10.38139739               91.92817451                0.00010000               -0.35878331               -0.12343579                0.07274262                0.72383890                2.37047329               -0.78294885
              24.12509491                9.84424914               91.56536724                0.00010000               -1.70164836               -0.07057817                3.58842646                0.75658342                3.25934073                1.08619440
              25.09834495                9.29646425               91.14715763                0.00010000               -2.94304935               -0.15071026                4.66104336               -0.80519349               -1.90220803               -0.00071635
              26.06623392                8.73792239               90.67047663                0.00010000               -2.83672333               -0.43189199                3.53583611               -2.38293866               -7.32301637               -3.93783786
              27.04161048                8.17016323               90.14120645                0.00010000               -1.51001899               -0.89491854                0.49903516               -3.60583699              -11.92313701              -10.34259379
              28.03603354                7.59426847               89.57241146                0.00010000                0.92748156               -1.53553975               -4.18166430               -4.21948972              -14.71884829              -18.67429198
              29.06016011                7.01120250               88.98502338                0.00010000                4.30228062               -2.35124319              -10.11656389               -4.09159576              -14.49047300              -28.16570314
              30.12207916                6.42126216               88.40931343                0.00010000                7.75103830               -3.26174050              -16.54949624               -2.87754743               -9.63326386              -37.86560915
              31.21518088                5.83548818               87.88767923                0.36444185                9.31017237               -3.25265700              -22.02120904               -1.48940240               -4.21432536              -46.19827262
              21.68443259               12.48490031               92.60976792                1.00000000               -0.00516574                0.07537015               -0.06184737                0.01366263               -0.00730859                0.60317372
              22.68438093               11.93258788               92.19594056                0.86401690               -0.00437777               -0.00904270                0.01883050                0.01958614               -0.01783625               -0.08677301
              23.68434504               11.38027769               91.78202881                0.00010000               -0.37522074               -0.09516623                0.10561795                0.69543231                2.80998323               -0.77906086
              24.67687652               10.84175239               91.42466991                0.00010000               -1.84022907               -0.40383106                4.48389952                0.89124617                3.79297804                0.56106356
              25.64754045               10.29255697               90.99458616                0.00010000               -3.20581049               -0.58365430                5.74103574               -0.32472982               -2.65282276               -0.54690492
              26.61276031                9.73267676               90.48695250                0.00010000               -3.02095325               -0.59208611                4.14883837               -1.48745179               -9.35980403               -3.96631651
              27.58712139                9.16336811               89.90916074                0.00010000               -1.45270731               -0.44986396                0.05369916               -2.42090203              -14.99698712               -9.38893304
              28.58370616                8.58563311               89.27888666                0.00010000                1.32317462               -0.18496012               -6.18144546               -3.05349761              -18.29626633              -16.40714092
              29.61358488                8.00023039               88.62439625                0.00010000                4.93135277                0.19284364              -14.04072958               -3.23815890              -17.75221135              -24.51021340
              30.68233322                7.41070478               87.98633528                0.00010000                8.69127539                0.82408153              -22.57010510               -2.53469152              -11.68693684              -32.96461121
              31.78741039                6.82819428               87.41802142                0.36445128               10.50771713                1.54095065              -30.14117817               -1.21914010               -5.27662388              -40.72274079
              22.23728178               13.48553827               92.47061277                1.00000000                0.00031428                0.05434448               -0.07250544                0.01036209               -0.00733954                0.56673308
              23.23728493               12.93252048               92.05336803                0.87516420               -0.00798612               -0.00578046                0.02441672                0.01495612               -0.01581834               -0.09467854
              24.23712206               12.37949406               91.63604228                0.00010000               -0.33221859               -0.06680091                0.12717716                0.48967767                3.16444678               -0.74728166
              25.23064055               11.83617252               91.28231608                0.00010000               -1.80980423               -0.67928716                5.10947471                0.66142702                4.28050839                0.07951462
              26.20092598               11.28479116               90.84231322                0.00010000               -3.24834053               -0.92102808                6.45789306               -0.14686775               -3.04641490               -0.99467594
              27.16567374               10.72608067               90.31015759                0.00010000               -3.03449423               -0.68668728                4.48103998               -0.89423364              -10.59849417               -3.81614976
              28.14023609               10.16116595               89.69452438                0.00010000               -1.37862162                0.01443798               -0.42721561               -1.53371087              -16.89286970               -8.15110348
              29.13810131                9.59056927               89.01649793                0.00010000                1.50445903                1.11701717               -7.84605543               -2.04628798              -20.50973653              -13.73418729
              30.17032527                9.01505937               88.30978990                0.00010000                5.26600656                2.56550091              -17.18117674               -2.26674538              -19.81343026              -20.20687996
              31.24342144                8.43774379               87.62186233                0.00010000                9.27469037                4.25083833              -27.39044690               -1.76034291              -12.98339877              -27.05310863
              32.35581908                7.86630719               87.01377183                0.36488590               11.23976371                5.80411378              -36.73403278               -0.89606055               -5.95538571              -33.48708984
              22.79067541               14.48598720               92.33121750                1.00000000                0.00488491                0.03930666               -0.08211986                0.00663071               -0.00575614                0.53302637
              23.79072426               13.93247227               91.91072819                0.87421490               -0.00944293               -0.00465009                0.02731070                0.01035477               -0.01017321               -0.09392479
              24.79048655               13.37894167               91.49021343                0.00010000               -0.29581509               -0.04956523                0.14182868                0.14252041                3.57449018               -0.71921867
              25.78480796               12.82816664               91.14131751                0.00010000               -1.78958013               -0.88749049                5.57952493                0.14565152                4.94028870               -0.35262341
              26.75469495               12.27413641               90.69550768                0.00010000               -3.31535528               -1.17360747                7.01752817               -0.20379623               -3.03493655               -1.33792443
              27.71850085               11.71894302               90.14607609                0.00010000               -3.13681894               -0.71797245                4.78435111               -0.48492051              -11.22482996               -3.47531468
              28.69195857               11.16365687               89.50267272                0.00010000               -1.48069358                0.46411339               -0.70109735               -0.79651795              -18.04715942               -6.63254591
              29.68888698               10.60797346               88.78897339                0.00010000                1.45584385                2.24071699               -8.98281446               -1.12805511              -21.97192627              -10.66220259
              30.72107545               10.05154041               88.04287279                0.00010000                5.34957774                4.46989969              -19.41490827               -1.29988507              -21.22753396              -15.32713283
              31.79587854                9.49572154               87.31712764                0.00010000                9.56434626                6.95628175              -30.89123862               -1.02153797              -13.88439932              -20.20088244
              32.91236237                8.94427655               86.67853805                0.36491424               11.64838375                9.34152722              -41.58508435               -0.55579810               -6.43236645              -24.68590501
              23.34444426               15.48632440               92.19158946                1.00000000                0.00932981                0.03256597               -0.09360992                0.00241762                0.00155074                0.48758376
              24.34453756               14.93242748               91.76808499                0.88819650               -0.00830782               -0.00418188                0.02489744                0.00544404               -0.00727892               -0.09290494
              25.34427810               14.37850276               91.34444738                0.00010000               -0.30893535               -0.04229860                0.14777333               -0.30339187                4.19659376               -0.61885571
              26.33835885               13.81842271               91.00489548                0.00010000               -1.91022117               -1.06840234                6.02179652               -0.55038807                6.03070014               -0.63467933
              27.30607368               13.26131902               90.55924600                0.00010000               -3.59519902               -1.40853900                7.63856066               -0.33434369               -2.53765659               -1.44000832
              28.26645487               12.71172122               90.00035021                0.00010000               -3.53991923               -0.71022796                5.31658161               -0.17437577              -11.35150987               -2.85580150
              29.23527529               12.17044822               89.33832340                0.00010000               -1.93990988                0.84503003               -0.52726591               -0.21029458              -18.80029537               -4.78802630
              30.22765667               11.63538361               88.59921778                0.00010000                1.06520954                3.08250074               -9.39812869               -0.39965052              -23.14897814               -7.26004685
              31.25657948               11.10445736               87.82456800                0.00010000                5.12989360                5.81981909              -20.59963942               -0.54801804              -22.45632531              -10.11776122
              32.33025454               10.57686943               87.07223004                0.00010000                9.55068088                8.83659794              -32.94975000               -0.45326696              -14.67813615              -12.94507816
              33.44759310               10.05313774               86.41423655                0.36549164               11.73385590               11.86178628              -44.53428076               -0.31260427               -6.88427192              -15.06719225
              23.89851761               16.48663852               92.05150881                1.00000000                0.01371713                0.03347494               -0.10778613               -0.00087824                0.03320275                0.37017186
              24.89865478               15.93238864               91.62539606                0.72800610               -0.00470626               -0.00300429                0.01473197                0.00142968                0.08168170               -0.10878070
              25.89842349               15.37809570               91.20028836                0.00010000               -0.38354211               -0.03926812                0.13915349               -0.84743472                5.25856115               -0.48367896
              26.89098394               14.80679860               90.87756812                0.00010000               -2.18569603               -1.50299342                6.63928258               -0.87291748                7.84044984               -0.42650360
              27.85470957               14.24596563               90.44038061                0.00010000               -4.25499019               -1.59802859                8.64687791               -0.32932950               -1.31634995               -1.17033027
              28.80588414               13.70473846               89.87892203                0.00010000               -4.53096380               -0.68417836                6.38382477                0.03590736              -11.16610944               -1.77585608
              29.76409029               13.18055747               89.20577603                0.00010000               -2.94996572                1.08569295                0.35387296                0.08214350              -19.54564933               -2.58669610
              30.74688482               12.66962347               88.44898742                0.00010000                0.22694882                3.55623926               -8.90524477               -0.02688738              -24.57301005               -3.66770105
              31.76862927               12.16793679               87.65335889                0.00010000                4.56239997                6.55138826              -20.63602171               -0.14974949              -24.09819743               -4.94189662
              32.83813282               11.67245350               86.88224781                0.00010000                9.24721989                9.83454926              -33.55612786               -0.15159548              -15.79013847               -6.11488637
              33.95357366               11.18151228               86.21639774                0.36504164               11.54408421               13.21132160              -45.57997254               -0.20941091               -7.54363549               -6.18156445
              24.45292647               17.48699390               91.90973176                1.00000000                0.01825082                0.03553767               -0.12251522               -0.02176542                0.18758960                0.27693713
              25.45310897               16.93236739               91.48236914                0.80445030               -0.00035093               -0.00212452               -0.00027222               -0.01840600                0.28206590               -0.12167414
              26.45291945               16.37771740               91.05692562                0.36099417               -0.00392020               -0.03783011                0.12662252               -1.75063158                7.37388964               -0.43072773
              27.45303057               15.78836284               90.77121658                0.36059514               -2.56861110               -1.84357581                8.00540996               -1.21328470               12.01162611               -1.57648323
              28.40154723               15.22935844               90.34734912                0.36061779               -6.02247006               -1.66071829               10.51179235                0.16750654                0.50610106               -1.87643694
              29.33258117               14.69803765               89.78849026                0.36099810               -6.47570380               -0.67008088                8.38702413                0.80988481              -11.12110789               -1.93123008
              30.27203315               14.19216207               89.10853478                0.36102046               -4.64207832                1.16046024                2.22254882                1.21782308              -20.90462195               -1.94665444
              31.23973960               13.70650839               88.33827259                0.36143514               -1.06393433                3.68849199               -7.34002660                1.45163076              -26.89486399               -1.99805394
              32.25075446               13.23548513               87.52519865                0.36227361                3.69537728                6.75483368              -19.47786129                1.56512074              -26.97304854               -2.02795662
              33.31364715               12.77356041               86.73560935                0.36377988                8.72664351               10.11069100              -32.85634032                1.64538472              -18.35422917               -1.89238459
              34.42528733               12.31736417               86.06283920                0.68271816               11.16401848               13.58518939              -45.12292068                1.55174280               -9.69145790               -0.37717901
              19.33252455                7.62637503               94.30432915                1.00000000               -0.02579759               -0.01113313                0.12413657               -0.02687594               -0.38605441                0.36905710
              20.33226657                7.07491511               93.90321528                1.00000000               -0.01154095               -0.03370814                0.12059783               -0.03373739               -0.51709693                0.05735698
              21.33229373                6.52368294               93.49947737                0.95238185                0.00097785               -0.06673450                0.15884283               -0.01802930               -0.57083355               -0.05092081
              22.33228613                5.97335797               93.09689802                0.71654918               -0.00844106               -0.04760073                0.15147203                0.04461048               -0.54231977               -0.19723424
              23.33212491                5.42437181               92.69301716                0.72754284               -0.04562313               -0.02839792                0.19000049                0.04070532               -0.40175912               -0.08750395
              24.33137367                4.87610733               92.29175605                0.74498860               -0.08231775               -0.01372729                0.16306034                0.03713491               -0.11362735               -0.05828856
              25.33047855                4.32829877               91.89240689                0.77529039               -0.08033571                0.00921893                0.09037324                0.03405595                0.09763122               -0.04676940
              26.32976695                3.78080639               91.49449630                0.83024880               -0.04584479                0.03267532               -0.01346023                0.02884329                0.20963327               -0.05154668
              27.32956166                3.23349131               91.09686116                0.97019454                0.00800876                0.04907443               -0.12077309                0.01245826                0.14895537               -0.04776803
              28.32992713                2.68615899               90.69755844                1.00000000                0.05300723                0.06733856               -0.20756010               -0.00220159                0.02791270               -0.02132122
              29.33062180                2.13880259               90.29767172                1.00000000                0.06946743                0.08721776               -0.28909270               -0.00414998               -0.02863319               -0.11560598
              19.88371571                8.62626370               94.16315373                1.00000000               -0.04404614                0.02382141                0.09876442               -0.03457793               -0.09087558                0.50855298
              20.88327524                8.07457803               93.76200044                1.00000000               -0.04118476               -0.01993044                0.09497223               -0.04511970               -0.13326918                0.08351635
              21.88289201                7.52301560               93.36014543                1.00000000               -0.04437226               -0.06221441                0.11475542               -0.00407397               -0.14162268               -0.13260088
              22.88238780                6.97288196               92.95872741                1.00000000               -0.08673657               -0.01178827                0.12940382                0.03057610               -0.07329831               -0.13814494
              23.88115728                6.42408783               92.55793601                1.00000000               -0.13031306               -0.00655588                0.15359292                0.03649215                0.05190315               -0.06015862
              24.87978154                5.87597006               92.15862326                1.00000000               -0.13438464                0.00315764                0.13310910                0.03490344                0.22171074               -0.03843275
              25.87846959                5.32839096               91.76074765                1.00000000               -0.11612102                0.01924828                0.07547991                0.03546234                0.36987219               -0.02989538
              26.87745912                4.78113314               91.36397003                1.00000000               -0.07298238                0.03779358               -0.01498794                0.03067258                0.45254731               -0.03601887
              27.87700994                4.23398205               90.96746294                1.00000000               -0.01048224                0.05391013               -0.12492943                0.01876124                0.39575334               -0.04999779
              28.87724947                3.68683238               90.56950983                1.00000000                0.04633850                0.07108842               -0.21859883                0.00759678                0.22296424               -0.03415702
              29.87793671                3.13967477               90.16978823                1.00000000                0.06872359                0.08830723               -0.29375883                0.00806460                0.10742175               -0.14047967
              20.43520432                9.62685146               94.02484739                1.00000000               -0.05920396                0.08437259                0.05573840               -0.01978324               -0.02549266                0.67176250
              21.43461228                9.07451651               93.62134749                1.00000000               -0.06479994               -0.00041095                0.05889290               -0.00467931                0.02954740                0.10069106
              22.43390832                8.52243865               93.21924452                0.00010000               -0.13934340               -0.09612757                0.07284876                0.17924390                0.31487491               -0.41875536
              23.43182541                7.97312220               92.82165236                0.00010000               -0.20708360                0.92590817                0.10165588                0.66679857                0.46736766                2.03783864
              24.42976665                7.42424070               92.42326926                0.00010000               -0.20284022                0.96451920                0.11491027               -0.08798468                0.44298607                1.93384062
              25.42776861                6.87617049               92.02564153                0.00010000               -0.18709656                0.44122298                0.10688831               -1.14994805                0.53230853               -0.56924030
              26.42602472                6.32868374               91.62917780                0.00010000               -0.14896489               -0.54478230                0.06329918               -2.04684302                0.64178528               -5.19835434
              27.42478931                5.78156226               91.23362752                0.00010000               -0.08935369               -1.93235812               -0.01606142               -2.35995524                0.70007518              -11.53040468
              28.42423765                5.23456951               90.83814866                0.00010000               -0.02014808               -3.71342810               -0.12250308               -1.58430881                0.65587355              -18.89495042
              29.42438635                4.68758076               90.44165508                0.00010000                0.04303377               -5.83368579               -0.23569181                1.00710735                0.44506371              -26.15853470
              30.42509832                4.14056873               90.04218409                0.36176788                0.07119708               -9.30950977               -0.30681971                6.55988163                0.26850951              -31.75624524
              20.98798995               10.62795115               93.88676819                1.00000000               -0.03954823                0.11252589                0.01556615                0.01748263                0.01206709                0.67521310
              21.98759446               10.07456981               93.48043305                0.92636439               -0.00593774               -0.00509194                0.02420224                0.03303557                0.00847959                0.03935528
              22.98787119                9.52109304               93.07423317                0.00010000                0.31636319               -0.13316121                0.01454482                1.25972812                2.94793292               -0.66997765
              23.99392173                8.99140012               92.72653444                0.00010000               -0.57609452                1.13655155                3.08038077                2.14274889                4.80976414                4.44802475
              24.97634930                8.44337822               92.32760426                0.00010000               -2.07910960                1.25527194                4.02534736               -0.08013864                0.39208515                4.10138428
              25.95233954                7.88479452               91.88143246                0.00010000               -2.21041743                0.42968914                3.38564209               -2.32289355               -3.83619561               -0.90576665
              26.93214095                7.31749531               91.39378064                0.00010000               -1.39826489               -1.12755538                1.42946217               -4.16397544               -7.51480260               -9.99656120
              27.92437424                6.74248598               90.87303397                0.00010000                0.35821543               -3.34761912               -1.75349043               -5.02802026              -10.23320171              -22.37249709
              28.93930526                6.15971349               90.33195461                0.00010000                3.35090795               -6.23754105               -6.10059168               -4.19253368              -11.08811609              -36.89512828
              29.99139240                5.57015866               89.79154018                0.00010000                8.19265692               -9.95635729              -11.23605211               -1.93672180               -8.43950700              -51.79252317
              31.10315840                4.95348457               89.28273751                0.36226148               11.17660023              -14.02749616              -16.06129631                2.84899488               -3.36651058              -65.65433270
              21.54231665               11.62910198               93.74828380                1.00000000               -0.01855477                0.10034763               -0.01505070                0.02187544               -0.00177316                0.63682242
              22.54213110               11.07441467               93.33847025                0.89580886               -0.00220362               -0.01172870                0.01567303                0.03860759               -0.00302652               -0.03180027
              23.54227258               10.51977543               92.92875565                0.00010000                0.51320594               -0.11658610                0.04689774                1.56316905                4.41778561               -0.70797323
              24.55239522                9.99585323               92.60729815                0.00010000               -0.37515471                0.00539816                4.88621974                2.49085498                7.10271343                3.10754945
              25.53476948                9.44934613               92.20212589                0.00010000               -2.26007881               -0.03804310                6.41161288                0.68863694                0.35495017                2.53597345
              26.50719364                8.88476427               91.71374965                0.00010000               -2.48578646               -0.45599338                5.19523364               -0.85542704               -6.40727252               -2.02337292
              27.48505375                8.30613263               91.15149850                0.00010000               -1.25914561               -1.17311767                1.68052687               -2.01493642              -12.25518665               -9.95705764
              28.48201073                7.71460988               90.53098607                0.00010000                1.38302684               -2.19034243               -3.93985022               -2.69265297              -16.31069084              -20.63152292
              29.51271429                7.10981869               89.87659459                0.00010000                5.49350521               -3.55833154              -11.48174040               -2.87698432              -17.03558195              -33.25255153
              30.59188083                6.48845362               89.22622018                0.00010000               10.13560582               -5.25242415              -20.28819021               -2.25336538              -11.84466221              -46.91751111
              31.71542641                5.86001881               88.63855510                0.36241753               12.35455706               -5.67207993              -28.56584256               -1.31645884               -5.31744068              -60.04717484
              22.09780207               12.62995810               93.60930647                1.00000000               -0.01089100                0.07151917               -0.03354517                0.02123040               -0.00514789                0.59623397
              23.09769316               12.07433524               93.19612190                0.89375646               -0.00530340               -0.00561618                0.01810200                0.03110926               -0.01135742               -0.05753836
              24.09769601               11.51876132               92.78291170                0.00010000                0.82374789               -0.08315202                0.07494743                1.43641447                5.35792454               -0.71400324
              25.11416812               10.99150809               92.47703674                0.00010000                0.17574989               -0.78523511                6.07575362                2.42954742                8.63091228                2.06430091
              26.10121100               10.44261736               92.06230106                0.00010000               -1.78618107               -1.17538413                7.86079017                1.00415837                0.33973296                1.25851873
              27.07844450                9.87567465               91.53799202                0.00010000               -1.96071939               -1.28589502                6.10412782               -0.05246973               -7.86868769               -2.72770802
              28.06199662                9.29403296               90.91565952                0.00010000               -0.58046913               -1.18894383                1.33780886               -0.84359770              -14.88188123               -9.42357887
              29.06683512                8.69867913               90.21646016                0.00010000                2.29626104               -0.94311181               -6.16511473               -1.54320019              -19.55662174              -18.37500932
              30.10792184                8.08854686               89.47326585                0.00010000                6.46449258               -0.57769741              -16.13928876               -2.14031488              -20.04178639              -29.12922946
              31.19612497                7.46511018               88.73626560                0.00010000               11.28884996                0.15325649              -27.77097257               -2.13054880              -13.73954492              -41.05575915
              32.33369884                6.84004297               88.07651357                0.36243403               13.75738664                1.19988276              -39.19364127               -1.08905209               -6.30492040              -53.19708151
              22.65398698               13.63053236               93.47003363                1.00000000               -0.00369159                0.04632646               -0.04575819                0.01592521               -0.00470375                0.56441278
              23.65395007               13.07430234               93.05359575                0.89231488               -0.00794823               -0.00265385                0.02199936                0.02437995               -0.00929659               -0.06901986
              24.65382802               12.51811239               92.63713417                0.00010000                1.15900339               -0.05294368                0.09521409                0.92799993                6.05127483               -0.69567720
              25.67713013               11.98014853               92.34182734                0.00010000                0.84290325               -1.41593750                6.86402426                1.64211646                9.81463177                1.05552768
              26.67068608               11.42583845               91.91828995                0.00010000               -1.12007456               -2.07073982                8.76273356                0.80047138                0.49604156                0.09895382
              27.65472864               10.85904637               91.36530728                0.00010000               -1.27543810               -1.93229686                6.55054948                0.27514903               -8.60984738               -3.20833322
              28.64517732               10.28235375               90.69625619                0.00010000                0.09520924               -1.08251133                0.82179220               -0.16647110              -16.30626986               -8.53590442
              29.65663283                9.69574764               89.93624178                0.00010000                2.91498109                0.34696786               -8.10773471               -0.73720057              -21.34295873              -15.62953022
              30.70347694                9.09826474               89.12426587                0.00010000                7.05704593                2.29033110              -19.92706265               -1.35102192              -21.77242028              -24.20986797
              31.79777375                8.49151875               88.31804853                0.00010000               12.01514193                4.67336833              -33.78660914               -1.41683641              -14.85368219              -33.86703185
              32.94377978                7.88401647               87.59732528                0.36295660               14.60060344                7.11559714              -47.76773787               -0.79879441               -6.90817247              -43.83091600
              23.21058061               14.63088463               93.33053491                1.00000000                0.00201240                0.02909627               -0.05650035                0.01010292               -0.00240869                0.53150847
              24.21060073               14.07428216               92.91097618                0.87902560               -0.00853974               -0.00207191                0.02337391                0.01672002               -0.00347625               -0.07491187
              25.21040982               13.51770245               92.49144427                0.00010000                1.43418263               -0.03527640                0.10904244                0.11722148                6.70841161               -0.68016094
              26.23928439               12.96318934               92.20603801                0.00010000                1.39563885               -1.92652551                7.41470518                0.30190933               10.99487417                0.11251594
              27.23832259               12.40120256               91.77769572                0.00010000               -0.59261036               -2.78818925                9.40940178                0.20787559                0.95430282               -0.91357454
              28.22743218               11.83702872               91.20467258                0.00010000               -0.81783359               -2.39248956                6.89561696                0.36570181               -8.81007252               -3.42048082
              29.22196592               11.27238273               90.50158062                0.00010000                0.43739684               -0.86853486                0.49202222                0.33093338              -17.05782636               -7.26463562
              30.23618012               10.70561849               89.69641920                0.00010000                3.15821865                1.52691808               -9.46603692               -0.02780447              -22.46116990              -12.35097785
              31.28513029               10.13435348               88.83280338                0.00010000                7.29282001                4.61973350              -22.63998521               -0.51824142              -22.94345995              -18.52215957
              32.38203652                9.55857755               87.97427318                0.00010000               12.37986076                8.21579886              -38.14767279               -0.69859763              -15.63983359              -25.40630346
              33.53272751                8.98235492               87.20709463                0.36318322               15.06909921               11.89583109              -54.00923255               -0.45368548               -7.34123091              -32.38166081
              23.76739398               15.63111429               93.19078364                1.00000000                0.00726710                0.02240445               -0.06930531                0.00373228                0.00538491                0.48487805
              24.76746665               15.07426091               92.76829809                0.88013476               -0.00643534               -0.00171722                0.01881157                0.00866689               -0.00041099               -0.08273233
              25.76726527               14.51740686               92.34573259                0.00010000                1.61007798               -0.02852063                0.11329010               -0.93673764                7.56194432               -0.59533791
              26.79966821               13.94161802               92.07438887                0.00010000                1.68694713               -2.45245408                7.90405640               -1.41723173               12.57805031               -0.60449387
              27.80100422               13.37007467               91.64816300                0.00010000               -0.44028530               -3.47753724               10.10043501               -0.41185803                1.89973844               -1.54718161
              28.79086250               12.81119658               91.06476679                0.00010000               -0.88989999               -2.67628770                7.49350494                0.41498636               -8.53420202               -3.19593366
              29.78320622               12.26498306               90.33920976                0.00010000                0.16217434               -0.60021865                0.68499534                0.69899266              -17.50322364               -5.49409578
              30.79410599               11.72628600               89.50223560                0.00010000                2.84734198                2.45822121               -9.95869531                0.49115439              -23.43656826               -8.57484463
              31.84015306               11.19065941               88.60155815                0.00010000                7.08471849                6.28738123              -24.06113898                0.09805828              -24.07029163              -12.33961182
              32.93580036               10.65583472               87.70652665                0.00010000               12.34991404               10.66136332              -40.67853175               -0.15316130              -16.40220357              -16.36584407
              34.08715134               10.12193309               86.90948359                0.36312188               15.13509754               15.25669278              -57.75439321               -0.21974510               -7.79184975              -19.89553993
              24.32436202               16.63133272               93.05055368                1.00000000                0.01194816                0.02462028               -0.08453559               -0.00091653                0.03432581                0.36735226
              25.32448150               16.07424782               92.62548886                0.71347820               -0.00220346               -0.00006259                0.00515833                0.00222589                0.08544195               -0.10624585
              26.32431795               15.51713204               92.20148158                0.00010000                1.68952242               -0.02701672                0.10362143               -2.28803172                8.96033554               -0.47280425
              27.35827195               14.91414026               91.95379225                0.00010000                1.80944642               -3.63726233                8.61225078               -2.26847479               15.06432102               -0.54215871
              28.36050687               14.33165181               91.54038578                0.00010000               -0.87242138               -3.96245396               11.28442071               -0.61357531                3.74449911               -1.53116973
              29.34082352               13.78350296               90.95514131                0.00010000               -1.98252632               -2.76321231                8.76173357                0.42751517               -7.98123003               -2.18337654
              30.32085635               13.26037836               90.21652032                0.00010000               -1.02483352               -0.36672622                1.75602211                0.66788843              -18.10345309               -3.09659584
              31.32032685               12.75478291               89.35770549                0.00010000                1.83431957                3.01241393               -9.32109449                0.52961959              -24.89179034               -4.41537896
              32.35754274               12.26010111               88.43029315                0.00010000                6.36863838                7.19774801              -24.03441138                0.25244723              -25.84821556               -6.08548167
              33.44769962               11.77180481               87.51013594                0.00010000               11.92965699               11.94594736              -41.34430298                0.04746574              -17.62969508               -7.77832354
              34.59613588               11.28748877               86.70003376                0.36354854               14.84362642               17.06032620              -59.02323009               -0.17838825               -8.52662063               -8.29891130
              24.88154545               17.63160669               92.90862962                1.00000000                0.01663993                0.02739692               -0.09861393               -0.01635989                0.18380766                0.27498980
              25.88171185               17.07425965               92.48229900                0.79762765                0.00333735                0.00118347               -0.01173174               -0.01397266                0.28320743               -0.12253861
              26.88161220               16.51686653               92.05799141                0.36063526                2.90335412               -0.02655106                0.09146807               -4.53991848               11.85838708               -0.42609603
              27.93977894               15.86887278               91.86298574                0.36077834                1.88789006               -4.52674809               10.36905295               -3.15134793               20.95968686               -2.39068575
              28.91937000               15.29082559               91.46844201                0.36076802               -3.45463376               -4.08262271               13.64105735                0.23929062                6.30550568               -2.72329411
              29.87068626               14.75593233               90.88729291                0.36086285               -4.70429845               -2.75706300               11.26830784                1.32742141               -7.80207793               -2.69234510
              30.82528403               14.25764853               90.14039962                0.36089684               -3.28553118               -0.27298304                4.10369273                1.97286600              -19.69825552               -2.63471043
              31.80497564               13.78653428               89.26488129                0.36033460                0.14480327                3.17513697               -7.30468888                2.31317098              -27.66060743               -2.67471946
              32.82818010               13.33461437               88.31570073                0.36121670                5.21931870                7.45132655              -22.45932042                2.47470528              -29.30340902               -2.73296918
              33.90936201               12.89475367               87.37214385                0.36216432               11.20177792               12.29488569              -40.28407423                2.59250151              -20.74146295               -2.62345815
              35.05221566               12.46313961               86.55237925                0.68166057               14.28536462               17.56508405              -58.26748825                2.44657178              -11.15047359               -0.84818392
              19.72998402                7.77125499               95.30570528                1.00000000               -0.02519481               -0.01292420                0.14270738               -0.03419863               -0.34906132                0.34496211
              20.72973207                7.21681491               94.90442566                1.00000000               -0.00229044               -0.03434053                0.11781031               -0.04258055               -0.45727637                0.05295956
              21.72993821                6.66269411               94.50093505                0.94810416                0.02796589               -0.06820022                0.12896322               -0.01843486               -0.51152409               -0.05552131
              22.73029139                6.10980542               94.09821524                0.74240770                0.04520326               -0.04505750                0.11560530                0.06681712               -0.48532826               -0.16882808
              23.73084228                5.55880447               93.69460687                0.74780280                0.02042266               -0.02470718                0.13684761                0.05499119               -0.36642673               -0.07748968
              24.73069984                5.00883039               93.29305075                0.75153071               -0.02900667               -0.00594889                0.10719063                0.04555321               -0.13417521               -0.05402370
              25.73026214                4.45959200               92.89303701                0.76050068               -0.04427797                0.01683098                0.04743154                0.04435156                0.04308245               -0.04311244
              26.72981428                3.91086643               92.49422515                0.78551213               -0.02828517                0.03577807               -0.03163299                0.04389636                0.14237413               -0.04459134
              27.72969644                3.36244655               92.09575813                0.87589055                0.01012307                0.04418728               -0.11122458                0.02757265                0.09393122               -0.05176611
              28.73001675                2.81405557               91.69584649                1.00000000                0.03935417                0.04857422               -0.15303271                0.00619764               -0.00741088               -0.02565878
              29.73048352                2.26562338               91.29540347                1.00000000                0.04667782                0.05447870               -0.18404935                0.00248517               -0.04571805               -0.10128620
              20.28408212                8.77112575               95.16429015                1.00000000               -0.04954119                0.02746888                0.12094500               -0.03967077               -0.07214866                0.47943243
              21.28358671                8.21647150               94.76296540                1.00000000               -0.04117562               -0.01908472                0.09468555               -0.05324254               -0.09855412                0.07611704
              22.28325861                7.66201211               94.36118641                1.00000000               -0.03411634               -0.06403214                0.09318823               -0.00298092               -0.09485664               -0.13352892
              23.28290438                7.10935484               93.95983022                1.00000000               -0.06894515               -0.00012280                0.09476270                0.04414751               -0.02559524               -0.11533252
              24.28187971                6.55855740               93.55917981                1.00000000               -0.10713867                0.00549337                0.10148212                0.04828324                0.08106995               -0.05520522
              25.28076161                6.00877090               93.15962753                1.00000000               -0.10960332                0.01711509                0.07521446                0.04312602                0.21436659               -0.03870074
              26.27968764                5.45976031               92.76122168                1.00000000               -0.09678161                0.03100010                0.02741345                0.04341826                0.33336769               -0.03155695
              27.27882598                4.91122421               92.36367663                1.00000000               -0.06550210                0.04296187               -0.03479854                0.04065515                0.39417111               -0.03356271
              28.27837760                4.36288842               91.96628742                1.00000000               -0.01678354                0.04849850               -0.10806249                0.02740540                0.33686122               -0.04635925
              29.27849031                3.81454131               91.56767486                1.00000000                0.02814823                0.05203116               -0.15826302                0.00958307                0.17909645               -0.03293854
              30.27894056                3.26616817               91.16745562                1.00000000                0.04502559                0.05586684               -0.19010360                0.00690629                0.07842967               -0.11699359
              20.83849910                9.77180437               95.02555598                1.00000000               -0.07182392                0.09475756                0.07929281               -0.02060847               -0.01475393                0.63568975
              21.83778087                9.21643321               94.62195897                1.00000000               -0.07519257                0.00277189                0.06149114               -0.00223635                0.05008069                0.08893038
              22.83699525                8.66141347               94.21987304                0.00010000               -0.15759071               -0.10881928                0.05481660                0.21922380                0.35163948               -0.42733628
              23.83462905                8.10980296               93.82245300                0.00010000               -0.23016824                1.85619066                0.06179850                1.71161951                0.51375429                3.78557910
              24.83239189                7.55891434               93.42412621                0.00010000               -0.21348014                2.00924150                0.06035689                1.38756357                0.48065685                4.20878876
              25.83035945                7.00917269               93.02638204                0.00010000               -0.18573448                1.31601234                0.04491844                0.58769111                0.54816353                1.37561237
              26.82867720                6.46021201               92.62952461                0.00010000               -0.14300834               -0.03728752                0.01026152               -0.17240068                0.62548791               -4.27352193
              27.82749928                5.91172566               92.23331998                0.00010000               -0.08748758               -1.98443946               -0.03829904               -0.46621190                0.65096312              -12.28718303
              28.82692745                5.36341652               91.83700089                0.00010000               -0.02853108               -4.59908318               -0.09764920                0.35674419                0.58064574              -22.01625958
              29.82692866                4.81509619               91.43963137                0.00010000                0.02202425               -7.95086380               -0.16534511                3.47153510                0.37952021              -32.19283243
              30.82736793                4.26674072               91.03971580                0.36061543                0.04392722              -14.11892100               -0.19626818               11.01370527                0.22459003              -40.64224069
              21.39441227               10.77302090               94.88706850                1.00000000               -0.04793826                0.12123311                0.03899718                0.02441384                0.01165543                0.64360276
              22.39393289               10.21652694               94.48069667                0.97344197               -0.00694662               -0.00283638                0.02797240                0.03860778                0.00327808                0.03991823
              23.39427334                9.65983572               94.07428851                0.00010000                1.28515086               -0.14270388                0.00278492                2.24310956                4.69823777               -0.64310090
              24.41963590                9.14647866               93.76171001                0.00010000                0.79939578                2.30474318                3.97986859                4.90281926                8.20985640                8.00770897
              25.41026125                8.59874223               93.37359555                0.00010000               -1.42090702                2.67862892                5.13555907                2.76065233                2.59363614                8.61121727
              26.39121776                8.03509114               92.92085575                0.00010000               -1.82873010                1.58613421                4.44518623                0.93143782               -2.33730353                2.90420793
              27.37368665                7.45901456               92.41255694                0.00010000               -1.24602674               -0.55344030                2.36178474               -0.64812939               -6.70084176               -8.17275599
              28.36629723                6.87153542               91.85758484                0.00010000                0.42276529               -3.67569223               -1.15544773               -1.54417300              -10.49788577              -23.77385945
              29.38214196                6.27090676               91.26825984                0.00010000                3.91497901               -7.92881450               -6.41489142               -0.93622337              -12.71867354              -42.88039409
              30.44459681                5.65552403               90.66863603                0.00010000               10.68918282              -13.84548345              -13.35301311                0.45898681              -10.69490406              -63.69144293
              31.59592561                4.98378975               90.10188356                0.36019049               15.13288039              -21.29860473              -20.64337889                5.66628577               -4.57789480              -85.22690833
              21.95197531               11.77422903               94.74826738                1.00000000               -0.02371061                0.10271325                0.00775622                0.02907028               -0.00061546                0.61466724
              22.95173820               11.21637649               94.33863611                0.93300722               -0.00347892               -0.01076616                0.01699592                0.04730097                0.00066027               -0.01400446
              23.95190573               10.65855939               93.92911246                0.00010000                2.10203651               -0.11083135                0.02577793                2.79183441                7.18429582               -0.64140516
              24.99377893               10.15589783               93.66309163                0.00010000                2.35433595                0.10152777                6.27104710                5.21985118               12.56501864                5.79785613
              25.99899245                9.61248692               93.27538988                0.00010000               -0.25315309                0.14105309                8.11992948                3.40580624                4.28268065                5.91804753
              26.98871587                9.04089537               92.77438130                0.00010000               -0.98610555               -0.42630833                6.77134292                2.37333111               -3.39519203                0.68050993
              27.97927034                8.44914320               92.17481699                0.00010000               -0.19961203               -1.44378591                2.95631846                1.73227101              -10.13498954               -8.95706962
              28.98472363                7.83821182               91.49361445                0.00010000                2.24720144               -2.93291037               -3.34123748                1.21835983              -15.62471729              -22.32360111
              30.02421437                7.20484023               90.75538857                0.00010000                6.92508882               -5.04661148              -12.49689323                0.53882294              -18.11896612              -38.77550049
              31.12322541                6.53818652               90.00354963                0.00010000               12.99739262               -7.88813975              -24.32797361               -0.21869092              -13.54306616              -57.76513624
              32.28416222                5.84076862               89.31636238                0.36105134               16.09368124               -8.91536385              -36.78566464               -0.49726836               -6.27545289              -78.15883167
              22.51069877               12.77507517               94.60909702                1.00000000               -0.01502220                0.06845225               -0.01176107                0.02805269               -0.00232258                0.58399684
              23.51054855               12.21631162               94.19630260                0.91646033               -0.00550430               -0.00453454                0.01797217                0.04020872               -0.00457455               -0.03543145
              24.51058868               11.65761910               93.78352776                0.00010000                2.97784265               -0.07557175                0.05167041                2.51039150                8.77209319               -0.65758076
              25.57010540               11.14850921               93.54618498                0.00010000                4.13955731               -1.38080156                7.70632164                4.79713395               15.46380436                4.00502536
              26.59337983               10.60156329               93.15180197                0.00010000                1.59613497               -2.05556658                9.82182427                3.32150936                5.47162218                3.61014039
              27.60202810               10.02656498               92.60903506                0.00010000                0.88178960               -2.28309636                7.82932793                2.76851206               -3.62504090               -0.98273843
              28.61101562                9.43013885               91.93591692                0.00010000                1.64696485               -2.23082223                2.59027848                2.51090434              -11.49007321               -9.07171645
              29.63496740                8.81287721               91.15558436                0.00010000                4.09640453               -2.00960954               -5.87491140                1.91722518              -17.64360837              -20.20692040
              30.69294371                8.16997453               90.30161048                0.00010000                8.46635985               -1.67578755              -17.96657603                0.68698890              -20.03245478              -34.15076805
              31.80429459                7.49776124               89.43091582                0.00010000               14.39361638               -0.78954731              -33.45760939               -0.72145344              -14.72277372              -50.63163098
              32.98081604                6.80548247               88.63414859                0.36093139               17.65214461                0.91695957              -50.45120880               -0.48088042               -6.89400895              -69.13129302
              23.07006346               13.77559808               94.46969760                1.00000000               -0.00650154                0.03960953               -0.02448671                0.02106761               -0.00105877                0.55758831
              24.06999845               13.21628579               94.05380802                0.90150943               -0.00737493               -0.00199598                0.02070774                0.03233537               -0.00172307               -0.04978668
              25.06991596               12.65704796               93.63794656                0.00010000                3.78894845               -0.04395304                0.07073379                1.55001350                9.87941465               -0.65095258
              26.14577742               12.12828179               93.41959657                0.00010000                5.87254526               -2.53268917                8.59249725                3.13381068               17.54866588                2.25880318
              27.18736687               11.57137558               93.01756789                0.00010000                3.48665695               -3.77857166               10.78926217                2.43591308                6.45336360                1.47698151
              28.21551056               10.99523344               92.44116858                0.00010000                2.79046603               -3.77455438                8.25107606                2.47687855               -3.46342802               -2.32547218
              29.24317619               10.40452676               91.71096023                0.00010000                3.38609480               -2.73641306                1.91361690                2.54129929              -11.92245541               -8.70299644
              30.28323245                9.79801963               90.85434324                0.00010000                5.49469633               -0.89585651               -8.19711249                2.01355724              -18.42924818              -17.47013904
              31.35307012                9.17132448               89.91124865                0.00010000                9.50279709                1.69152064              -22.49480320                0.78922467              -20.91094242              -28.54595622
              32.47328839                8.52239557               88.94613015                0.00010000               15.30160135                5.06780586              -40.80473283               -0.38603222              -15.33094683              -41.80039294
              33.65910214                7.85910781               88.05841708                0.36134312               18.58137503                8.95012744              -61.28918199               -0.37483537               -7.26614941              -56.64816793
              23.62974469               14.77586736               94.33008750                1.00000000                0.00006885                0.02025567               -0.03578675                0.01341381                0.00226196                0.52603327
              24.62974538               14.21627170               93.91119567                0.87113720               -0.00758679               -0.00128189                0.02109039                0.02273084                0.00535387               -0.06206837
              25.62959295               13.65674004               93.49239428                0.00010000                4.43543036               -0.02446355                0.08535080                0.05469832               10.81463622               -0.64832590
              26.71845399               13.09785543               93.28961162                0.00010000                7.27767437               -3.48515992                9.15793584                0.54819219               19.35064605                0.61861886
              27.77514644               12.52599186               92.88369572                0.00010000                4.99802572               -5.18451279               11.41992047                0.97710610                7.52080116               -0.43353477
              28.81841450               11.95107389               92.28398843                0.00010000                4.19544913               -4.89498191                8.52993885                1.93161212               -2.99249467               -3.28645270
              29.85905542               11.37541058               91.51251316                0.00010000                4.50131608               -2.94500743                1.43528314                2.42260040              -11.96472177               -7.81595666
              30.90844082               10.79496008               90.59965265                0.00010000                6.26484180                0.22903941               -9.84858342                2.08694096              -18.88122366              -14.04037571
              31.98435226               10.20380494               89.59007308                0.00010000               10.01748953                4.44254410              -25.74447212                1.09848791              -21.56417591              -21.96412376
              33.10879061                9.59911735               88.55417418                0.00010000               15.77712969                9.56471058              -46.08850892                0.08383573              -15.85032877              -31.36443849
              34.29989485                8.98448502               87.59835340                0.36125576               19.11042416               15.15900014              -69.01553413               -0.12622941               -7.58810001              -41.66812149
              24.18952306               15.77600319               94.19020335                1.00000000                0.00573264                0.01361155               -0.04923243                0.00515067                0.01034213                0.47896994
              25.18958039               15.21626016               93.76846122                0.85698832               -0.00484305               -0.00044472                0.01457125                0.01229165                0.00888713               -0.07910509
              26.18942620               14.65655868               93.34671319                0.00010000                4.89545255               -0.01796215                0.08803612               -1.89738536               11.91355899               -0.57898008
              27.28748944               14.05857860               93.16297661                0.00010000                8.21321651               -4.52484341                9.63237723               -2.69805873               21.48989784               -0.68835375
              28.35369053               13.46768533               92.76125470                0.00010000                5.86173159               -6.54643166               12.09485951               -0.40703760                9.03612608               -1.77908050
              29.40472407               12.89733381               92.15022031                0.00010000                4.70257386               -5.62645424                9.11193273                1.48258869               -2.14185532               -3.60968037
              30.44774201               12.34562661               91.35202330                0.00010000                4.59264224               -2.89874433                1.58370020                2.28341170              -11.91234957               -6.22415251
              31.49657692               11.80260042               90.40004387                0.00010000                6.15702966                1.18550600              -10.45868654                2.06920536              -19.47061926               -9.93078524
              32.57088260               11.26017536               89.34334522                0.00010000                9.88540567                6.41398202              -27.41889251                1.29858058              -22.43974446              -14.72941112
              33.69428503               10.71368979               88.25865941                0.00010000               15.74798128               12.60762380              -49.09085351                0.45600800              -16.50147597              -20.22966358
              34.88584223               10.16228782               87.25914869                0.36147253               19.15571976               19.40766866              -73.55098477                0.02734149               -8.00048956              -25.63137001
              24.74933377               16.77613959               94.04981809                1.00000000                0.01019453                0.01693127               -0.06436371               -0.00063923                0.03508940                0.36297163
              25.74943572               16.21626280               93.62549923                0.68796665               -0.00034829                0.00180838               -0.00207281                0.00360740                0.09259944               -0.10929879
              26.74932681               15.65638079               93.20236079                0.00010000                5.19652240               -0.01914309                0.07728512               -4.44649932               13.68647025               -0.46692957
              27.85336617               15.00735856               93.04981314                0.00010000                8.94618356               -6.82082272               10.37401230               -4.35166513               24.74743516               -0.80840549
              28.92825048               14.39506322               92.66606902                0.00010000                5.83794142               -7.44526198               13.38294267               -0.95770615               11.65227934               -2.08461140
              29.97012500               13.83854480               92.05415670                0.00010000                3.56032844               -5.87231282               10.51178312                1.11152037               -1.09349927               -2.71065280
              30.99945705               13.31743570               91.24089648                0.00010000                3.25755912               -2.69586729                2.79237611                1.64315222              -12.24826352               -3.66547350
              32.03527618               12.81867020               90.26256553                0.00010000                4.98887273                1.80309913               -9.69967643                1.46491550              -20.84418770               -5.21083767
              33.09923450               12.33208458               89.17267066                0.00010000                9.02610682                7.49176177              -27.31482710                0.95703762              -24.25825523               -7.32356774
              34.21579831               11.85126983               88.05536175                0.00010000               15.20055598               14.16928226              -49.76738631                0.42040750              -17.78523644               -9.64525221
              35.40324562               11.37263839               87.03593313                0.36149862               18.74473081               21.67108451              -74.98130306               -0.06490189               -8.77739664              -10.80487144
              25.30926385               17.77634182               93.90775948                1.00000000                0.01474832                0.02022278               -0.07634377               -0.01154173                0.17864591                0.27266868
              26.30941133               17.21629632               93.48213450                0.78487804                0.00683037                0.00335213               -0.01944298               -0.01073837                0.28897916               -0.12766726
              27.30940046               16.65617582               93.05875498                0.36012308                7.61811858               -0.02049695                0.06667835               -8.69934425               17.57243465               -0.42595789
              28.46177370               15.92216214               92.97859764                0.36063475                9.69748528               -8.51964183               12.52767879               -6.02903296               32.77200080               -3.55987109
              29.50335016               15.31878009               92.62017026                0.36106184                2.14041496               -7.62831347               16.20089442                0.39623874               15.04727901               -3.88108752
              30.50458200               14.77988755               92.01385641                0.36066371               -0.14352531               -5.86572546               13.46100468                2.09215941               -0.78331763               -3.68467626
              31.50047966               14.29170926               91.19060864                0.36056019                0.33221696               -2.57264365                5.56173053                3.04100327              -14.07163357               -3.50897796
              32.51122634               13.83866240               90.19217881                0.36015459                2.84720332                1.99921991               -7.25002198                3.51008309              -24.01948159               -3.53782373
              33.55742372               13.41001059               89.07601224                0.35981799                7.54565118                7.79260133              -25.28448629                3.73957357              -28.26178516               -3.64924805
              34.66213937               12.99707543               87.92992787                0.36074885               14.21916710               14.58056004              -48.26527451                3.91905087              -21.45135047               -3.58581093
              35.84180707               12.59570951               86.89748944                0.68084181               17.96676982               22.30711145              -73.83486562                3.71955181              -11.91205356               -1.54255519
              20.12810257                7.91610452               96.30718329                1.00000000               -0.02112923               -0.01028763                0.14371243               -0.03900463               -0.30863423                0.31859948
              21.12789127                7.35889481               95.90557149                1.00000000                0.00855474               -0.03277542                0.10652126               -0.05007381               -0.39673584                0.04647995
              22.12827366                6.80206979               95.50205664                0.97853287                0.05082351               -0.06627666                0.09741090               -0.02152905               -0.43802521               -0.04891211
              23.12890775                6.24675144               95.09921013                0.78183386                0.08436037               -0.04138899                0.08380753                0.07779293               -0.41080821               -0.13586778
              24.12996087                5.69367614               94.69575412                0.76745868                0.06761372               -0.02117568                0.10086422                0.05814276               -0.32784361               -0.06724830
              25.13026002                5.14187329               94.29389986                0.74888930                0.01024637               -0.00085360                0.07404315                0.04624953               -0.14916999               -0.05406060
              26.13016580                4.59106718               93.89335552                0.73095661               -0.01833529                0.02050398                0.02926843                0.04912005               -0.00566300               -0.04716687
              27.12989331                4.04101161               93.49386364                0.72529508               -0.01734246                0.03554587               -0.03227598                0.05486070                0.07187590               -0.04232748
              28.12981895                3.49139742               93.09463667                0.77234518                0.01201300                0.04146924               -0.10802149                0.04187176                0.03533982               -0.04469863
              29.13013357                2.94198907               92.69449778                0.85301207                0.03872640                0.03996551               -0.15435134                0.01672045               -0.03334285               -0.04373104
              30.13059348                2.39267257               92.29399073                0.98822122                0.04599018                0.03499972               -0.17774842                0.00338107               -0.04035761               -0.12896494
              20.68492223                8.91600165               96.16557263                1.00000000               -0.05143290                0.03411938                0.12761777               -0.04342445               -0.05347007                0.44709576
              21.68440790                8.35856706               95.76389415                1.00000000               -0.03960881               -0.01654823                0.08799496               -0.05945331               -0.06385481                0.06685211
              22.68413006                7.80140702               95.36200919                1.00000000               -0.02627025               -0.06399834                0.07254975               -0.00280411               -0.04433041               -0.12842165
              23.68388250                7.24633755               94.96062266                1.00000000               -0.05743423                0.01012760                0.06630186                0.04984741                0.02511068               -0.09019948
              24.68298137                6.69346439               94.55996565                1.00000000               -0.09277518                0.01622911                0.06220929                0.05085434                0.10965694               -0.04699539
              25.68202699                6.14186476               94.16012755                1.00000000               -0.09467658                0.02906096                0.03207385                0.04406496                0.20913314               -0.03930976
              26.68108784                5.59127222               93.76129592                1.00000000               -0.08750958                0.04054298               -0.00190843                0.04665260                0.29859602               -0.03575090
              27.68027680                5.04136707               93.36327406                1.00000000               -0.06694537                0.04493912               -0.03492190                0.04894341                0.32585687               -0.03319827
              28.67974893                4.49181211               92.96530169                1.00000000               -0.03068008                0.04372419               -0.08000981                0.03709405                0.26415741               -0.03556941
              29.67966320                3.94238873               92.56634457                1.00000000                0.00974275                0.03869347               -0.11669691                0.01693667                0.13522045               -0.03664385
              30.67994379                3.39302257               92.16598616                0.97115804                0.02805862                0.03117019               -0.13663795                0.00477355                0.05928252               -0.11408596
              21.24210326                9.91678691               96.02643324                1.00000000               -0.08064245                0.10550804                0.08981381               -0.02008255               -0.00421384                0.59510170
              22.24129683                9.35856385               95.62257732                1.00000000               -0.08280859                0.00619918                0.06037562                0.00175078                0.06968135                0.07563234
              23.24044708                8.80078982               95.22034085                0.00010000               -0.17247506               -0.12077072                0.04081424                0.25413460                0.38345216               -0.43078142
              24.23784733                8.24695399               94.82288833                0.00010000               -0.24981667                3.22890590                0.03133131                3.40701105                0.55268858                6.01550402
              25.23545075                7.69400073               94.42447640                0.00010000               -0.22569245                3.54372522                0.01643178                4.07977161                0.51278795                7.05143369
              26.23333348                7.14245451               94.02653990                0.00010000               -0.19271060                2.65073275               -0.00845989                4.12412016                0.56199751                3.86020758
              27.23159654                6.59187804               93.62938303                0.00010000               -0.15005940                0.87377982               -0.03012224                3.98815335                0.61191395               -2.83193262
              28.23033229                6.04191039               93.23286154                0.00010000               -0.10286862               -1.73263756               -0.04126168                3.94153403                0.59818455              -12.64073039
              29.22953917                5.49227190               92.83619568                0.00010000               -0.05352225               -5.40470912               -0.05936187                4.74921090                0.49986992              -25.20097649
              30.22926185                4.94276294               92.43834818                0.00010000               -0.00589509              -10.49885914               -0.09219105                8.26157305                0.30697050              -39.33664371
              31.22942127                4.39329598               92.03825872                0.35903406                0.01594164              -21.03613734               -0.10738614               18.31138608                0.17676987              -52.15029905
              21.80096671               10.91811181               95.88754813                1.00000000               -0.05267020                0.12899445                0.05183396                0.03110420                0.01187171                0.60794968
              22.80044001               10.35869104               95.48099250                1.00000000               -0.00720535               -0.00175986                0.03093438                0.04410960                0.00071198                0.03507082
              23.80082260                9.79899161               95.07428887                0.00010000                2.91859059               -0.15408711                0.00281412                3.66402565                6.92498030               -0.61934904
              24.85881182                9.31091567               94.80613181                0.00010000                3.41268422                4.01906984                4.84174512                9.24590584               12.76020562               12.56207085
              25.86907629                8.76433889               94.43031544                0.00010000                0.39101313                4.77499726                5.92962206                7.88232069                6.11804838               14.22157273
              26.86663208                8.19487941               93.97033619                0.00010000               -0.38406282                3.38703239                5.09116419                7.54690739                1.23435145                7.73836425
              27.86139503                7.60874782               93.44101634                0.00010000               -0.39592282                0.58766062                3.16141378                7.16795889               -3.12101470               -5.36109317
              28.85871362                7.00671432               92.84992502                0.00010000                0.62427846               -3.58860274               -0.17601726                6.67913069               -7.96897389              -24.34578145
              29.87388060                6.38371793               92.20365678                0.00010000                4.25784826               -9.56569323               -6.02769970                6.82789258              -12.55206117              -48.81032674
              30.94387059                5.73241155               91.52447992                0.00010000               13.56124225              -18.59459214              -15.25264944                5.96828746              -12.66203130              -77.46787730
              32.14510544                4.97229982               90.86986993                0.35897211               20.12348544              -31.43594131              -26.48260659               10.73235672               -5.95290435             -110.75672235
              22.36156687               11.91936680               95.74843892                1.00000000               -0.02676508                0.10480033                0.02250649                0.03507277               -0.00005519                0.58857746
              23.36129922               11.35852865               95.33881017                0.96822933               -0.00319524               -0.01181681                0.01747291                0.05361031                0.00279551               -0.00443449
              24.36150297               10.79770808               94.92927120                0.00010000                4.80594721               -0.11080027                0.00883158                4.56198132               10.66051442               -0.59077594
              25.45741817               10.32733539               94.73271909                0.00010000                7.38152274                0.20939942                7.46872526                9.40753857               19.85110464                9.13068268
              26.50913342                9.78950067               94.36452448                0.00010000                4.12222671                0.41516323                9.15168699                8.07884246               10.53577083               10.01200469
              27.53986270                9.21019516               93.84917651                0.00010000                2.69936956               -0.28234013                7.49584420                8.46636174                3.23516941                4.02448841
              28.56312081                8.60363126               93.21062487                0.00010000                2.45410488               -1.61462139                3.79254329                9.20969986               -3.21173485               -7.34761498
              29.58894480                7.97013834               92.46416132                0.00010000                3.86394871               -3.64511881               -2.40685510                9.34412746               -9.96319678              -23.51388976
              30.64039979                7.30095804               91.62665673                0.00010000                8.55504529               -6.70232541              -12.68401262                7.93967218              -15.49794261              -44.30565913
              31.76004570                6.57087110               90.73966070                0.00010000               16.19460288              -11.12572523              -28.20083232                4.44399530              -13.55831426              -70.10797864
              32.96429185                5.76457715               89.90284181                0.35954654               20.42461421              -12.84687031              -47.04141208                1.58298907               -6.60822285             -101.14087304
              22.92334446               12.92020781               95.60907124                1.00000000               -0.01735319                0.06634227                0.00315474                0.03359447                0.00105946                0.56720179
              23.92317093               12.35845471               95.19648134                0.93588425               -0.00444883               -0.00575573                0.01708484                0.04676059                0.00232931               -0.02066228
              24.92325549               11.79677560               94.78394511                0.00010000                6.59995347               -0.07406340                0.03318807                4.03868716               12.99765041               -0.61039276
              26.05517000               11.31510366               94.63116317                0.00010000               11.22689397               -2.27187157                8.97583374                8.34652528               24.47262108                6.30705594
              27.14779337               10.77264216               94.25873755                0.00010000                8.33293652               -3.30081685               10.78216391                7.15884356               13.50179438                6.36486893
              28.22182873               10.18923261               93.69457858                0.00010000                6.89262429               -3.63058017                8.33543825                7.80091425                5.16904999                1.15911379
              29.28564585                9.57645539               92.96746509                0.00010000                6.32203300               -3.59668373                3.10683000                8.75060353               -2.06163932               -8.30103280
              30.34826939                8.93381194               92.09896193                0.00010000                7.31477133               -3.39308819               -5.42798138                8.60153349               -9.37789105              -21.65691110
              31.43194128                8.24967142               91.11393433                0.00010000               11.04309963               -3.10375127              -19.05401870                6.45782464              -14.99007498              -39.12825562
              32.56913138                7.50989704               90.06711342                0.00010000               17.87059240               -1.93092841              -39.06925920                2.48158386              -13.10538881              -61.20683228
              33.78935313                6.71536242               89.06748940                0.35974481               22.02217427                1.11355733              -64.12359457                1.02609224               -6.36041034              -88.41803030
              23.48574498               13.92069365               95.46954389                1.00000000               -0.00783364                0.03458681               -0.00963636                0.02524108                0.00332211                0.54623962
              24.48566664               13.35841354               95.05400990                0.90657692               -0.00586117               -0.00335591                0.01936690                0.03816327                0.00649062               -0.03690820
              25.48562776               12.79622681               94.63854885                0.00010000                8.14077385               -0.04031480                0.05242405                2.42577670               14.54434305               -0.61290195
              26.64848212               12.28189796               94.51367729                0.00010000               14.62767930               -4.14609908                9.80091792                5.35416969               27.59417785                3.59442272
              27.77818134               11.72348433               94.13407519                0.00010000               12.17928140               -6.18985499               11.56661432                5.11270162               15.58215170                3.02694356
              28.89206775               11.13758356               93.53032880                0.00010000               10.76861062               -6.34923364                8.48260000                6.25746784                6.70107718               -1.20997399
              29.99355356               10.53169758               92.73452852                0.00010000                9.78458450               -5.07274330                2.07226875                7.30272141               -0.88133992               -8.54966613
              31.08775944                9.90227657               91.77229953                0.00010000                9.99588120               -2.73508018               -8.25572090                6.99558817               -8.47441560              -18.96180744
              32.19347118                9.23888301               90.67436981                0.00010000               12.81134729                0.66515087              -24.38344510                4.86799647              -14.38542953              -32.72694965
              33.34398639                8.53225253               89.50195388                0.00010000               19.02058804                5.44312386              -47.76014556                1.77917626              -12.81907477              -50.24091288
              34.57388294                7.78684830               88.37154164                0.35985292               22.98965552               11.64492288              -77.21466582                0.62227354               -6.31850466              -71.34017159
              24.04840950               14.92089955               95.32981918                1.00000000               -0.00084754                0.01347216               -0.02103100                0.01580830                0.00795500                0.51627339
              25.04840103               14.35838759               94.91139799                0.85615917               -0.00614538               -0.00191456                0.01941092                0.02688351                0.01638999               -0.05552978
              26.04828660               13.79596931               94.49315128                0.00010000                9.32974232               -0.01830315                0.06890759               -0.04062980               15.74382204               -0.62241804
              27.23499587               13.23218168               94.38919673                0.00010000               17.30376024               -5.71242677               10.25790529                0.96591383               30.04475546                1.08485843
              28.39436180               12.64884506               94.00609413                0.00010000               15.18844830               -8.56822909               12.01380204                2.31839771               17.38221361                0.03441895
              29.53876484               12.06224794               93.37527135                0.00010000               13.63227320               -8.43744288                8.54393828                4.56722593                8.06704871               -3.05217412
              30.66700726               11.47500053               92.53028629                0.00010000               12.11154409               -5.97904450                1.33980819                5.92222484                0.06911986               -8.13637468
              31.78099572               10.87911034               91.49944753                0.00010000               11.61589912               -1.87595751              -10.24832282                5.67930801               -7.96862087              -15.42745515
              32.89932525               10.26297444               90.31791394                0.00010000               13.78769512                3.72952999              -28.15506512                3.94603170              -14.28324939              -25.19239024
              34.05674962                9.61875952               89.05250301                0.00010000               19.66409105               10.89006734              -53.88300163                1.56337125              -12.95973612              -37.47997286
              35.29260707                8.94826087               87.82678395                0.35988176               23.58574437               19.24388287              -86.24131231                0.56413797               -6.48990967              -51.85654612
              24.61108507               15.92096309               95.18979899                1.00000000                0.00494833                0.00682370               -0.03448022                0.00581702                0.01586147                0.46988682
              25.61113456               15.35837524               94.76858951                0.82204094               -0.00320015                0.00004893                0.01143916                0.01437122                0.02116263               -0.08257424
              26.61102107               14.79586075               94.34749331                0.00010000               10.18950468               -0.01088306                0.07221371               -3.26394856               17.06305131               -0.56990968
              27.81492465               14.16764942               94.26703642                0.00010000               19.17309835               -7.49152826               10.62606971               -4.46122275               32.73917878               -0.96216679
              28.99448304               13.55211975               93.89006019                0.00010000               17.11660735              -10.89005146               12.55899219               -0.19838146               19.55615673               -2.17247259
              30.15725680               12.96883470               93.24700544                0.00010000               15.03263080               -9.82970699                9.01527112                3.26790879                9.63674429               -4.04525781
              31.29513565               12.41211669               92.37088377                0.00010000               12.80574449               -6.32584844                1.38412731                4.81988546                0.77301154               -6.82699507
              32.41337169               11.86475742               91.29306187                0.00010000               11.88034888               -1.03395543              -10.99111060                4.60150546               -8.02579799              -11.07958578
              33.53274263               11.31347361               90.05318030                0.00010000               13.82978433                5.89941470              -30.04286150                3.27763104              -14.78890849              -16.93892936
              34.68996737               10.75005388               88.72470958                0.00010000               19.67101785               14.44358954              -57.25145398                1.51175653              -13.44039430              -24.09267219
              35.92616299               10.17172595               87.43846390                0.35988013               23.61956144               24.23948592              -91.37949528                0.50911337               -6.83418226              -31.76101202
              25.17370153               16.92103602               95.04926641                1.00000000                0.00892589                0.01071013               -0.04800463               -0.00058312                0.03461336                0.35753357
              26.17379079               16.35838857               94.62544740                0.64971230                0.00159566                0.00302600               -0.00742505                0.00384988                0.10336931               -0.11834241
              27.17373344               15.79575165               94.20302729                0.00010000               10.78608141               -0.01508858                0.06051401               -7.52303841               19.21203782               -0.46714472
              28.38951242               15.08235111               94.16127249                0.00010000               20.77377261              -11.37715385               11.31353603               -7.29142989               36.80524194               -1.29258169
              29.58920890               14.43104403               93.80804463                0.00010000               17.73068293              -12.35591991               13.84675833               -1.30617721               23.06846920               -2.85850038
              30.74412608               13.86565380               93.16537698                0.00010000               13.91366775              -10.29976575               10.45024400                2.23821333               11.29047113               -3.31139379
              31.86748225               13.34848356               92.27236784                0.00010000               11.37714164               -6.20360195                2.65768540                3.15853721                0.81764418               -4.19079628
              32.97166891               12.85843123               91.16371196                0.00010000               10.60495797               -0.41030850              -10.13665910                2.91449446               -9.18729296               -5.91190894
              34.07958141               12.38096273               89.88399661                0.00010000               12.85317519                7.07363202              -29.82436333                2.08263917              -16.51408944               -8.47412206
              35.22873241               11.90763131               88.51478822                0.00010000               18.99318875               16.19256707              -57.82605910                1.04891457              -14.67758196              -11.48294611
              36.45944519               11.43305059               87.20040770                0.35995109               23.07127725               26.87249745              -92.81815152                0.17635148               -7.58430602              -13.44626862
              25.73636833               17.92117729               94.90710274                1.00000000                0.01276035                0.01412664               -0.05595855               -0.00747285                0.17187108                0.27061548
              26.73649593               17.35843576               94.48191015                0.76611485                0.01147135                0.00471988               -0.02332156               -0.01040134                0.30004227               -0.13746628
              27.73659776               16.79555898               94.05932498                0.35995680               14.86538705               -0.01926679                0.05369057              -14.63003965               24.28525406               -0.43308779
              29.03380367               15.94010635               94.11353931                0.36097482               22.42295262              -14.22447646               13.81671749              -10.09875574               47.29851482               -5.18208923
              30.18505681               15.30500135               93.79245990                0.36055257               12.53889301              -12.60426729               16.99934718                0.72144305               27.29474107               -5.37445615
              31.28458153               14.76283938               93.15651301                0.36042649                9.02360799              -10.28144130               13.67057607                3.19771060               11.67898029               -4.88379738
              32.36552897               14.28804465               92.25163423                0.36004898                7.73004340               -6.04389052                5.69370457                4.49026506               -1.18086404               -4.52746771
              33.43918240               13.85655125               91.11988086                0.35955914                7.98331824               -0.18799754               -7.33227280                5.09642927              -12.60976292               -4.56903685
              34.52519533               13.45494625               89.81001100                0.35935896               10.98377017                7.39835208              -27.29613554                5.42909066              -20.89785768               -4.78343330
              35.65885781               13.07390522               88.40683836                0.35889495               17.68280592               16.62739113              -55.72958297                5.72402168              -18.82165700               -4.79546785
              36.87885145               12.70917590               87.07568194                0.67989571               21.99936466               27.61253103              -91.09944991                5.46769481              -11.23797573               -2.43996246
              20.52703495                8.06084832               97.30857953                1.00000000               -0.01109360               -0.00305955                0.12614471               -0.04144019               -0.26651106                0.29064090
              21.52692402                7.50109918               96.90655608                1.00000000                0.02520580               -0.02964684                0.08523420               -0.05697495               -0.33709862                0.04000595
              22.52753907                6.94181075               96.50288327                1.00000000                0.07268655               -0.06512904                0.07364130               -0.03136715               -0.36406344               -0.03485786
              23.52837775                6.38426300               96.09989139                0.83082144                0.10283011               -0.03903491                0.05877162                0.06852308               -0.32489951               -0.09600599
              24.52959567                5.82903643               95.69662415                0.77929093                0.08686466               -0.01412258                0.07693397                0.04876848               -0.27293809               -0.05465349
              25.53011504                5.27529380               95.29453161                0.73053822                0.02947207                0.00508676                0.06143005                0.03646874               -0.13811859               -0.05502897
              26.53018511                4.72276787               94.89362238                0.68787078               -0.00721915                0.02499123                0.03554738                0.02805446               -0.02186135               -0.04821325
              27.52997066                4.17119902               94.49357963                0.65774734               -0.02080105                0.03633196               -0.00878090                0.00940132                0.02405816               -0.02616834
              28.52976909                3.62022253               94.09359770                0.67434186                0.00125825                0.03954938               -0.08930776               -0.00346809               -0.03311484               -0.01947432
              29.52999582                3.06948736               93.69275946                0.72106694                0.04606912                0.04706660               -0.20086799               -0.00702328               -0.09418478               -0.04675690
              30.53069047                2.51905322               93.29184850                0.90300030                0.06946509                0.05652363               -0.30483029               -0.02815821               -0.07286254               -0.18704581
              21.08636968                9.06081772               97.16684251                1.00000000               -0.04966327                0.04412952                0.11883198               -0.04691391               -0.03565840                0.41258639
              22.08587305                8.50080272               96.76472530                1.00000000               -0.03630957               -0.01258392                0.07566336               -0.06576944               -0.03103861                0.05787286
              23.08564349                7.94115946               96.36263741                1.00000000               -0.02114550               -0.06462926                0.05565322               -0.00579268                0.00548477               -0.11948716
              24.08545014                7.38387265               95.96115626                1.00000000               -0.05377676                0.01704467                0.04445552                0.04526344                0.07689022               -0.06155909
              25.08456795                6.82889520               95.56042399                1.00000000               -0.09180656                0.02783953                0.03330323                0.04362149                0.14580748               -0.03462781
              26.08361401                6.27534467               95.16026901                0.96980588               -0.10274542                0.04372006                0.00057244                0.03501537                0.22630842               -0.03975020
              27.08251305                5.72301778               94.76118351                0.89784886               -0.11383323                0.05425299               -0.01037521                0.03131995                0.29906099               -0.03682687
              28.08133734                5.17156234               94.36297819                0.84783878               -0.09614043                0.05305411               -0.02502385                0.01399544                0.30476504               -0.02143277
              29.08059024                4.62061802               93.96468722                0.83194980               -0.04135503                0.04096840               -0.05577563                0.00324010                0.23122825               -0.01918838
              30.08051024                4.06995803               93.56534092                0.77464994                0.01263985                0.03703001               -0.10149308                0.00048197                0.12236753               -0.03988815
              31.08084303                3.51961846               93.16472286                0.82685977                0.03327921                0.03988711               -0.16483427               -0.01436835                0.07627576               -0.15015465
              21.64612668               10.06173091               97.02735225                1.00000000               -0.08597957                0.11782471                0.08770582               -0.01877623                0.00553995                0.55183343
              22.64526689                9.50084751               96.62316648                1.00000000               -0.08867001                0.00963943                0.05606272                0.00603001                0.08701801                0.06155159
              23.64435328                8.94051817               96.22068933                0.00010000               -0.18598066               -0.13205368                0.03211673                0.28732656                0.40974176               -0.42799944
              24.64154727                8.38460389               95.82307963                0.00010000               -0.26785994                5.20083318                0.01224963                6.12191786                0.58297719                8.65773542
              25.63899608                7.82959322               95.42445485                0.00010000               -0.24272519                5.71151978               -0.01460438                8.77070978                0.54050755               10.17551571
              26.63669277                7.27616820               95.02621284                0.00010000               -0.22011222                4.59385729               -0.05542359               10.79247991                0.59730002                6.51900584
              27.63459384                6.72385293               94.62892217                0.00010000               -0.20212198                2.37665408               -0.04830359               12.26281912                0.63603170               -1.04805141
              28.63265033                6.17226010               94.23249474                0.00010000               -0.15778184               -0.91211655               -0.03964078               13.00644651                0.60900431              -12.39698579
              29.63143820                5.62104190               93.83581365                0.00010000               -0.08226523               -5.81894268               -0.03476263               13.69617266                0.49833523              -27.97951902
              30.63100502                5.07022797               93.43778755                0.00010000               -0.01779747              -13.25520333               -0.05198656               17.17209281                0.31844892              -47.38394675
              31.63108225                4.51985096               93.03756807                0.35814966                0.00772276              -30.77731221               -0.10337896               30.22452332                0.22937219              -67.05741364
              22.20776096               11.06317421               96.88810517                1.00000000               -0.05545680                0.13732811                0.05431337                0.03738091                0.01398396                0.57065726
              23.20720639               10.50099550               96.48131536                1.00000000               -0.00636604               -0.00242739                0.03293650                0.05195602                0.00312345                0.02488126
              24.20763363                9.93851839               96.07434480                0.00010000                5.58035265               -0.17152691                0.00928366                5.68738106                9.55731164               -0.60588035
              25.31881344                9.48788931               95.85854492                0.00010000                8.03921031                6.44381129                5.38832366               15.93038433               18.47817325               17.97810726
              26.36841784                8.94312560               95.49218799                0.00010000                4.31952271                7.73558402                5.64306474               16.67934308               11.59234503               20.37217390
              27.40520389                8.36722181               95.02267904                0.00010000                3.16298429                6.04872737                4.39004873               19.90256859                8.44651754               12.89255306
              28.43167753                7.77055087               94.47578521                0.00010000                1.95367070                2.59446096                3.10175098               22.57775965                5.90026718               -1.89343009
              29.44427731                7.15332001               93.85406450                0.00010000                1.24341504               -2.66814981                1.09392717               23.52329016                0.62594357              -23.71894309
              30.45654583                6.50423917               93.14770584                0.00010000                4.04328603              -10.62961995               -4.26360798               22.94259408               -7.69752942              -53.65156717
              31.52514303                5.80485396               92.36358304                0.00010000               16.47708377              -23.84172558              -16.10203493               17.23510323              -13.02701983              -92.23926882
              32.78608750                4.90407221               91.57223143                0.35828278               26.09444735              -44.97596336              -34.25806948               19.64949009               -7.20251373             -143.53617436
              22.77123172               12.06447747               96.74871751                1.00000000               -0.02698857                0.10700114                0.02847130                0.03908964                0.00036603                0.56121739
              23.77096183               11.50079896               96.33898557                1.00000000               -0.00123120               -0.01484344                0.01779664                0.05625208                0.00306194               -0.00331431
              24.77120709               10.93708763               95.92928909                0.00010000                9.22929569               -0.11923956                0.00350934                7.04536931               14.65197682               -0.55870430
              25.95554775               10.51348012               95.81246614                0.00010000               16.10216749                0.29014110                7.91842259               15.65846078               28.97915369               12.88043311
              27.09325044                9.98430490               95.45842362                0.00010000               12.58855646                0.80921809                8.20118851               15.76225495               20.11064680               14.29910783
              28.20731887                9.39714275               94.92429819                0.00010000               10.34001958                0.06865758                5.81254812               19.14574581               15.97567389                7.47730901
              29.30005083                8.77574215               94.25066785                0.00010000                8.10544776               -1.51681671                2.97822541               22.77381561               12.53910724               -5.37362826
              30.36942783                8.11889711               93.44547735                0.00010000                6.93526459               -4.08596184               -1.50314111               24.46851871                5.53200956              -23.93447699
              31.43875613                7.40844950               92.50170832                0.00010000               10.32231061               -8.22714154              -11.38646038               22.14706265               -4.72427470              -49.01363200
              32.57587404                6.59339345               91.43953298                0.00010000               19.34397137              -14.67612726              -30.86159373               13.76854601               -9.26135529              -82.86844177
              33.82563555                5.62033170               90.37553414                0.35838129               24.97615119              -16.78250895              -59.81513955                6.03224268               -5.18943332             -128.77113454
              23.33589977               13.06531424               96.60916011                1.00000000               -0.01784991                0.06487359                0.01107732                0.03674815                0.00445212                0.54754829
              24.33572127               12.50069864               96.19664429                0.96079175               -0.00199531               -0.00839896                0.01456979                0.04904157                0.00841841               -0.01217469
              25.33585986               11.93613360               95.78419152                0.00010000               12.45220573               -0.07519421                0.01623359                6.14609238               17.71533088               -0.57194541
              26.58476538               11.49369213               95.72570165                0.00010000               23.20702241               -3.56717141                9.08927071               13.48816266               35.52046171                8.67878228
              27.80000031               10.95930996               95.36744525                0.00010000               20.59580895               -4.98735136                9.09949621               13.20053883               25.49658343                9.11463763
              28.99668156               10.36859496               94.77574383                0.00010000               18.26995856               -5.34007792                5.79430973               16.13322294               21.24586302                3.37672717
              30.16539948                9.74021453               93.99805352                0.00010000               15.21293876               -5.25149576                1.48502372               19.32668155               17.74278319               -7.14660053
              31.30094034                9.07160077               93.04702473                0.00010000               12.97956260               -5.02996100               -5.30371962               20.19784160               10.41059914              -22.31599754
              32.42499073                8.33969634               91.92053010                0.00010000               14.38457059               -4.78218134              -18.79546011               16.83408518               -0.14157492              -43.12729856
              33.58863175                7.51133142               90.64953064                0.00010000               21.39325686               -3.06028640              -43.43726104                8.62933623               -5.99807033              -71.39340583
              34.85285587                6.56842204               89.35167670                0.35873634               26.42241211                2.63390651              -80.08183426                4.10511041               -3.41094986             -109.50448244
              23.90119788               14.06577494               96.46950488                1.00000000               -0.00745789                0.03117446               -0.00123118                0.02792349                0.00789323                0.53126346
              24.90112330               13.50063098               96.05419535                0.91117044               -0.00312201               -0.00585718                0.01696999                0.04143040                0.01443502               -0.02892875
              25.90113544               12.93558374               95.63899504                0.00010000               15.05056648               -0.03931923                0.03733006                3.61582530               19.61721165               -0.58089930
              27.20213463               12.44213669               95.61561493                0.00010000               29.06114740               -6.37493355                9.53244114                8.53074970               39.63566406                4.83058760
              28.48235839               11.88455787               95.24890018                0.00010000               27.34720657               -9.43073660                9.30092917                9.24601402               28.84305248                4.48861857
              29.74907876               11.29034119               94.61082058                0.00010000               25.06101343               -9.76206012                5.32958205               12.25180594               24.52475379                0.02666850
              30.98357866               10.67071224               93.75240560                0.00010000               21.24120461               -8.19433410               -0.11560196               14.94094318               21.01484182               -7.91857329
              32.17390286               10.01829789               92.68922882                0.00010000               17.60642623               -5.29760668               -8.69933944               15.12970232               13.48746733              -19.56316866
              33.33570718                9.31280587               91.42357975                0.00010000               17.29161059               -0.92748478              -24.83387429               11.72654508                2.33862064              -35.73596510
              34.51973507                8.53218773               89.99092724                0.00010000               22.89246735                5.77153857              -53.19658584                5.61490441               -4.65515680              -57.66996843
              35.79355653                7.67300983               88.51412376                0.35846559               27.38214618               15.60049000              -94.78309914                2.51615508               -2.91818581              -85.88985154
              24.46674616               15.06593773               96.32966688                1.00000000               -0.00050864                0.00893787               -0.01235618                0.01744500                0.01372005                0.50288205
              25.46674107               14.50058149               95.91158389                0.83406040               -0.00377508               -0.00358584                0.01754927                0.02977521                0.02855342               -0.05466489
              26.46667066               13.93534721               95.49377243                0.00010000               16.98325874               -0.01496282                0.05688057               -0.16415750               20.98857032               -0.60167276
              27.80640625               13.36619346               95.49476972                0.00010000               33.50227166               -8.74385957                9.68837000                1.64597582               42.60830753                1.35915968
              29.13671609               12.77069523               95.12397176                0.00010000               32.45785366              -13.11362483                9.34249461                4.48232739               31.37593820                0.38345367
              30.45556332               12.17335376               94.45486720                0.00010000               29.97727790              -13.20090808                5.01399262                8.65946203               26.85940140               -2.67584435
              31.73626165               11.57632785               93.53930933                0.00010000               25.29387148              -10.18535413               -1.16875531               11.29310145               23.04719647               -7.97087213
              32.96144075               10.96564864               92.39468620                0.00010000               20.46850733               -5.07768110              -10.99046535               11.23401776               15.02235881              -15.97353685
              34.14563179               10.32114664               91.02697178                0.00010000               18.96425652                2.12541154              -28.94280823                8.44315444                3.22074460              -27.30869672
              35.34072588                9.62676219               89.47651415                0.00010000               23.79514872               11.86817017              -59.77014921                3.98718358               -4.46254571              -42.45877438
              36.62153477                8.88043184               87.87352715                0.35849816               28.08088893               24.02170015             -104.40768886                1.77163554               -2.98769721              -61.24864504
              25.03225925               16.06595370               96.18951375                1.00000000                0.00500720                0.00243915               -0.02493708                0.00645122                0.02101937                0.45804902
              26.03230932               15.50055926               95.76869001                0.76989482               -0.00094647               -0.00030847                0.00866463                0.01659730                0.03608333               -0.09322925
              27.03224032               14.93528449               95.34815746                0.00010000               18.36984046               -0.00704899                0.06333754               -5.11139734               22.45104542               -0.56845912
              28.39970613               14.26725950               95.37549800                0.00010000               36.63021597              -11.55947155                9.83800419               -6.74758473               45.77143021               -1.49543673
              29.76484464               13.62228538               95.01243455                0.00010000               35.84646275              -16.76008603                9.64398839                0.39314096               34.23493541               -2.71504562
              31.11663539               13.02632303               94.33052573                0.00010000               32.61505860              -15.52721976                5.30747741                6.03838324               29.19697794               -4.35314426
              32.41714581               12.46700515               93.37970585                0.00010000               26.85645172              -11.17292711               -1.25134597                8.58172660               24.42674087               -7.02735828
              33.65376442               11.91674426               92.18022166                0.00010000               21.31554543               -4.60178004              -11.82724650                8.33848722               15.50864938              -11.59487082
              34.84345672               11.35531410               90.74248799                0.00010000               19.32145629                4.23123970              -30.90878102                6.25257653                3.09219132              -18.35552202
              36.04019355               10.76955113               89.11363033                0.00010000               23.90966157               15.63599681              -63.23847663                3.16197196               -4.77499547              -27.13658146
              37.32164995               10.15344383               87.43155878                0.35881185               28.14564057               29.30315709             -109.72011800                1.32855883               -3.25575620              -37.30521646
              25.59766405               17.06598651               96.04885800                1.00000000                0.00781748                0.00638770               -0.03539515                0.00024243                0.03182430                0.35135726
              26.59774223               16.50057532               95.62535073                0.59295044                0.00392110                0.00311243               -0.01096927                0.00501739                0.11727883               -0.13320749
              27.59774247               15.93520623               95.20357107                0.00010000               19.33557175               -0.01829019                0.05062084              -11.71676193               24.92799339               -0.47433364
              28.98445366               15.13500403               95.27608386                0.00010000               39.38864527              -17.66363910               10.37666395              -11.24048881               50.61400857               -2.05628784
              30.38551538               14.43549351               94.94300419                0.00010000               37.35787738              -18.99124771               10.84412857               -1.53840074               38.72803788               -3.79730946
              31.73161121               13.86280937               94.26316158                0.00010000               31.59797823              -16.31917426                6.69418662                3.98638464               31.51590598               -3.83327095
              33.01747494               13.35286931               93.29405018                0.00010000               25.41451684              -11.21890140                0.02407061                5.35761929               24.91248352               -4.47186907
              34.23990155               12.87361304               92.05983235                0.00010000               20.02007582               -4.09001915              -10.90973752                4.98960090               14.67257812               -6.26959355
              35.41787646               12.40577144               90.57618339                0.00010000               18.29670215                5.34995210              -30.53039550                3.74607146                1.62700885               -9.24786920
              36.60583559               11.93948213               88.89884057                0.00010000               23.12220418               17.37573270              -63.58851564                2.02826437               -5.80567220              -12.94640738
              37.88032054               11.46649498               87.17957010                0.35891254               27.44849547               32.14589717             -110.98507526                0.58680739               -3.83482240              -15.84824071
              26.16308647               18.06608145               95.90664031                1.00000000                0.01034760                0.00949420               -0.03768229               -0.00375217                0.16303269                0.26889673
              27.16318995               17.50062151               95.48166807                0.73652000                0.01949505                0.00461880               -0.02134698               -0.01336639                0.31713062               -0.15169867
              28.16347637               16.93491868               95.05982880                0.35932114               25.57095653               -0.02875481                0.05510429              -22.75834998               31.35616014               -0.45509636
              29.67460908               15.91398672               95.25493199                0.36042774               42.13974596              -22.10173167               13.11394111              -15.60737150               63.77741795               -7.34256385
              31.00627129               15.24246042               94.96015721                0.36120234               30.21891020              -19.30330860               14.08714453                1.37323244               43.58739733               -7.14824469
              32.27898728               14.69993954               94.28726794                0.36089184               25.36116182              -16.28698245                9.88632685                4.74594220               31.88426209               -6.14125284
              33.51349453               14.24262712               93.30448273                0.36029705               21.08335148              -11.02421826                3.06176037                6.35217522               22.86978574               -5.57842988
              34.70065431               13.83494388               92.04553335                0.35927004               16.95072668               -3.86691566               -7.91626016                7.05957731               11.37309333               -5.68084491
              35.85250906               13.46231314               90.53008953                0.35838869               15.96904904                5.65417074              -27.48733879                7.56935512               -2.67458191               -6.14800897
              37.02003529               13.11706578               88.81533621                0.35827036               21.34256691               17.75836565              -60.61741924                8.12240176              -10.12174035               -6.31086506
              38.27936040               12.79636177               87.07550044                0.67917620               25.93251073               32.98667964             -108.36027311                7.83358450               -7.90838573               -3.64667000
              20.92681924                8.20539138               98.30970619                1.00000000                0.00263252                0.00892682                0.09082336               -0.04106486               -0.22375411                0.25942733
              21.92684556                7.64335649               97.90727617                1.00000000                0.04189223               -0.02423780                0.05479144               -0.06168407               -0.27595973                0.03585717
              22.92765708                7.08186435               97.50352946                1.00000000                0.09116534               -0.06531348                0.05543733               -0.03757411               -0.29583046               -0.02179098
              23.92866887                6.52230159               97.10038556                0.87464680                0.11024044               -0.03834483                0.04437509                0.05243667               -0.24890594               -0.05901848
              24.92986189                5.96498339               96.69729279                0.76633446                0.09152755               -0.00422584                0.05822098                0.04210509               -0.20144443               -0.03875790
              25.93049942                5.40929792               96.29512846                0.68680878                0.04093279                0.00906058                0.05970196                0.02928526               -0.08253391               -0.05420112
              26.93068055                4.85498065               95.89406647                0.62925102               -0.00501334                0.02552471                0.06189142               -0.01240694                0.02924148               -0.02114824
              27.93039915                4.30169112               95.49368802                0.58675199               -0.03518616                0.03321803                0.04451402               -0.06066364                0.04917192                0.01827639
              28.92997682                3.74882890               95.09285051                0.58534415               -0.02000369                0.03834969               -0.04064221               -0.08661105               -0.06665447                0.02161279
              29.92999908                3.19589101               94.69048042                0.61308566                0.04906593                0.06718659               -0.23796945               -0.07471408               -0.18625388               -0.05048752
              30.93095814                2.64318294               94.28789413                0.83412260                0.09590621                0.11169608               -0.49410595               -0.09607804               -0.17990785               -0.34682194
              21.48844348                9.20548065               98.16794927                1.00000000               -0.04512438                0.05847674                0.09627553               -0.04833552               -0.01959017                0.37424116
              22.48799223                8.64311411               97.76540742                1.00000000               -0.03173425               -0.00758324                0.05900430               -0.07074344               -0.00175962                0.05058505
              23.48780879                8.08121122               97.36312226                1.00000000               -0.01792585               -0.06709554                0.04365422               -0.00621383                0.04987918               -0.10856165
              24.48763372                7.52191814               96.96151177                1.00000000               -0.05120087                0.02092306                0.03112707                0.04012006                0.12286497               -0.03327841
              25.48678477                6.96494114               96.56063172                0.99513548               -0.09200367                0.03818224                0.00687123                0.03680933                0.18410820               -0.02075010
              26.48579364                6.40938852               96.16013900                0.80822970               -0.12124500                0.05633408               -0.02228887                0.03037547                0.27975363               -0.04015353
              27.48435987                5.85523590               95.76108841                0.68616458               -0.14626238                0.06673309               -0.01520603               -0.00052484                0.37809923               -0.01469991
              28.48286839                5.30202330               95.36277359                0.60049567               -0.11745535                0.05966243               -0.03364608               -0.04008839                0.41379467                0.01284654
              29.48201077                4.74921239               94.96418618                0.55359621               -0.03967399                0.04170028               -0.06934427               -0.06120911                0.38486564                0.00548855
              30.48207491                4.19656288               94.56431471                0.49739504                0.03473314                0.04754369               -0.11221650               -0.05175809                0.29301849               -0.08758501
              31.48270543                3.64429990               94.16268948                0.68355885                0.06305151                0.07280938               -0.28539960               -0.05182169                0.26444575               -0.39393866
              22.05058560               10.20656091               98.02818736                1.00000000               -0.08854765                0.13395274                0.07151747               -0.01648147                0.01451026                0.50591889
              23.04970012                9.64320482               97.62369857                1.00000000               -0.09284088                0.01277360                0.04942428                0.01160753                0.10178094                0.04678602
              24.04872878                9.08052244               97.22098318                0.00010000               -0.19793825               -0.14684907                0.03139798                0.32228518                0.42819154               -0.42112061
              25.04574135                8.52272005               96.82313332                0.00010000               -0.28005444                7.95865831                0.00489185               10.40614824                0.60243119               11.45243551
              26.04312769                7.96574704               96.42418431                0.00010000               -0.24645954                8.64362281               -0.04137993               16.88544227                0.55994027               12.77109009
              27.04081216                7.41042460               96.02543143                0.00010000               -0.25462096                7.26282997               -0.09006994               22.83699234                0.66856768                8.35482035
              28.03803527                6.85631532               95.62841696                0.00010000               -0.25956360                4.69488156               -0.06164270               27.80574053                0.75061968                0.38332286
              29.03562089                6.30288437               95.23206872                0.00010000               -0.19111026                0.86647714               -0.05907785               30.48955294                0.77448892              -11.45541662
              30.03421307                5.74966290               94.83550042                0.00010000               -0.08722426               -5.22102372               -0.05907369               31.11791047                0.73700668              -29.43588972
              31.03387641                5.19684189               94.43730845                0.00010000                0.01172954              -15.53410721               -0.10521552               33.58529588                0.60905936              -55.53966796
              32.03444766                4.64463913               94.03619114                0.35734925                0.05712494              -44.03448163               -0.49982188               49.83237271                0.75235962              -86.79648488
              22.61482602               11.20815970               97.88863440                1.00000000               -0.05631712                0.14876488                0.04434428                0.04361202                0.01875643                0.53336544
              23.61426285               10.64336958               97.48165123                1.00000000               -0.00433754               -0.00356987                0.03244559                0.06016471                0.00947863                0.01096834
              24.61473927               10.07827424               97.07447454                0.00010000                9.81346168               -0.19175857                0.02001371                8.50274383               12.33420208               -0.59888590
              25.81053209                9.68109130               96.91389828                0.00010000               16.10248967                9.75336344                5.05725558               26.08323529               25.88151337               23.81577843
              26.93678907                9.13781359               96.54317674                0.00010000               12.07165631               11.72392686                2.63906681               31.49702199               20.21319052               25.50930336
              28.05196521                8.55464512               96.05813716                0.00010000               10.56129236                9.81259752                0.44781759               41.88198639               22.79819297               16.65681591
              29.14801491                7.94913353               95.50305136                0.00010000                7.36733270                5.87875343                0.84678924               50.96981249               25.07408236                1.07708376
              30.19931187                7.31935285               94.87180356                0.00010000                3.11982741               -0.21979071                1.74525874               55.42910088               21.51668453              -21.66284922
              31.21041146                6.64479192               94.11838462                0.00010000                2.97463686              -10.09008838               -0.55861298               54.20867422                8.85684894              -55.61373934
              32.25880460                5.88588073               93.20243922                0.00010000               18.66734665              -28.46436096              -13.88358716               39.29673631               -7.30060695             -105.42464160
              33.58375839                4.76361027               92.18470854                0.35744053               32.49537915              -61.74649704              -45.79642930               35.47561438               -6.22211624             -184.58804652
              23.18103807               12.20953621               97.74900835                1.00000000               -0.02491953                0.11058552                0.02432375                0.04167759                0.00269842                0.53566565
              24.18078888               11.64313343               97.33916610                1.00000000                0.00119314               -0.01840789                0.01754802                0.05980500                0.00631641               -0.00884972
              25.18106193               11.07668727               96.92934139                0.00010000               16.35389154               -0.13217477                0.01023648               10.42096789               18.58835210               -0.54362391
              26.50786671               10.71778732               96.89108754                0.00010000               30.92261873                0.22196061                6.39473462               24.76658630               40.24392291               16.29034500
              27.79951431               10.20022558               96.52854825                0.00010000               27.96326220                1.33223805                2.57249584               27.98915155               35.07746015               17.62422607
              29.06713195                9.60667655               95.96542748                0.00010000               24.66047447                0.77998190               -0.91339482               36.89186567               39.70498296                9.90279863
              30.29272380                8.97389038               95.27018937                0.00010000               19.07062852               -0.86739503               -1.45541170               45.65088501               43.37294191               -3.67664775
              31.44854452                8.29848856               94.43409850                0.00010000               12.95674313               -3.78061631               -2.16833997               50.43318362               38.71621597              -23.29891635
              32.55185866                7.54786113               93.39892752                0.00010000               12.62241292               -8.97689498               -8.55817610               47.26292605               22.98251882              -51.32663689
              33.70099278                6.62755467               92.12242883                0.00010000               21.83211041              -17.76230331              -30.49471024               31.05334172                5.68147893              -93.35666949
              34.98850087                5.40970919               90.70653902                0.35766917               28.75080891              -18.84635630              -75.06199636               14.86963318                1.47477870             -157.70349474
              23.74846514               13.21037141               97.60929279                1.00000000               -0.01572515                0.06379688                0.01176861                0.03719231                0.00718064                0.52847152
              24.74830789               12.64300143               97.19677274                1.00000000                0.00198001               -0.01190314                0.01104061                0.04678157                0.01095527               -0.00778926
              25.74850474               12.07563074               96.78426978                0.00010000               21.70088093               -0.08296793                0.00701722                8.90097867               22.07574560               -0.54158418
              27.18232551               11.68553052               96.81294859                0.00010000               42.95890601               -5.41728351                6.29368810               20.61255846               48.64988094               10.50215336
              28.60768286               11.16445835               96.44072747                0.00010000               41.69061041               -7.17476909                1.77110513               22.25183389               43.45088189               11.08838726
              30.01613772               10.57024476               95.81046477                0.00010000               38.07688725               -7.38414969               -2.52322005               28.96263654               49.37402265                5.16708263
              31.36922061                9.93178563               94.99716556                0.00010000               30.89335351               -7.09100382               -4.18230727               35.81070566               53.69137963               -5.64471809
              32.63400479                9.24374052               93.99288754                0.00010000               22.86916327               -6.75684101               -6.86286317               38.56292528               48.65469462              -21.44481245
              33.82660387                8.46525402               92.73802513                0.00010000               19.20092972               -6.50695508              -16.85299172               33.67903299               32.02090878              -44.26090909
              35.01802338                7.53063467               91.19836819                0.00010000               24.51190699               -3.78425058              -44.39588274               19.03877928               11.56366066              -77.94281889
              36.31684201                6.38668315               89.46585271                0.35787371               29.88186305                6.87458093              -97.11200795                9.63611341                4.51399084             -127.46302740
              24.31652189               14.21081215               97.46951927                1.00000000               -0.00567133                0.02884549                0.00227434                0.02755859                0.01191247                0.51393342
              25.31646518               13.64289536               97.05434930                0.93120638                0.00152639               -0.01008952                0.01247152                0.03872078                0.02054828               -0.02170403
              26.31655242               13.07502791               96.63929545                0.00010000               25.74125454               -0.04286531                0.02119380                5.14568546               24.03895054               -0.54665100
              27.83129027               12.60944165               96.70432611                0.00010000               52.16421616               -9.30243591                5.90364540               12.81697363               53.24403477                5.46840653
              29.35983674               12.05673019               96.32009377                0.00010000               52.38835682              -13.57392950                0.91036070               15.18260693               47.76264099                5.39369433
              30.87905740               11.45899356               95.63692044                0.00010000               48.78027067              -14.06094299               -3.86939039               20.99088476               54.15747296                1.18295317
              32.33544215               10.83207031               94.73221648                0.00010000               40.36386176              -12.17513975               -6.38501558               26.16348840               58.75124895               -6.58283042
              33.68633464               10.16335174               93.59831274                0.00010000               30.15515092               -8.75468832              -10.63560263               27.27136907               53.52905588              -18.37065041
              34.93854517                9.41772203               92.17769232                0.00010000               23.70023004               -3.36808787              -23.12473418               22.19131161               35.93611119              -35.63907035
              36.16033924                8.55186966               90.43802216                0.00010000               26.52905052                5.81231351              -54.29850343               11.61993653               13.56473721              -60.88721213
              37.46912618                7.54720081               88.47587965                0.35812732               30.87869432               20.95849022             -111.71506707                5.63237020                5.21689407              -95.73569072
              24.88484988               15.21094832               97.32957205                1.00000000                0.00166591                0.00603987               -0.00739912                0.01668382                0.01799155                0.48625812
              25.88486654               14.64279964               96.91174898                0.81229924                0.00111445               -0.00757724                0.01445929                0.02862246                0.03889309               -0.05572395
              26.88487217               14.07477344               96.49428889                0.00010000               28.60480808               -0.01674911                0.04621079               -0.33181337               25.37480750               -0.58671580
              28.45696270               13.49948180               96.58296413                0.00010000               58.84554596              -12.65075462                5.46735552                2.64961139               56.38877356                1.22162854
              30.06178309               12.89297976               96.19294402                0.00010000               60.18262983              -18.89718927                0.27683048                7.69306915               50.80656482                0.45883796
              31.66061530               12.28902590               95.47555121                0.00010000               56.31745528              -19.27580647               -4.69746925               14.50853623               57.23082759               -2.09975112
              33.18813219               11.68828284               94.50691118                0.00010000               46.65825721              -15.76208208               -7.74191396               18.90766167               61.56254430               -6.98980071
              34.59378044               11.06864675               93.27963822                0.00010000               34.68899957               -9.78189420              -13.02508381               19.20186605               55.76061181              -14.90270126
              35.88191219               10.39789226               91.73905778                0.00010000               26.35814469               -1.02852376              -27.10158190               15.04334022               37.29173071              -26.82616467
              37.12094334                9.64688094               89.85710002                0.00010000               27.84574619               11.65630847              -60.42674832                7.65090612               13.86768286              -43.93154696
              38.43882711                8.80585295               87.73863018                0.35774940               31.78837735               28.61889327             -120.46796252                3.70044006                5.13689664              -66.62334250
              25.45315294               16.21093295               97.18930025                1.00000000                0.00595717               -0.00058573               -0.01735653                0.00622139                0.02384014                0.44304651
              26.45321251               15.64274382               96.76876281                0.70150964                0.00405245               -0.00266411                0.00544622                0.01583717                0.05236215               -0.10876094
              27.45323399               15.07469293               96.34876006                0.00010000               30.64318298               -0.00898992                0.05232659               -7.48146266               26.84683933               -0.58271994
              29.06607617               14.35642655               96.46379650                0.00010000               63.54600160              -16.88452160                5.26718803               -9.52548767               59.83397167               -2.34199424
              30.72415402               13.67878641               96.08293996                0.00010000               65.39244425              -24.28022929                0.29503913                1.59798574               54.28351111               -3.26455308
              32.37392505               13.07347743               95.35315499                0.00010000               60.49102584              -22.83898661               -4.57673540               10.04125791               60.20837058               -4.26481150
              33.93397454               12.51682867               94.34585685                0.00010000               49.34187396              -17.70067704               -7.92296153               13.75826939               63.40973926               -6.44293325
              35.36076253               11.96771385               93.05651694                0.00010000               36.36016276              -10.04595431              -13.86545152               13.47648558               56.59658284              -10.92128601
              36.66117779               11.39715156               91.43500468                0.00010000               27.23170700                0.52557728              -28.91564392               10.42415745               37.39392993              -18.07623278
              37.90539667               10.78499583               89.45994005                0.00010000               28.20065847               15.00581707              -63.53965420                5.53580198               13.59699195              -28.07063325
              39.22519096               10.11957867               87.24406154                0.35789445               31.97942872               33.31455850             -125.19372016                2.58141307                4.86169771              -40.64540048
              26.02135256               17.21093661               97.04855850                1.00000000                0.00707368                0.00288315               -0.02604706                0.00200076                0.02558977                0.34146595
              27.02142330               16.64274635               96.62522802                0.51128834                0.01038113                0.00116439               -0.01132513                0.00472906                0.13325790               -0.15116525
              28.02156018               16.07459364               96.20403970                0.00010000               32.04680873               -0.03756659                0.03192302              -17.18659670               29.57098106               -0.50006499
              29.66235947               15.16179137               96.36880577                0.00010000               67.75658731              -26.04338731                5.63885964              -16.21355046               65.42090268               -3.04914152
              31.37669193               14.40737518               96.02492720                0.00010000               68.05193635              -27.55279934                1.44161409               -1.46152026               59.84961436               -4.66652273
              33.02339820               13.83224617               95.29926071                0.00010000               59.61846139              -24.08379031               -3.16437290                6.54551591               63.06899423               -3.96266569
              34.56906116               13.33426930               94.27284925                0.00010000               47.97945315              -18.06088497               -6.68462397                8.30831143               64.24711562               -4.18379028
              35.98298726               12.86772767               92.94551721                0.00010000               35.20261030               -9.80907541              -12.95541107                7.72047232               56.10597186               -5.97081792
              37.27311336               12.40840381               91.27338870                0.00010000               26.31224988                1.35111222              -28.40017774                5.99963288               36.30276664               -9.23846321
              38.50923226               11.94699728               89.24301791                0.00010000               27.40881550               16.48504080              -63.63203043                3.46778640               12.95706691              -13.60224426
              39.82128967               11.47214412               86.98070619                0.35791251               31.20574134               36.24015791             -126.40663042                1.27290001                4.68233769              -17.84127205
              26.58957346               18.21099061               96.90634910                1.00000000                0.00765987                0.00540020               -0.02135781               -0.00026015                0.14903919                0.26293238
              27.58965006               17.64276711               96.48148321                0.68963210                0.04417900                0.00207546               -0.01191368               -0.02977429                0.33885333               -0.16628950
              28.59045704               17.07394160               96.06042706                0.35904401               40.96867815               -0.06520385                0.06735288              -33.47072935               37.49289106               -0.53349602
              30.40902362               15.83555881               96.37581813                0.36010987               71.70058846              -32.62325587                8.42036583              -22.64414396               81.03475795              -10.12851478
              32.02446881               15.12773042               96.07420279                0.36085693               58.44588159              -27.96447551                4.46407913                2.58982872               65.03982270               -8.80591978
              33.57794125               14.59180162               95.35423954                0.36071622               52.00952290              -24.04445486               -0.30835413                6.84833270               63.21705292               -7.22559488
              35.06465927               14.15561097               94.31286944                0.36009660               43.15481067              -17.86583287               -3.99435574                8.54634718               62.36656236               -6.38396741
              36.44103747               13.77153235               92.96155565                0.35893032               31.86207843               -9.61953223              -10.04171545                9.23316229               53.53611965               -6.73849800
              37.70190084               13.42417380               91.26026423                0.35796014               23.49873110                1.57699945              -24.98518097               10.03696209               33.01303344               -7.70644492
              38.91101209               13.11469664               89.19448998                0.35754985               24.92272223               16.76993612              -59.60138720               11.18838444                9.34462695               -8.50794311
              40.20035528               12.84438183               86.90847648                0.67871388               28.93431916               37.22377124             -122.44969118               10.87507988                0.85556401               -5.56555453
              21.32741990                8.34955070               99.31039599                1.00000000                0.01616436                0.02706706                0.04471776               -0.03551857               -0.17199661                0.21271092
              22.32758155                7.78555384               98.90765191                1.00000000                0.05465823               -0.01618209                0.01881427               -0.05973650               -0.20959730                0.03016893
              23.32851307                7.22218934               98.50399201                1.00000000                0.10273731               -0.06548329                0.03229998               -0.03381661               -0.22807961               -0.00759876
              24.32963629                6.66083021               98.10077889                0.87744092                0.11554038               -0.03708921                0.02929565                0.04587297               -0.19097788               -0.02575289
              25.33082388                6.10158343               97.69778857                0.71157487                0.10271972                0.00052555                0.04002113                0.04782614               -0.12686330               -0.02384198
              26.33169069                5.54418871               97.29572565                0.60981489                0.06932550                0.00499275                0.05715776                0.04204872                0.03143316               -0.03376316
              27.33221039                4.98830102               96.89486021                0.55146136                0.02396816                0.00722776                0.10059639               -0.01675944                0.19445931                0.06019677
              28.33217005                4.43339341               96.49446991                0.51491794               -0.02833957                0.00451568                0.11528331               -0.08133629                0.20939690                0.12573570
              29.33164360                3.87798345               96.09278486                0.50807750               -0.04714625                0.00944284                0.03386753               -0.11893558               -0.01107968                0.09460839
              30.33122713                3.32080904               95.68800007                0.52087086                0.03106564                0.05692642               -0.20542333               -0.10885000               -0.27195396               -0.01552326
              31.33226491                2.76252608               95.28196638                0.77496291                0.10377812                0.09165858               -0.60008002               -0.11654457               -0.34799093               -0.60106172
              21.89106158                9.34982137               99.16876802                1.00000000               -0.03967172                0.08067266                0.06078407               -0.04420761               -0.00518175                0.31887714
              22.89066487                8.78539202               98.76590539                1.00000000               -0.02624323               -0.00072147                0.03963174               -0.06808690                0.02161722                0.04159723
              23.89053672                8.22153451               98.36351049                1.00000000               -0.01334433               -0.07229329                0.03704164                0.00182933                0.08103524               -0.08933268
              24.89039798                7.66045932               97.96177880                1.00000000               -0.04569146                0.02179400                0.02347073                0.04063256                0.14724912               -0.00087690
              25.88962289                7.10158868               97.56056142                0.84364700               -0.08227981                0.04432869               -0.01755324                0.04261136                0.21349469               -0.01207711
              26.88875238                6.54423864               97.15982323                0.58968532               -0.10912236                0.05388681               -0.03860658                0.04626974                0.34343908               -0.03573081
              27.88744044                5.98837329               96.76087939                0.45027519               -0.11184554                0.06277136               -0.06096721               -0.00207608                0.51424790                0.05610726
              28.88651547                5.43343857               96.36230527                0.36170629               -0.03470082                0.03641934               -0.11534731               -0.07044116                0.69043367                0.14177232
              29.88674643                4.87807788               95.96330034                0.30161661                0.06759195                0.00711028               -0.14935903               -0.13826272                0.85398523                0.10935679
              30.88786731                4.32137830               95.56309659                0.24253875                0.13179962                0.02505277               -0.13910559               -0.16834229                0.76998013               -0.16461875
              31.88938242                3.76344267               95.15901487                0.55021064                0.15151068               -0.03119420               -0.37516932                0.01139431                0.68681028               -1.13325404
              22.45539446               10.35116416               99.02878260                1.00000000               -0.08877847                0.15995786                0.03557959               -0.01043319                0.02278204                0.44873687
              23.45450668                9.78553941               98.62415497                1.00000000               -0.09560529                0.01776614                0.03982551                0.02351335                0.11247743                0.02987329
              24.45348236                9.22074347               98.22131729                0.00010000               -0.20559557               -0.16760214                0.04442074                0.36302934                0.43194789               -0.40868186
              25.45039477                8.66126609               97.82317746                0.00010000               -0.27927856               11.78956727                0.01118472               17.95350311                0.59515961               13.77013708
              26.44789679                8.10247000               97.42362725                0.00010000               -0.22816459               12.36795216               -0.07291350               31.14101185                0.58553475               12.90977415
              27.44583148                7.54526644               97.02441144                0.00010000               -0.24639257               10.80617232               -0.09923883               44.98135947                0.74211405                7.11289781
              28.44296893                6.98955644               96.62768931                0.00010000               -0.23874158                8.09734165               -0.09710154               56.04538429                1.02721718               -0.04728360
              29.44105664                6.43412180               96.23131318                0.00010000               -0.10151647                4.22973424               -0.16224056               63.06657390                1.59968057              -10.48843300
              30.44093861                5.87812566               95.83463218                0.00010000                0.07194241               -2.47702985               -0.43863770               65.17445074                2.77912681              -28.43789011
              31.44249549                5.32131009               95.43568324                0.00010000                0.37127283              -15.50687741               -1.01267854               65.43580996                4.38110801              -61.69406237
              32.44836406                4.76190220               95.02757164                0.35700743                0.58685701              -61.07396297               -6.60410951               84.44541653               10.49328172             -119.84783095
              23.02210241               11.35302053               98.88899206                1.00000000               -0.05465955                0.16841155                0.01760382                0.05146722                0.02505933                0.49342120
              24.02155582               10.78574734               98.48196427                1.00000000               -0.00158931               -0.00194745                0.02700717                0.07051869                0.01794188               -0.00404029
              25.02207063               10.21818246               98.07474507                0.00010000               17.30928476               -0.21617820                0.04146405               12.40368285               14.61864525               -0.59454579
              26.36774151                9.89625066               97.95969003                0.00010000               30.31860730               13.94853131                1.38055435               42.07949200               34.54251263               28.18885503
              27.62844277                9.34894773               97.54496933                0.00010000               26.67758105               16.83843414               -8.18595486               56.83371740               40.23328422               26.36247000
              28.90129313                8.76036208               97.03163539                0.00010000               24.55250021               14.88023326               -8.53198983               80.76591683               52.75452554               15.23078489
              30.11949278                8.15032013               96.49272100                0.00010000               17.89923023               10.92692742               -5.91316342              100.67704438               63.25723336                0.86410916
              31.25927774                7.51803325               95.88896967                0.00010000                9.17771837                4.88565005               -2.18164152              112.60872567               66.67382987              -19.12719126
              32.30304714                6.82853728               95.13653358                0.00010000                2.67646152               -5.79247013                0.93972670              113.11725333               56.49511002              -51.76717539
              33.31280697                6.01124075               94.08591130                0.00010000               19.70296972              -29.54895005               -7.19749323               82.64113810               26.43222694             -110.66491191
              34.69710654                4.54196341               92.65630284                0.35689878               38.42995702              -78.83922828              -59.58517145               64.99960014                9.75443462             -228.42288252
              23.59097019               12.35453239               98.74920398                1.00000000               -0.02150667                0.11761095                0.00923892                0.04586126                0.00763822                0.50938726
              24.59075512               11.78550046               98.33933653                1.00000000                0.00412531               -0.01938465                0.01425016                0.06475439                0.01389241               -0.01544519
              25.59105269               11.21641991               97.92949382                0.00010000               28.52321110               -0.14173042                0.01615969               14.69322765               21.05296945               -0.53243191
              27.16121934               10.94023672               97.94036083                0.00010000               56.47035110               -0.28770133               -2.21066146               37.81912873               55.20405072               18.02234841
              28.72045971               10.43923869               97.50987354                0.00010000               54.92790356                2.02922301              -13.33108742               47.28466902               66.46091758               18.16748299
              30.25977741                9.84287111               96.90603029                0.00010000               48.91894691                2.00407847              -14.21358734               64.76435497               84.77392652               10.01050076
              31.69883865                9.20809499               96.22155962                0.00010000               37.76182942                0.74864664              -11.42849982               81.31376087               97.65097558               -2.80937041
              33.01501400                8.53183480               95.40211055                0.00010000               25.56187580               -1.97714887               -7.74679425               91.40390960               98.04216941              -21.03634556
              34.21007617                7.76227625               94.33054480                0.00010000               18.34390624               -7.64119631               -7.49836794               87.76887041               79.71547263              -48.27497182
              35.38189213                6.73033109               92.82963878                0.00010000               23.84172925              -18.71795214              -24.73427156               60.10558942               43.21185020              -94.25232788
              36.68691075                5.18511763               90.87429421                0.35721225               30.50186278              -14.60712796              -88.57641104               31.03165981               18.87946339             -174.89648476
              24.16108349               13.35537275               98.60939548                1.00000000               -0.01201072                0.06209798                0.00611858                0.03898363                0.00984940                0.50547641
              25.16096338               12.78535965               98.19686511                1.00000000                0.00577171               -0.01399016                0.00760137                0.04890362                0.01547704               -0.00593457
              26.16119892               12.21534785               97.78433186                0.00010000               37.01709634               -0.08941482                0.00541895               12.30109708               24.00751904               -0.51304843
              27.90130531               11.89049664               97.85157542                0.00010000               75.51514173               -7.93737201               -4.52701116               29.95909987               63.20660057               10.26349520
              29.67150176               11.38953219               97.40286735                0.00010000               76.32093086               -9.95117367              -16.49954213               34.72520894               75.93937785               11.09885541
              31.42772393               10.80044365               96.72527943                0.00010000               69.26512734               -9.69786443              -17.34840829               46.80444849               96.35733870                5.84808268
              33.05680430               10.16529306               95.91440737                0.00010000               55.27253702               -8.93924905              -14.97836700               58.82096520              110.16278741               -3.64747913
              34.53317467                9.47849027               94.90976747                0.00010000               40.15619754               -8.38502989              -12.63786041               64.72072166              109.85892453              -17.68189249
              35.85992826                8.67571336               93.58347027                0.00010000               27.94513545               -8.16422208              -15.45126752               58.15176305               89.93860682              -38.83186726
              37.09207738                7.63688171               91.76161299                0.00010000               27.41191979               -3.73097183              -38.27556454               34.25289243               49.34400258              -73.21001305
              38.40816665                6.24982085               89.40943654                0.35738996               31.60892761               15.02004583             -109.51209852               18.05734739               22.37573380             -131.03545004
              24.73177606               14.35577435               98.46955036                1.00000000               -0.00179746                0.02545782                0.00294741                0.02806357                0.01223018                0.48798216
              25.73175809               13.78522066               98.05444478                1.00000000                0.00807922               -0.01530686                0.00736487                0.03479877                0.02097613               -0.01499645
              26.73193765               13.21463161               97.63941892                0.00010000               42.72294590               -0.05997851                0.00977834                6.90106738               25.49510330               -0.48372205
              28.58621701               12.78148928               97.73368784                0.00010000               88.65396159              -12.96704973               -6.57698981               17.99024395               67.21509370                4.82780110
              30.50501688               12.24021521               97.26710739                0.00010000               91.69442530              -18.62531940              -18.95655924               22.80915484               80.28951609                5.13449262
              32.42010551               11.64891382               96.53343277                0.00010000               84.60972280              -19.26597315              -19.71822982               32.37917934              101.41623361                1.96540277
              34.19721133               11.02931001               95.62470529                0.00010000               68.94513131              -17.12007924              -17.64011843               41.09207968              115.48607531               -4.33308922
              35.79900814               10.36413420               94.47651677                0.00010000               50.87543289              -13.45499288              -16.25666602               44.05067619              114.92612744              -14.32110357
              37.21471999                9.59899181               92.96108507                0.00010000               34.69171712               -7.42011836              -20.93105930               37.28269043               93.90988979              -29.67078960
              38.49284248                8.65571166               90.90495717                0.00010000               30.37297158                4.46658247              -46.39350992               20.64782506               51.13375810              -54.27898916
              39.82217942                7.48551855               88.27982242                0.35701584               32.93369437               26.49811255             -120.69494530               10.63297660               22.88172104              -92.92498611
              25.30275214               15.35588191               98.32951890                1.00000000                0.00499527                0.00269145               -0.00068747                0.01890454                0.01929674                0.46104502
              26.30280209               14.78505351               97.91187308                0.82804743                0.00997572               -0.01578264                0.00977578                0.02025222                0.04299317               -0.05793262
              27.30295165               14.21414828               97.49469665                0.00010000               46.63622482               -0.03761659                0.02685765               -0.58460533               26.40532432               -0.51058978
              29.23552659               13.63115564               97.60411683                0.00010000               97.86543282              -17.34556513               -7.91254945                3.94330870               69.80836830                0.41786757
              31.26026031               13.01702580               97.12950837                0.00010000              102.53430634              -25.76020368              -20.45113040               12.00540203               83.36789042                0.18268124
              33.28621271               12.41512419               96.36091781                0.00010000               95.15826050              -26.57982622              -21.08450375               22.18230385              104.60950233               -1.32377262
              35.16342552               11.82289147               95.38447105                0.00010000               77.91468369              -22.85507966              -19.21031790               28.95167708              118.35956913               -4.98509016
              36.84450639               11.20939042               94.13418452                0.00010000               57.52895441              -16.58473244              -18.45003787               30.09798095              117.20993422              -11.51261067
              38.31400461               10.52731099               92.48494014                0.00010000               38.70003750               -6.97666461              -24.14582263               24.50075815               95.31894521              -21.95442483
              39.61850714                9.72621336               90.26797918                0.00010000               32.36038940                8.32544621              -50.92613248               13.13530802               51.37325836              -38.29914160
              40.96121240                8.77978310               87.46416790                0.35714493               34.27052570               30.64706264             -126.67519652                6.78004943               22.71274978              -62.93272097
              25.87381094               16.35582818               98.18916662                1.00000000                0.00858108               -0.00574629               -0.00394578                0.01191709                0.02434740                0.42078277
              26.87389675               15.78490500               97.76879893                0.64136909                0.01662332               -0.01109464                0.00035346                0.00875997                0.06284201               -0.12918284
              27.87414341               15.21387928               97.34920399                0.00010000               49.41544549               -0.03051763                0.02784478              -10.38471725               27.68561061               -0.55033255
              29.86220566               14.43457797               97.48084176                0.00010000              104.35064813              -23.45780350               -8.43532389              -12.62052568               73.22525048               -3.39351556
              31.96115637               13.72501114               97.01833533                0.00010000              109.78401252              -33.30627869              -20.62110024                3.72658712               87.20875451               -3.53925619
              34.05788591               13.11731730               96.23899102                0.00010000              101.04111380              -31.63263424              -21.09055748               15.30268040              107.76070586               -3.38557932
              35.98197865               12.57220842               95.22124662                0.00010000               81.93311642              -26.03552821              -19.47355831               20.39287428              120.19764306               -4.80943697
              37.69654824               12.03243955               93.90291263                0.00010000               60.29667813              -18.01162234              -19.21259279               20.21126233              118.03224250               -8.62141532
              39.18791221               11.45945852               92.16417511                0.00010000               40.32641426               -6.57841829              -25.55659945               16.11037616               95.43835049              -15.08694632
              40.50307653               10.82222058               89.84283725                0.00010000               33.13643604               10.33369759              -53.14356853                8.90767904               51.06685228              -24.89493369
              41.85064093               10.09845980               86.92768438                0.35697134               34.75644036               33.27357473             -129.84285212                4.49283866               22.42602771              -39.22273362
              26.44483682               17.35576698               98.04833706                0.97742251                0.00893634               -0.00346337               -0.01747451                0.00586868                0.02261155                0.32196402
              27.44492619               16.78483162               97.62512423                0.40293817                0.03737587               -0.00598315               -0.00769930               -0.01183766                0.13973018               -0.16802823
              28.44558434               16.21353793               97.20420953                0.00010000               51.35290151               -0.12026189               -0.02020012              -23.89880961               30.64598777               -0.52958374
              30.47198422               15.16199957               97.38886105                0.00010000              110.32341943              -36.85931395               -8.23737740              -22.16574309               79.99171383               -4.40225922
              32.65205273               14.35090023               96.97183647                0.00010000              113.65424139              -37.86101454              -18.90017482               -0.60190520               93.63796790               -4.98979624
              34.74506904               13.78247150               96.19987412                0.00010000              100.20540111              -33.59236598              -19.47155626                9.90282318              110.74607725               -3.06473868
              36.65616075               13.30218091               95.16035771                0.00010000               80.82062440              -26.86505065              -18.33548598               11.91087417              120.95996016               -3.05383177
              38.36148153               12.84915797               93.80072413                0.00010000               59.51351753              -18.21712523              -18.45763385               11.04976913              117.71403663               -4.81742927
              39.84643110               12.39574262               92.00817984                0.00010000               39.80889520               -6.25126643              -25.11500475                8.78262674               94.68799576               -8.05693692
              41.15765944               11.93288731               89.62619996                0.00010000               32.60798113               11.08710973              -53.04614194                5.25755131               50.45978342              -12.62473051
              42.49859072               11.44525460               86.65143750                0.35654998               34.09312875               36.55251552             -130.91417590                2.12961583               22.19081000              -18.81955374
              27.01579904               18.35575891               97.90621315                0.94767287                0.00900084               -0.00080719                0.00059906               -0.00113488                0.12899613                0.23962781
              28.01588905               17.78478534               97.48142980                0.61742153                0.16001115               -0.00462766               -0.00840148               -0.11795698                0.36037525               -0.16865376
              29.01899926               17.21147404               97.06117585                0.35886576               63.28197290               -0.20638888                0.01765286              -47.02819003               40.61458524               -1.08815832
              31.28152851               15.69739169               97.42333931                0.36008634              115.48235361              -46.46078777               -5.68775967              -31.22973069               99.07966238              -12.87515483
              33.32864634               14.96779085               97.04943879                0.36076405              101.15665931              -38.31093785              -15.52784335                5.06327487               98.23455841              -10.29319253
              35.30466169               14.44546998               96.28110085                0.36056305               91.24316648              -33.70015269              -17.06018103                9.31509273              110.14503740               -7.18728084
              37.15350967               14.03490740               95.22459561                0.35998184               75.96601095              -26.72735062              -16.31377887               10.86624493              119.43941920               -6.57057796
              38.82398191               13.66809705               93.84469904                0.35895408               56.31628683              -18.10609233              -16.00353462               11.22632735              116.57998970               -7.63913706
              40.27983540               13.33443319               92.03038591                0.35765795               36.73668343               -6.13094317              -21.72541942               12.13371651               93.48132169               -9.41940461
              41.55871558               13.04396277               89.62330847                0.35680454               29.43316397               11.10754622              -48.69256414               14.85946055               49.08027821              -11.20179703
              42.86849868               12.82951011               86.62650662                0.67846096               30.97831006               38.42555174             -126.41030149               15.54552958               21.01531682              -11.84639235
              21.72886747                8.49290155              100.31060054                1.00000000                0.01901237                0.05700320                0.00527745               -0.02510037               -0.09618162                0.12789035
              22.72905760                7.92745291               99.90765246                1.00000000                0.05505158               -0.00099161               -0.00963732               -0.04885510               -0.12170529                0.01671001
              23.72996850                7.36267543               99.50417546                1.00000000                0.09975779               -0.05761329                0.00272612               -0.02455223               -0.13982905                0.00329441
              24.73105275                6.79978671               99.10097147                0.81416970                0.12046826               -0.02846805                0.00388408                0.06177388               -0.11631236                0.00299846
              25.73237787                6.23896086               98.69809322                0.61179845                0.15018471               -0.00999476                0.00578781                0.09527624               -0.02071726               -0.00534496
              26.73405645                5.68042749               98.29627162                0.50256609                0.17237990               -0.04393761                0.02510068                0.08806814                0.22158114                0.03621832
              27.73582547                5.12414622               97.89607839                0.45964569                0.13029968               -0.06172789                0.09863442                0.03911387                0.46933992                0.16933399
              28.73666244                4.56853512               97.49599368                0.44500815                0.01998016               -0.05196435                0.12596697                0.03656294                0.45100829                0.19046048
              29.73622507                4.00969011               97.09352786                0.44186223               -0.06419816               -0.01379023                0.05667635                0.05002722                0.15680163                0.10584161
              30.73537848                3.44538751               96.68637196                0.43888725               -0.00796854                0.01998315               -0.10621106                0.00688267               -0.17382211                0.07995562
              31.73606570                2.87706474               96.27589253                0.72090366                0.06872233               -0.10351727               -0.44136875                0.02166238               -0.33779108               -0.51776401
              22.29406510                9.49347158              100.16916495                1.00000000               -0.03829977                0.12050311                0.01570946               -0.03140665                0.01310979                0.20652478
              23.29368211                8.92744300               99.76620005                1.00000000               -0.02545109                0.01452492                0.01908023               -0.05074483                0.03722791                0.02216601
              24.29355608                8.36209929               99.36386309                1.00000000               -0.00771672               -0.07805998                0.03112018                0.02178874                0.07196971               -0.05873105
              25.29352777                7.79950203               98.96198118                1.00000000               -0.02729205                0.02124256                0.01373216                0.05217285                0.11056158                0.02445059
              26.29301024                7.23886092               98.56028065                0.56838014               -0.05916613                0.02868722               -0.02671042                0.08563125                0.19978952               -0.00531776
              27.29234445                6.67998812               98.15936687                0.28581119               -0.04237246                0.02214524               -0.07441375                0.11019810                0.42117008                0.05333394
              28.29216279                6.12352894               97.75986907                0.17796328                0.09558377               -0.03090917               -0.20300018                0.19398819                0.74665277                0.31076460
              29.29425612                5.56801548               97.36046664                0.13698896                0.30681795               -0.10419050               -0.27901082                0.50162310                1.13391422                0.39857303
              30.29829915                5.00955221               96.96119900                0.10100764                0.37519316               -0.10091285               -0.25946587                1.33861687                1.49872171               -0.02570192
              31.30175999                4.44558734               96.56153260                0.04249100                0.31529685               -0.26207878               -0.19998458                2.98289975                1.43933738               -0.94487618
              32.30460509                3.87602957               96.15518609                0.44019592                0.28451000               -6.33351044               -0.38512896                9.26776282                1.27991131               -7.14909858
              22.86029651               10.49531161              100.02889895                1.00000000               -0.08815198                0.20675846               -0.01344628                0.00906470                0.03275148                0.31765720
              23.85941499                9.92774341               99.62449508                1.00000000               -0.09756309                0.03321119                0.02790328                0.04945954                0.10568283                0.01868352
              24.85834524                9.36111423               99.22187160                0.00010000               -0.20402003               -0.19462520                0.07692558                0.41492444                0.35812615               -0.33882463
              25.85533458                8.80021156               98.82335702                0.00010000               -0.23704178               16.40915029                0.02871336               30.80253459                0.45576298               12.86231784
              26.85360441                8.23953461               98.42272604                0.00010000               -0.18711015               16.99778911               -0.08077773               62.85789930                0.52880510                4.68258124
              27.85159238                7.68087040               98.02344665                0.00010000               -0.09632691               14.88269263               -0.26340166               87.54765184                1.20512159               -0.00023484
              28.85167787                7.12352804               97.62647493                0.00010000                0.45396266               12.45082330               -2.18011529              107.46217109                7.79161737               -5.37958554
              29.86067163                6.56645131               97.22882391                0.00010000                1.68738394                9.89980883               -6.79228930              123.94317859               33.76436618              -11.57664378
              30.88542555                6.00767186               96.82672767                0.00010000                3.39437376                5.19917922              -12.85092169              135.93837504               72.95868650              -23.12020565
              31.92855911                5.44014593               96.41705488                0.00010000                8.75554719               -8.34801912              -16.45848262              135.43212860              115.50356964              -51.34008647
              33.06053649                4.75039453               95.90410895                0.35655609               13.19773818              -76.37997614              -63.01410043              147.69780588              160.89618993             -191.47834722
              23.42938279               11.49760675               99.88898647                1.00000000               -0.05141153                0.20044617               -0.02215687                0.08150907                0.03022993                0.37630534
              24.42886868               10.92810722               99.48219138                1.00000000                0.00018115                0.00901380                0.01357342                0.09809705                0.02862621               -0.00597710
              25.42938642               10.35820679               99.07530382                0.00010000               30.11447004               -0.23311923                0.05649585               17.11647979               13.68313439               -0.48438047
              27.03115808               10.12768504               98.94150937                0.00010000               62.00614866               19.30686666              -28.23451106               69.84216634               95.27609831               29.15079075
              28.66950939                9.57881670               98.37945764                0.00010000               56.40729878               23.30713043              -26.60845517              107.97078625              114.06170025               16.38194003
              30.15930406                8.97764197               97.88749737                0.00010000               44.31579541               21.61860653              -23.30709115              149.65303670              135.08124365                7.54142921
              31.55582530                8.37254541               97.38478809                0.00010000               36.48359117               18.62442806              -19.75875881              184.31774342              147.30019773               -3.29188439
              32.88897588                7.76601166               96.82817073                0.00010000               29.37733666               14.52562667              -16.07163087              209.03607401              154.35219461              -17.18747744
              34.14337203                7.11353579               96.13717915                0.00010000               18.93520002                6.38765778              -11.09475223              217.29148190              150.40598345              -38.19118856
              35.26767988                6.27862696               95.05848936                0.00010000               24.73459834              -18.66697535               -7.67312240              166.39077576              110.34722057              -87.71794195
              36.63806400                4.34843005               92.99300511                0.35668230               37.03841194              -79.58743671              -46.24460299              117.79244813               59.13009181             -215.20292929
              24.00092574               12.49932053               99.74919313                1.00000000               -0.01488577                0.12639056               -0.01461530                0.07732002                0.01274402                0.39662303
              25.00077689               11.92792369               99.33945110                1.00000000                0.00856391               -0.01663704                0.00855481                0.09718404                0.01939282               -0.01379740
              26.00109702               11.35645184               98.92966458                0.00010000               51.53955580               -0.13810566                0.01792372               20.14918021               16.37943652               -0.42473948
              28.03156800               11.18634890               98.84687431                0.00010000              108.09830890               -1.51058107              -37.20195888               57.29946665              106.31708355               13.02671958
              30.16306320               10.70567722               98.26192650                0.00010000              100.96782021                2.51924547              -34.86568003               75.50753265              134.99680217               12.85379407
              32.05092441               10.11324253               97.68115573                0.00010000               79.32999265                4.10809828              -30.00596647              103.13898965              160.96195476                6.68650243
              33.74966305                9.49601660               97.04161938                0.00010000               62.47391622                4.15724836              -24.77650282              128.79421643              174.49040551               -1.96481497
              35.30040273                8.85696385               96.27916261                0.00010000               48.44884166                2.48423995              -19.90212781              145.62764567              178.94345117              -13.67395882
              36.71863989                8.13542501               95.24896016                0.00010000               36.05388207               -2.77296938              -16.22700885              142.00005202              166.37014319              -32.40662888
              38.02148037                7.06680642               93.62774340                0.00010000               27.90696929              -14.37554704              -19.99650178               96.72390371              118.15347131              -65.66336008
              39.27677927                5.15864580               90.93501080                0.35674245               25.52989000                0.60079450              -77.62820049               50.71621668               78.29932641             -139.42180534
              24.57372289               13.50013456               99.60941516                1.00000000               -0.00418359                0.05639239               -0.00440998                0.06658731                0.01228493                0.39092120
              25.57368105               12.92777448               99.19692476                1.00000000                0.01109625               -0.01681102                0.00465967                0.07746861                0.01945338               -0.00495922
              26.57394481               12.35544468               98.78437816                0.00010000               62.71204930               -0.07315767                0.00112064               15.79066742               17.55956146               -0.39270586
              28.82792204               12.09747342               98.72240836                0.00010000              133.94107994              -11.64463217              -44.04014703               39.50462995              111.76962339                6.98640769
              31.25276641               11.62920161               98.11073663                0.00010000              130.19112147              -13.64490948              -40.63244376               48.25747235              141.29990050                7.62938703
              33.43174447               11.05980394               97.46349661                0.00010000              106.76109499              -12.52896512              -34.76417421               66.26742712              169.08378378                4.82819624
              35.38798831               10.45569038               96.69759822                0.00010000               86.51879577              -11.03358751              -28.78900627               85.41545666              182.82241081               -1.00561060
              37.16212038                9.81569645               95.74013033                0.00010000               69.27710918              -10.22256144              -23.98359717               97.52303561              186.40594355               -9.72705256
              38.77353049                9.05807641               94.42899978                0.00010000               50.84083912              -10.62943214              -21.74803424               92.25411195              172.01765626              -23.06342687
              40.17893716                7.99111602               92.43285690                0.00010000               34.75895434               -5.34413739              -29.48242409               57.25831047              122.08241334              -46.34754371
              41.46870958                6.36044594               89.27561074                0.35643045               28.97724169               23.76619609              -91.13831871               31.94553403               79.94110670              -97.07032698
              25.14697765               14.50044838               99.46957822                1.00000000                0.00384910                0.02092048               -0.00108267                0.05413709                0.01027931                0.37718057
              26.14701614               13.92758747               99.05449660                0.87633783                0.01168912               -0.02438220                0.00657549                0.07039534                0.01721706               -0.01830612
              27.14721143               13.35498869               98.63949102                0.00010000               70.04437632               -0.03340530                0.00390084                8.63294377               17.44916355               -0.36088577
              29.54790367               12.95345625               98.57278631                0.00010000              150.93353467              -16.83940961              -48.49770237               23.40933272              113.65648099                2.68123013
              32.16588213               12.43277903               97.94096259                0.00010000              150.09402561              -24.18980778              -44.60520762               31.43902409              144.29200982                3.21953990
              34.54978418               11.86266323               97.24255584                0.00010000              126.80987705              -25.14058668              -38.05606970               45.43320101              172.45310982                1.88445587
              36.70207967               11.27534485               96.37941412                0.00010000              104.93466161              -23.18253357              -31.74230244               59.19589750              186.25378630               -1.56438421
              38.64847741               10.65251262               95.27317942                0.00010000               84.31114484              -20.18488909              -27.07201662               66.14405841              189.63302859               -7.31649308
              40.38830256                9.92283637               93.75907114                0.00010000               60.78998187              -15.11813436              -25.67848709               59.41884970              174.85136725              -16.56138992
              41.86427705                8.95992368               91.51015196                0.00010000               39.43637719               -2.40489924              -34.66383068               35.06884667              123.33106645              -32.42595261
              43.17703011                7.63396972               88.06198075                0.35645586               31.27530581               26.94453161              -96.89268275               19.00435851               80.33397943              -64.44061779
              25.72052746               15.50055297               99.32955830                1.00000000                0.00211931                0.00410285                0.00141534                0.04326676                0.01804806                0.36647395
              26.72054865               14.92728683               98.91194449                0.68341744                0.01037218               -0.03392270                0.00796500                0.08197167                0.04184309               -0.07400795
              27.72073490               14.35477657               98.49482605                0.00010000               74.88848508               -0.04076440               -0.00819257               -0.94548364               17.44807439               -0.39711813
              30.21831835               13.76068522               98.42471314                0.00010000              162.58025090              -22.48221149              -50.90548094                5.20875290              114.88883840               -0.46620935
              32.97233992               13.14540545               97.78392142                0.00010000              163.97621567              -33.35529232              -46.70540986               17.03023521              146.42675593               -0.11087165
              35.49784266               12.55699220               97.05386113                0.00010000              140.48584758              -34.79268494              -39.85691260               31.15389776              174.72414165               -0.38231584
              37.78205687               11.99203970               96.12270482                0.00010000              116.98336832              -31.52957908              -33.49858297               41.34662940              188.20136392               -2.22994796
              39.83751003               11.41199867               94.91063746                0.00010000               93.62197792              -26.18833386              -29.00885585               44.68377461              191.24634411               -5.94676421
              41.65449643               10.75571372               93.25614132                0.00010000               66.58353558              -17.53317165              -27.99557871               38.63684913              175.96175361              -12.17704614
              43.16918074                9.94301803               90.83857737                0.00010000               42.31041160               -1.55236536              -37.34119433               22.12851272              123.62397957              -22.61207276
              44.50070466                8.89933657               87.20512624                0.35663948               33.15239175               25.69423441              -99.33245704               11.98121104               79.99604265              -42.77938882
              26.29437525               16.50053044               99.18922134                1.00000000                0.00567205               -0.01118096                0.00497959                0.02300759                0.01963941                0.33666461
              27.29443197               15.92690901               98.76876987                0.47795293                0.02640588               -0.02659555               -0.00436234                0.07198720                0.07140690               -0.14391992
              28.29490337               15.35417340               98.34931696                0.00010000               78.35089344               -0.13732334               -0.04445596              -13.65443872               18.50225837               -0.48987587
              30.86144984               14.50381202               98.29509003                0.00010000              170.76382401              -31.47182938              -51.25538342              -15.61258798              117.17411421               -3.93022839
              33.71017985               13.76567318               97.67051796                0.00010000              173.23890200              -43.44648305              -46.62954080                6.45479003              149.49796216               -2.36691030
              36.32622788               13.16680953               96.93134384                0.00010000              148.19129667              -41.40753197              -40.00187953               21.55179649              177.07730255               -1.62120284
              38.67400578               12.64475327               95.95638568                0.00010000              122.61255036              -36.10980204              -33.89005838               28.36449508              189.40901617               -2.34525236
              40.77847889               12.12874594               94.67226509                0.00010000               97.80072019              -29.12030005              -29.70485437               28.96777483              191.76955958               -4.72346284
              42.63002019               11.57217294               92.92387269                0.00010000               69.23727815              -18.73297242              -28.94045483               24.35157213              176.07337933               -8.83147323
              44.16322445               10.92887637               90.39706868                0.00010000               43.69985307               -1.44932910              -38.49630674               14.08355026              123.44637386              -15.23075137
              45.50401725               10.14785441               86.64720450                0.35628252               34.07927968               24.87971191             -100.55184098                7.59411147               79.81555724              -27.51855672
              26.86823046               17.50032935               99.04820901                0.76487434                0.01149723               -0.02497295               -0.01253707                0.00979954                0.03085222                0.27352741
              27.86834543               16.92675492               98.62507403                0.22115487                0.12563281               -0.00630604               -0.00802034               -0.04181781                0.12935310               -0.18026775
              28.87074311               16.35203010               98.20363570                0.00010000               81.31106897               -0.79638062               -0.39727508              -31.47852111               22.24077307               -0.68119711
              31.49456681               15.13124864               98.20405822                0.00010000              178.38475495              -49.73564118              -48.78113530              -26.73251097              124.15699954               -6.39398140
              34.43843821               14.27647579               97.64692370                0.00010000              177.76158489              -49.95056253              -44.29795393                0.94057536              155.64616207               -2.92073315
              37.04979851               13.72884156               96.90982958                0.00010000              147.44860728              -44.06034901              -38.24176943               13.64125839              179.03994579               -1.24923005
              39.38741036               13.26984366               95.90613953                0.00010000              121.98236763              -37.45148386              -33.01513915               15.82973935              189.67919495               -1.41937041
              41.48944586               12.82959267               94.57636454                0.00010000               97.69935410              -29.89730848              -29.19323158               14.97893409              191.23905977               -2.80266444
              43.34139744               12.38105427               92.77108861                0.00010000               69.28622059              -19.03996830              -28.54802996               12.36682175              175.50646106               -5.14006115
              44.87517027               11.91403145               90.18209507                0.00010000               43.66166834               -1.62163379              -38.17438592                7.45745169              122.95941504               -8.26114938
              46.21463081               11.39693081               86.36242267                0.35651887               33.94605357               25.47306681             -100.83126988                3.80233948               79.58547720              -14.48778462
              27.44172010               18.50003098               98.90636108                0.82325383                0.01747688               -0.02983714                0.02213658                0.02415498                0.13041536                0.23185798
              28.44189486               17.92678289               98.48131518                0.49977840                0.95595704                0.00279675               -0.02941301               -0.73431620                0.39213879               -0.19275155
              29.46083924               17.33824579               98.06078012                0.35869195               98.02295350               -1.37843151               -3.95512240              -61.87457246               45.97829003               -6.74059908
              32.40235393               15.50909920               98.26206294                0.35922617              183.52795976              -62.21494367              -43.24129049              -37.80048045              143.05126841              -18.87275555
              35.13139843               14.76666193               97.76364592                0.35963202              160.16656218              -50.98138606              -39.12756480                8.12118916              158.45576723               -8.24060271
              37.60568518               14.28560255               97.01303592                0.35971174              137.92255155              -44.32390151              -36.01176729               12.04174994              177.44063546               -6.07528007
              39.88984946               13.89572359               95.98659386                0.35923057              118.05808935              -37.41200733              -31.69854519               12.50377143              188.67679610               -6.24345155
              41.96684696               13.53079977               94.64148496                0.35905226               95.15341919              -29.87929014              -27.55549089               12.52260930              191.63826953               -8.26521098
              43.79291785               13.19137357               92.82575584                0.35794346               66.48249920              -18.96807018              -25.73933272               13.43423663              176.13109547              -12.05498141
              45.29649695               12.89644369               90.22063870                0.35680928               41.06737369               -1.75877550              -34.94156876               15.42977650              123.34709279              -13.85614361
              46.61426532               12.65731575               86.38027045                0.67842866               31.77683713               26.03849382              -97.76857435               16.05065644               80.76420626              -17.89655274
              22.13139245                8.63497970              101.31050154                1.00000000                0.01800785                0.06737646               -0.00990016               -0.03257157               -0.05174044                0.06588172
              23.13157253                8.06879285              100.90745916                1.00000000                0.05025124                0.01998631               -0.01932934               -0.09111089               -0.07125738                0.01677693
              24.13239747                7.50287997              100.50404654                1.00000000                0.09098827               -0.02162198               -0.01289253               -0.11635421               -0.08723256                0.02908993
              25.13339229                6.93887076              100.10085658                1.00000000                0.13559567               -0.03079720               -0.01148972               -0.00897940               -0.07315641                0.02809135
              26.13510939                6.37710166               99.69790433                1.00000000                0.23724214               -0.02521572               -0.01888883                0.10495227                0.04170597                0.02636767
              27.13813713                5.81872258               99.29622766                1.00000000                0.33828677               -0.05922936               -0.00439566                0.29525775                0.35449724                0.04023767
              28.14187512                5.26410635               98.89683290                1.00000000                0.28018092                0.00857031                0.07545028                0.41656666                0.64304491               -0.00533820
              29.14374075                4.70825671               98.49698925                1.00000000                0.12631176                0.03230944                0.09955695                0.44489091                0.56210578               -0.05426158
              30.14440136                4.14475801               98.09391839                1.00000000                0.08226335               -0.03939806                0.03905271                0.31686247                0.26195846               -0.07394676
              31.14538602                3.57208686               97.68587585                1.00000000                0.10332956               -0.02890102               -0.04961049                0.16937758               -0.03821460               -0.00795930
              32.14646795                2.99358367               97.27313901                1.00000000                0.10819278               -0.13394040               -0.27535168                0.27025256               -0.23345945               -0.53077900
              22.69725358                9.63565346              101.16908221                1.00000000               -0.05422953                0.13580396               -0.00827421                0.00716451                0.03932591                0.11879525
              23.69671128                9.06899271              100.76628699                1.00000000               -0.05292999                0.05644514                0.00869420               -0.04572778                0.05545201                0.01766557
              24.69619498                8.50266375              100.36413289                1.00000000               -0.02598163               -0.01768582                0.02698028               -0.05222310                0.05221233               -0.00309144
              25.69619165                7.93856278               99.96205345                1.00000000                0.00190093                0.00567527                0.00722612               -0.02754759                0.06110365                0.05083292
              26.69623300                7.37684950               99.56002721                1.00000000                0.06978588               -0.00785104               -0.02534427                0.14206868                0.13635108                0.00422697
              27.69758737                6.81813028               99.15833496                1.00000000                0.25203636               -0.07956649               -0.10319122                0.76952175                0.36390092               -0.03999612
              28.70127372                6.26419205               98.75681939                1.00000000                0.51382309               -0.35303190               -0.30496792                7.09992071                0.83059825               -1.57098373
              29.70786383                5.70857980               98.35672505                1.00000000                0.71905887                1.33140627               -0.37415859               32.62612274                1.42535206               -6.01966068
              30.71565490                5.14436403               97.95811102                1.00000000                0.74015673                4.74916855               -0.30879761               71.53490319                1.85416742              -12.33404983
              31.72266696                4.57179785               97.55909690                1.00000000                0.60093806               11.27323699               -0.24356980              118.88399103                1.75076112              -16.34706176
              32.72767366                3.99224427               97.15131229                1.00000000                0.50066984              -44.95337225               -0.38738021              169.33023014                1.52839619              -63.67099906
              23.26485723               10.63769578              101.02851368                1.00000000               -0.12095468                0.22994979               -0.03852719                0.17477904                0.07600853                0.21175262
              24.26364769               10.06992175              100.62471304                1.00000000               -0.15371457                0.08395302                0.02179555                0.19650909                0.14037611                0.01527168
              25.26178294                9.50252625              100.22285580                1.00000000               -0.24960519               -0.09809396                0.09841996                0.46414234                0.29570458               -0.27169285
              26.25865558                8.93898426               99.82375173                1.00000000               -0.16998420               25.85931993                0.03947115              107.36681993                0.28989456              -14.47541214
              27.25838326                8.37694464               99.42201169                1.00000000                0.37647193               23.02682816               -0.07143487              157.28013856                0.24746886              -13.62034600
              28.26618502                7.81713125               99.01914341                1.00000000                6.75203810               21.76756510               -0.43032420              189.00506287               -0.43697046              -16.01598451
              29.39342402                7.25704571               98.58408701                1.00000000               32.49531028               20.25729691               -4.23879224              217.06516123                7.99081463              -19.61191123
              30.91609123                6.73488483               98.09546740                1.00000000               65.92286728               20.76826015              -13.33565123              243.43812040               55.21829620              -22.61604829
              32.71188137                6.23974138               97.57761375                1.00000000               87.95471871               24.90584923              -24.91139224              271.39300277              133.19789106              -28.96667126
              34.67518560                5.79755160               97.10651359                1.00000000               99.01491758               23.71977715              -31.05412953              239.80166504              184.14644318              -45.59183519
              36.69217972                4.09451623               95.76728963                1.00000000              101.69941160              -39.26206454             -113.68193240              193.84662250              229.24192681             -236.58290566
              23.83629720               11.64025246              100.88854892                1.00000000               -0.04862123                0.21701906               -0.04375498                0.33452591                0.06012232                0.28447098
              24.83581099               11.07067178              100.48223574                1.00000000                0.00590575                0.02846854                0.00443609                0.37366216                0.06053451               -0.00381494
              25.83641532               10.50070187              100.07587499                1.00000000              106.66493336               -0.18377353                0.05711671               26.72563388              -13.65890632               -0.40066725
              28.96910966               10.45574918               99.39499981                1.00000000              156.36367306               24.04439272              -54.65095626              151.66638549              140.64141982                1.43491063
              30.96368878                9.83738607               99.01280023                1.00000000               81.42389478               29.40454674              -36.66574128              206.27317455              187.94262685               -4.61565087
              32.59758755                9.25348159               98.56549357                1.00000000               58.05672929               29.17353336              -32.20038007              263.25452686              198.06562962               -8.07766060
              34.12482337                8.66933799               98.09754582                1.00000000               49.81715048               29.94714243              -28.72422690              303.38396387              207.00198108              -13.22361418
              35.59393056                8.12394500               97.56753705                1.00000000               47.80124086               30.57555929              -26.06336774              322.17970196              211.35010432              -18.77663557
              37.08084818                7.64248102               96.91463854                1.00000000               53.49974272               29.12908358              -22.25406176              319.96326368              211.99320509              -25.68593405
              38.66392542                7.04619340               95.93244885                1.00000000               46.49143393               12.25723707              -12.60405066              247.41236411              180.46316629              -57.08359807
              40.01067686                5.20700298               93.73141078                1.00000000               34.67514432                0.97798349              -26.15943300              163.39009677              117.15747954             -136.42067819
              24.41070912               12.64203616              100.74891168                1.00000000               -0.00375970                0.12768138               -0.02814534                0.34613579                0.03793233                0.30948071
              25.41067152               12.07049113              100.33950762                1.00000000                0.02545476               -0.02284043                0.00565206                0.36965401                0.03649452               -0.00712795
              26.41121821               11.49885078               99.92985230                1.00000000              127.23137862               -0.15172811                0.01877107               24.99361121              -16.14717942               -0.33614173
              29.95529909               11.41987212               99.19632165                1.00000000              208.74480657               -7.57181958              -65.05526613               65.37072210              136.50849146                2.14095533
              32.58611434               10.96503557               98.81255994                1.00000000              137.20122711                1.28488893              -44.93665637               88.67262711              197.78457998                4.80674804
              34.69932364               10.40060192               98.30591096                1.00000000              100.22627684                4.10629364              -37.52447657              125.79517200              210.51340402                1.96105742
              36.59063988                9.85598856               97.72602956                1.00000000               84.36093019                6.90240594              -31.55898160              162.87947653              219.00553442               -1.94873276
              38.38654224                9.34639602               97.00406799                1.00000000               79.91291818                8.29937028              -27.50946169              195.11479585              222.61270389               -7.92885924
              40.18889824                8.82232306               96.00600462                1.00000000               83.61843403                3.09264149              -24.29555423              211.15034785              218.30787333              -19.61664318
              42.05891092                8.04269635               94.42970874                1.00000000               72.47321214              -10.93355616              -19.80346561              165.74710511              169.52933383              -40.43522533
              43.63836249                6.11407590               91.32173020                1.00000000               57.94515675               -1.27793106              -61.32805950              122.67816782              125.36046743             -111.69402108
              24.98630999               13.64280609              100.60930728                1.00000000                0.00794651                0.05693296               -0.01078775                0.31267621                0.02381135                0.29800441
              25.98638945               13.07021497              100.19695830                1.00000000                0.02982840               -0.03281599                0.00335358                0.31896636                0.02318963               -0.00251768
              26.98690655               12.49766731               99.78435428                1.00000000              141.19749275               -0.09423842               -0.00238837               19.27554076              -20.01311695               -0.29550491
              30.81033931               12.30431279               98.97077248                1.00000000              238.47524841              -14.35315081              -75.16358860               48.39962505              138.53493668               -0.94545579
              33.75641152               11.86308385               98.59021847                1.00000000              170.60993523              -16.68071739              -52.05181590               58.31339341              203.32568440                1.51038875
              36.22253801               11.33560746               98.02999594                1.00000000              134.01036367              -15.21817506              -43.35006671               83.78474040              216.49979317                0.90037309
              38.43661880               10.80738611               97.33862725                1.00000000              115.36769873              -14.15364159              -35.89709752              112.76742747              224.86802778               -1.63894278
              40.52989198               10.28993241               96.43009553                1.00000000              108.54680080              -14.95494042              -31.00348071              136.12085944              227.27127719               -6.02598267
              42.60755481                9.70433385               95.14850959                1.00000000              107.86113457              -19.08502952              -28.04901906              141.17332108              220.49588057              -13.29872089
              44.68711468                8.82752227               93.17196450                1.00000000               85.69631495              -22.06121050              -26.08924002              103.73768949              172.72578025              -27.26078346
              46.32148111                7.18144436               89.58667017                1.00000000               63.43664341                7.65573959              -68.89405766               69.73415610              126.74771909              -66.88822984
              25.56214488               14.64317482              100.46952871                1.00000000                0.00447485                0.03810900               -0.00495076                0.26753551                0.02148152                0.28463969
              26.56218963               14.06983481              100.05457629                1.00000000                0.02431621               -0.04574445                0.00796932                0.28864758                0.01576019               -0.02156219
              27.56263120               13.49696601               99.63949694                1.00000000              149.78427127               -0.06436623                0.00059205               10.76061159              -23.00014808               -0.29334161
              31.55787505               13.13280910               98.76373379                1.00000000              257.92281694              -20.23925238              -80.90525258               28.41619487              137.77245390               -1.30297856
              34.72108754               12.63142123               98.37500324                1.00000000              193.64205629              -28.89154241              -56.59593464               38.33326156              205.94942127                0.12330471
              37.43071618               12.09623841               97.77231138                1.00000000              158.52879689              -30.84587933              -47.02444672               58.04343155              218.83600003                0.04669965
              39.89166348               11.57291573               96.98985924                1.00000000              139.06477552              -30.30325785              -38.95548748               79.25582325              227.09663420               -1.44930527
              42.21201169               11.04729721               95.93507643                1.00000000              129.15556595              -29.92814692              -33.81029915               93.69057608              229.23623199               -4.32594717
              44.47477480               10.44062246               94.44751532                1.00000000              122.22712532              -29.26826682              -31.15558113               92.59599438              222.47742985               -9.39544113
              46.65655420                9.60147214               92.21168056                1.00000000               92.52133200              -22.02335436              -29.84714051               64.07276800              173.95038672              -18.38561460
              48.32520144                8.26719069               88.34196876                1.00000000               66.86472432                7.87636092              -72.00119847               41.89957526              127.84595394              -42.13547320
              26.13834072               15.64356827              100.32954720                1.00000000                0.00304891                0.03679695               -0.00111000                0.22126977                0.02984362                0.28840470
              27.13837121               15.06930008               99.91203238                1.00000000                0.04018863               -0.04688685                0.00878828                0.29256777                0.03153573               -0.09190609
              28.13914449               14.49637998               99.49453280                1.00000000              155.29183892               -0.08469506               -0.02932485               -0.72675567              -24.46029890               -0.39876207
              32.24420799               13.89952774               98.58600721                1.00000000              271.02514725              -27.80903878              -83.87059283                5.77424550              137.63233215               -1.51573284
              35.55964744               13.28525300               98.19540017                1.00000000              209.88520768              -40.83752919              -58.85212463               20.64681919              207.61936926               -0.47818197
              38.44191214               12.71868987               97.56377956                1.00000000              175.55145144              -43.36568134              -49.00815726               39.94580088              220.36190856               -0.49813040
              41.07067647               12.20132095               96.71449939                1.00000000              154.70423138              -41.55235333              -40.82054346               55.51269224              228.37335179               -1.39256487
              43.53599677               11.69136947               95.55400740                1.00000000              141.73116526              -38.75269940              -35.66300617               63.50441452              230.37513283               -3.37596468
              45.90529977               11.11896851               93.92502857                1.00000000              130.30025205              -33.63703462              -33.11127554               60.27435604              223.43772896               -6.78198639
              48.14200181               10.38705519               91.52115529                1.00000000               96.13678663              -21.36921389              -31.74220775               40.60605359              174.90661642              -12.53475666
              49.82803550                9.33897158               87.47751876                1.00000000               68.60336944                6.18007734              -72.76074812               26.26558927              128.36943124              -27.30255952
              26.71510665               16.64391076              100.18926621                1.00000000                0.01226173                0.02647587                0.00448722                0.16778693                0.01768774                0.26498780
              27.71522927               16.06889707               99.76871169                1.00000000                0.13808870               -0.03095580               -0.00581894                0.25383531                0.03216291               -0.15462207
              28.71786843               15.49527211               99.34831487                1.00000000              158.46288390               -0.39645770               -0.10020844              -15.99988147              -23.35237407               -0.80356744
              32.88448695               14.57662832               98.45573409                1.00000000              279.84966853              -41.61903575              -83.93559328              -20.64866261              139.17519255               -1.35681338
              36.31486180               13.81467064               98.08574451                1.00000000              221.45386477              -54.29477005              -58.47734447                7.59268182              209.62916142               -0.57639277
              39.31356424               13.22892479               97.43895343                1.00000000              185.71879660              -52.14475248              -49.23904147               27.59690051              221.61868297               -0.22551521
              42.02923773               12.74186866               96.54344545                1.00000000              162.54440897              -47.88678150              -41.29402290               37.79258314              229.01630028               -1.01068400
              44.56445242               12.27224322               95.30881555                1.00000000              147.76692375              -43.37423315              -36.34495410               40.56649979              230.69338154               -2.50766739
              46.98457620               11.76788177               93.58536602                1.00000000              134.21098893              -36.39551294              -33.85066759               37.36873295              223.66037988               -4.81958267
              49.24867220               11.17408786               91.07291111                1.00000000               98.10521206              -22.14804395              -32.41575687               25.32111628              175.10885204               -8.40100370
              50.94668045               10.39079224               86.91664756                1.00000000               69.80082440                4.17306865              -73.05569363               16.75091548              128.63996438              -17.84155051
              27.29172383               17.64409778              100.04808632                1.00000000                0.03627276                0.00905888               -0.01226948                0.12794300                0.03708770                0.24632732
              28.29208656               17.06868096               99.62496382                1.00000000                0.98458871               -0.02245252               -0.01102102               -0.07817206               -0.21700136               -0.20090358
              29.31141561               16.48845083               99.19626403                1.00000000              160.98748202               -6.64494446               -0.73716709              -28.07925305              -16.51902436               -4.67000094
              33.51183620               15.06714703               98.41323834                1.00000000              287.38945004              -68.63505883              -79.08198782              -36.69460537              146.20760731               -1.27119062
              37.05920461               14.19935760               98.08587739                1.00000000              227.74079657              -62.25681445              -56.10463141                2.02873489              213.16665913                1.34532950
              40.06665213               13.67579482               97.43503874                1.00000000              186.20025435              -55.56865451              -47.47908477               18.05949749              222.39423916                0.79092997
              42.78320970               13.24358532               96.50005492                1.00000000              162.73307593              -49.63694724              -40.60846088               20.87244028              228.67097163               -0.26687127
              45.32131365               12.82388481               95.21685949                1.00000000              148.38100482              -44.98456192              -35.95050430               20.03029149              230.04499509               -1.33210252
              47.75082979               12.39105825               93.43721924                1.00000000              135.21000086              -39.19413378              -33.38693662               17.94684361              223.23587270               -2.48793995
              50.02551367               11.94409431               90.86271224                1.00000000               98.94076301              -24.21676066              -31.93828223               12.69226635              174.91398260               -4.41541506
              51.72964505               11.42243295               86.63481210                1.00000000               70.41313836                2.25456367              -72.76105764                8.72580712              128.71140985               -9.72540736
              27.86849916               18.64409193               99.90665589                1.00000000                0.08136291               -0.00058493                0.02948050                0.11314058                0.09647130                0.26305231
              28.86931279               18.06844802               99.48084154                1.00000000               14.46590716               -0.02329435               -0.04736389               -6.36331335               -3.48733185               -0.24571553
              30.15781730               17.36237322               98.98207341                1.00000000              178.51876428              -12.60776061               -7.87067144              -58.58587450               23.58140433              -19.00631901
              34.43968807               15.20392715               98.55851350                1.00000000              279.44856998              -86.32198812              -70.35494444              -46.85675648              167.97411810              -15.98969008
              37.74678870               14.56953435               98.26688749                1.00000000              209.54191983              -62.98232422              -49.67584312               14.43963652              211.65662734               -1.61174742
              40.63052647               14.11755170               97.56086551                1.00000000              177.59039257              -55.82431259              -45.21704152               15.36720147              218.67098984               -4.22240791
              43.29859655               13.74912972               96.59062471                1.00000000              159.35294277              -49.44556059              -39.59691499               14.28869964              227.51089472               -5.60240876
              45.81758532               13.37255198               95.29358922                1.00000000              146.23535121              -45.13328251              -34.78957348               11.37063612              231.32256316               -8.15180583
              48.22330357               12.98399910               93.51559926                1.00000000              132.67787529              -40.70591542              -31.01565839               13.10741134              224.58296624              -12.89944569
              50.47114283               12.68975264               90.92447709                1.00000000               97.06078642              -25.43416636              -29.61616048               17.15713667              175.24138165              -14.49262030
              52.16451930               12.43588351               86.67113513                1.00000000               69.33764744                1.34505613              -70.91353197               18.10051172              129.69120204              -18.51092053
         1          2         13         12        122        123        134        133  
         2          3         14         13        123        124        135        134  
         3          4         15         14        124        125        136        135  
         4          5         16         15        125        126        137        136  
         5          6         17         16        126        127        138        137  
         6          7         18         17        127        128        139        138  
         7          8         19         18        128        129        140        139  
         8          9         20         19        129        130        141        140  
         9         10         21         20        130        131        142        141  
        10         11         22         21        131        132        143        142  
        12         13         24         23        133        134        145        144  
        13         14         25         24        134        135        146        145  
        14         15         26         25        135        136        147        146  
        15         16         27         26        136        137        148        147  
        16         17         28         27        137        138        149        148  
        17         18         29         28        138        139        150        149  
        18         19         30         29        139        140        151        150  
        19         20         31         30        140        141        152        151  
        20         21         32         31        141        142        153        152  
        21         22         33         32        142        143        154        153  
        23         24         35         34        144        145        156        155  
        24         25         36         35        145        146        157        156  
        25         26         37         36        146        147        158        157  
        26         27         38         37        147        148        159        158  
        27         28         39         38        148        149        160        159  
        28         29         40         39        149        150        161        160  
        29         30         41         40        150        151        162        161  
        30         31         42         41        151        152        163        162  
        31         32         43         42        152        153        164        163  
        32         33         44         43        153        154        165        164  
        34         35         46         45        155        156        167        166  
        35         36         47         46        156        157        168        167  
        36         37         48         47        157        158        169        168  
        37         38         49         48        158        159        170        169  
        38         39         50         49        159        160        171        170  
        39         40         51         50        160        161        172        171  
        40         41         52         51        161        162        173        172  
        41         42         53         52        162        163        174        173  
        42         43         54         53        163        164        175        174  
        43         44         55         54        164        165        176        175  
        45         46         57         56        166        167        178        177  
        46         47         58         57        167        168        179        178  
        47         48         59         58        168        169        180        179  
        48         49         60         59        169        170        181        180  
        49         50         61         60        170        171        182        181  
        50         51         62         61        171        172        183        182  
        51         52         63         62        172        173        184        183  
        52         53         64         63        173        174        185        184  
        53         54         65         64        174        175        186        185  
        54         55         66         65        175        176        187        186  
        56         57         68         67        177        178        189        188  
        57         58         69         68        178        179        190        189  
        58         59         70         69        179        180        191        190  
        59         60         71         70        180        181        192        191  
        60         61         72         71        181        182        193        192  
        61         62         73         72        182        183        194        193  
        62         63         74         73        183        184        195        194  
        63         64         75         74        184        185        196        195  
        64         65         76         75        185        186        197        196  
        65         66         77         76        186        187        198        197  
        67         68         79         78        188        189        200        199  
        68         69         80         79        189        190        201        200  
        69         70         81         80        190        191        202        201  
        70         71         82         81        191        192        203        202  
        71         72         83         82        192        193        204        203  
        72         73         84         83        193        194        205        204  
        73         74         85         84        194        195        206        205  
        74         75         86         85        195        196        207        206  
        75         76         87         86        196        197        208        207  
        76         77         88         87        197        198        209        208  
        78         79         90         89        199        200        211        210  
        79         80         91         90        200        201        212        211  
        80         81         92         91        201        202        213        212  
        81         82         93         92        202        203        214        213  
        82         83         94         93        203        204        215        214  
        83         84         95         94        204        205        216        215  
        84         85         96         95        205        206        217        216  
        85         86         97         96        206        207        218        217  
        86         87         98         97        207        208        219        218  
        87         88         99         98        208        209        220        219  
        89         90        101        100        210        211        222        221  
        90         91        102        101        211        212        223        222  
        91         92        103        102        212        213        224        223  
        92         93        104        103        213        214        225        224  
        93         94        105        104        214        215        226        225  
        94         95        106        105        215        216        227        226  
        95         96        107        106        216        217        228        227  
        96         97        108        107        217        218        229        228  
        97         98        109        108        218        219        230        229  
        98         99        110        109        219        220        231        230  
       100        101        112        111        221        222        233        232  
       101        102        113        112        222        223        234        233  
       102        103        114        113        223        224        235        234  
       103        104        115        114        224        225        236        235  
       104        105        116        115        225        226        237        236  
       105        106        117        116        226        227        238        237  
       106        107        118        117        227        228        239        238  
       107        108        119        118        228        229        240        239  
       108        109        120        119        229        230        241        240  
       109        110        121        120        230        231        242        241  
       122        123        134        133        243        244        255        254  
       123        124        135        134        244        245        256        255  
       124        125        136        135        245        246        257        256  
       125        126        137        136        246        247        258        257  
       126        127        138        137        247        248        259        258  
       127        128        139        138        248        249        260        259  
       128        129        140        139        249        250        261        260  
       129        130        141        140        250        251        262        261  
       130        131        142        141        251        252        263        262  
       131        132        143        142        252        253        264        263  
       133        134        145        144        254        255        266        265  
       134        135        146        145        255        256        267        266  
       135        136        147        146        256        257        268        267  
       136        137        148        147        257        258        269        268  
       137        138        149        148        258        259        270        269  
       138        139        150        149        259        260        271        270  
       139        140        151        150        260        261        272        271  
       140        141        152        151        261        262        273        272  
       141        142        153        152        262        263        274        273  
       142        143        154        153        263        264        275        274  
       144        145        156        155        265        266        277        276  
       145        146        157        156        266        267        278        277  
       146        147        158        157        267        268        279        278  
       147        148        159        158        268        269        280        279  
       148        149        160        159        269        270        281        280  
       149        150        161        160        270        271        282        281  
       150        151        162        161        271        272        283        282  
       151        152        163        162        272        273        284        283  
       152        153        164        163        273        274        285        284  
       153        154        165        164        274        275        286        285  
       155        156        167        166        276        277        288        287  
       156        157        168        167        277        278        289        288  
       157        158        169        168        278        279        290        289  
       158        159        170        169        279        280        291        290  
       159        160        171        170        280        281        292        291  
       160        161        172        171        281        282        293        292  
       161        162        173        172        282        283        294        293  
       162        163        174        173        283        284        295        294  
       163        164        175        174        284        285        296        295  
       164        165        176        175        285        286        297        296  
       166        167        178        177        287        288        299        298  
       167        168        179        178        288        289        300        299  
       168        169        180        179        289        290        301        300  
       169        170        181        180        290        291        302        301  
       170        171        182        181        291        292        303        302  
       171        172        183        182        292        293        304        303  
       172        173        184        183        293        294        305        304  
       173        174        185        184        294        295        306        305  
       174        175        186        185        295        296        307        306  
       175        176        187        186        296        297        308        307  
       177        178        189        188        298        299        310        309  
       178        179        190        189        299        300        311        310  
       179        180        191        190        300        301        312        311  
       180        181        192        191        301        302        313        312  
       181        182        193        192        302        303        314        313  
       182        183        194        193        303        304        315        314  
       183        184        195        194        304        305        316        315  
       184        185        196        195        305        306        317        316  
       185        186        197        196        306        307        318        317  
       186        187        198        197        307        308        319        318  
       188        189        200        199        309        310        321        320  
       189        190        201        200        310        311        322        321  
       190        191        202        201        311        312        323        322  
       191        192        203        202        312        313        324        323  
       192        193        204        203        313        314        325        324  
       193        194        205        204        314        315        326        325  
       194        195        206        205        315        316        327        326  
       195        196        207        206        316        317        328        327  
       196        197        208        207        317        318        329        328  
       197        198        209        208        318        319        330        329  
       199        200        211        210        320        321        332        331  
       200        201        212        211        321        322        333        332  
       201        202        213        212        322        323        334        333  
       202        203        214        213        323        324        335        334  
       203        204        215        214        324        325        336        335  
       204        205        216        215        325        326        337        336  
       205        206        217        216        326        327        338        337  
       206        207        218        217        327        328        339        338  
       207        208        219        218        328        329        340        339  
       208        209        220        219        329        330        341        340  
       210        211        222        221        331        332        343        342  
       211        212        223        222        332        333        344        343  
       212        213        224        223        333        334        345        344  
       213        214        225        224        334        335        346        345  
       214        215        226        225        335        336        347        346  
       215        216        227        226        336        337        348        347  
       216        217        228        227        337        338        349        348  
       217        218        229        228        338        339        350        349  
       218        219        230        229        339        340        351        350  
       219        220        231        230        340        341        352        351  
       221        222        233        232        342        343        354        353  
       222        223        234        233        343        344        355        354  
       223        224        235        234        344        345        356        355  
       224        225        236        235        345        346        357        356  
       225        226        237        236        346        347        358        357  
       226        227        238        237        347        348        359        358  
       227        228        239        238        348        349        360        359  
       228        229        240        239        349        350        361        360  
       229        230        241        240        350        351        362        361  
       230        231        242        241        351        352        363        362  
       243        244        255        254        364        365        376        375  
       244        245        256        255        365        366        377        376  
       245        246        257        256        366        367        378        377  
       246        247        258        257        367        368        379        378  
       247        248        259        258        368        369        380        379  
       248        249        260        259        369        370        381        380  
       249        250        261        260        370        371        382        381  
       250        251        262        261        371        372        383        382  
       251        252        263        262        372        373        384        383  
       252        253        264        263        373        374        385        384  
       254        255        266        265        375        376        387        386  
       255        256        267        266        376        377        388        387  
       256        257        268        267        377        378        389        388  
       257        258        269        268        378        379        390        389  
       258        259        270        269        379        380        391        390  
       259        260        271        270        380        381        392        391  
       260        261        272        271        381        382        393        392  
       261        262        273        272        382        383        394        393  
       262        263        274        273        383        384        395        394  
       263        264        275        274        384        385        396        395  
       265        266        277        276        386        387        398        397  
       266        267        278        277        387        388        399        398  
       267        268        279        278        388        389        400        399  
       268        269        280        279        389        390        401        400  
       269        270        281        280        390        391        402        401  
       270        271        282        281        391        392        403        402  
       271        272        283        282        392        393        404        403  
       272        273        284        283        393        394        405        404  
       273        274        285        284        394        395        406        405  
       274        275        286        285        395        396        407        406  
       276        277        288        287        397        398        409        408  
       277        278        289        288        398        399        410        409  
       278        279        290        289        399        400        411        410  
       279        280        291        290        400        401        412        411  
       280        281        292        291        401        402        413        412  
       281        282        293        292        402        403        414        413  
       282        283        294        293        403        404        415        414  
       283        284        295        294        404        405        416        415  
       284        285        296        295        405        406        417        416  
       285        286        297        296        406        407        418        417  
       287        288        299        298        408        409        420        419  
       288        289        300        299        409        410        421        420  
       289        290        301        300        410        411        422        421  
       290        291        302        301        411        412        423        422  
       291        292        303        302        412        413        424        423  
       292        293        304        303        413        414        425        424  
       293        294        305        304        414        415        426        425  
       294        295        306        305        415        416        427        426  
       295        296        307        306        416        417        428        427  
       296        297        308        307        417        418        429        428  
       298        299        310        309        419        420        431        430  
       299        300        311        310        420        421        432        431  
       300        301        312        311        421        422        433        432  
       301        302        313        312        422        423        434        433  
       302        303        314        313        423        424        435        434  
       303        304        315        314        424        425        436        435  
       304        305        316        315        425        426        437        436  
       305        306        317        316        426        427        438        437  
       306        307        318        317        427        428        439        438  
       307        308        319        318        428        429        440        439  
       309        310        321        320        430        431        442        441  
       310        311        322        321        431        432        443        442  
       311        312        323        322        432        433        444        443  
       312        313        324        323        433        434        445        444  
       313        314        325        324        434        435        446        445  
       314        315        326        325        435        436        447        446  
       315        316        327        326        436        437        448        447  
       316        317        328        327        437        438        449        448  
       317        318        329        328        438        439        450        449  
       318        319        330        329        439        440        451        450  
       320        321        332        331        441        442        453        452  
       321        322        333        332        442        443        454        453  
       322        323        334        333        443        444        455        454  
       323        324        335        334        444        445        456        455  
       324        325        336        335        445        446        457        456  
       325        326        337        336        446        447        458        457  
       326        327        338        337        447        448        459        458  
       327        328        339        338        448        449        460        459  
       328        329        340        339        449        450        461        460  
       329        330        341        340        450        451        462        461  
       331        332        343        342        452        453        464        463  
       332        333        344        343        453        454        465        464  
       333        334        345        344        454        455        466        465  
       334        335        346        345        455        456        467        466  
       335        336        347        346        456        457        468        467  
       336        337        348        347        457        458        469        468  
       337        338        349        348        458        459        470        469  
       338        339        350        349        459        460        471        470  
       339        340        351        350        460        461        472        471  
       340        341        352        351        461        462        473        472  
       342        343        354        353        463        464        475        474  
       343        344        355        354        464        465        476        475  
       344        345        356        355        465        466        477        476  
       345        346        357        356        466        467        478        477  
       346        347        358        357        467        468        479        478  
       347        348        359        358        468        469        480        479  
       348        349        360        359        469        470        481        480  
       349        350        361        360        470        471        482        481  
       350        351        362        361        471        472        483        482  
       351        352        363        362        472        473        484        483  
       364        365        376        375        485        486        497        496  
       365        366        377        376        486        487        498        497  
       366        367        378        377        487        488        499        498  
       367        368        379        378        488        489        500        499  
       368        369        380        379        489        490        501        500  
       369        370        381        380        490        491        502        501  
       370        371        382        381        491        492        503        502  
       371        372        383        382        492        493        504        503  
       372        373        384        383        493        494        505        504  
       373        374        385        384        494        495        506        505  
       375        376        387        386        496        497        508        507  
       376        377        388        387        497        498        509        508  
       377        378        389        388        498        499        510        509  
       378        379        390        389        499        500        511        510  
       379        380        391        390        500        501        512        511  
       380        381        392        391        501        502        513        512  
       381        382        393        392        502        503        514        513  
       382        383        394        393        503        504        515        514  
       383        384        395        394        504        505        516        515  
       384        385        396        395        505        506        517        516  
       386        387        398        397        507        508        519        518  
       387        388        399        398        508        509        520        519  
       388        389        400        399        509        510        521        520  
       389        390        401        400        510        511        522        521  
       390        391        402        401        511        512        523        522  
       391        392        403        402        512        513        524        523  
       392        393        404        403        513        514        525        524  
       393        394        405        404        514        515        526        525  
       394        395        406        405        515        516        527        526  
       395        396        407        406        516        517        528        527  
       397        398        409        408        518        519        530        529  
       398        399        410        409        519        520        531        530  
       399        400        411        410        520        521        532        531  
       400        401        412        411        521        522        533        532  
       401        402        413        412        522        523        534        533  
       402        403        414        413        523        524        535        534  
       403        404        415        414        524        525        536        535  
       404        405        416        415        525        526        537        536  
       405        406        417        416        526        527        538        537  
       406        407        418        417        527        528        539        538  
       408        409        420        419        529        530        541        540  
       409        410        421        420        530        531        542        541  
       410        411        422        421        531        532        543        542  
       411        412        423        422        532        533        544        543  
       412        413        424        423        533        534        545        544  
       413        414        425        424        534        535        546        545  
       414        415        426        425        535        536        547        546  
       415        416        427        426        536        537        548        547  
       416        417        428        427        537        538        549        548  
       417        418        429        428        538        539        550        549  
       419        420        431        430        540        541        552        551  
       420        421        432        431        541        542        553        552  
       421        422        433        432        542        543        554        553  
       422        423        434        433        543        544        555        554  
       423        424        435        434        544        545        556        555  
       424        425        436        435        545        546        557        556  
       425        426        437        436        546        547        558        557  
       426        427        438        437        547        548        559        558  
       427        428        439        438        548        549        560        559  
       428        429        440        439        549        550        561        560  
       430        431        442        441        551        552        563        562  
       431        432        443        442        552        553        564        563  
       432        433        444        443        553        554        565        564  
       433        434        445        444        554        555        566        565  
       434        435        446        445        555        556        567        566  
       435        436        447        446        556        557        568        567  
       436        437        448        447        557        558        569        568  
       437        438        449        448        558        559        570        569  
       438        439        450        449        559        560        571        570  
       439        440        451        450        560        561        572        571  
       441        442        453        452        562        563        574        573  
       442        443        454        453        563        564        575        574  
       443        444        455        454        564        565        576        575  
       444        445        456        455        565        566        577        576  
       445        446        457        456        566        567        578        577  
       446        447        458        457        567        568        579        578  
       447        448        459        458        568        569        580        579  
       448        449        460        459        569        570        581        580  
       449        450        461        460        570        571        582        581  
       450        451        462        461        571        572        583        582  
       452        453        464        463        573        574        585        584  
       453        454        465        464        574        575        586        585  
       454        455        466        465        575        576        587        586  
       455        456        467        466        576        577        588        587  
       456        457        468        467        577        578        589        588  
       457        458        469        468        578        579        590        589  
       458        459        470        469        579        580        591        590  
       459        460        471        470        580        581        592        591  
       460        461        472        471        581        582        593        592  
       461        462        473        472        582        583        594        593  
       463        464        475        474        584        585        596        595  
       464        465        476        475        585        586        597        596  
       465        466        477        476        586        587        598        597  
       466        467        478        477        587        588        599        598  
       467        468        479        478        588        589        600        599  
       468        469        480        479        589        590        601        600  
       469        470        481        480        590        591        602        601  
       470        471        482        481        591        592        603        602  
       471        472        483        482        592        593        604        603  
       472        473        484        483        593        594        605        604  
       485        486        497        496        606        607        618        617  
       486        487        498        497        607        608        619        618  
       487        488        499        498        608        609        620        619  
       488        489        500        499        609        610        621        620  
       489        490        501        500        610        611        622        621  
       490        491        502        501        611        612        623        622  
       491        492        503        502        612        613        624        623  
       492        493        504        503        613        614        625        624  
       493        494        505        504        614        615        626        625  
       494        495        506        505        615        616        627        626  
       496        497        508        507        617        618        629        628  
       497        498        509        508        618        619        630        629  
       498        499        510        509        619        620        631        630  
       499        500        511        510        620        621        632        631  
       500        501        512        511        621        622        633        632  
       501        502        513        512        622        623        634        633  
       502        503        514        513        623        624        635        634  
       503        504        515        514        624        625        636        635  
       504        505        516        515        625        626        637        636  
       505        506        517        516        626        627        638        637  
       507        508        519        518        628        629        640        639  
       508        509        520        519        629        630        641        640  
       509        510        521        520        630        631        642        641  
       510        511        522        521        631        632        643        642  
       511        512        523        522        632        633        644        643  
       512        513        524        523        633        634        645        644  
       513        514        525        524        634        635        646        645  
       514        515        526        525        635        636        647        646  
       515        516        527        526        636        637        648        647  
       516        517        528        527        637        638        649        648  
       518        519        530        529        639        640        651        650  
       519        520        531        530        640        641        652        651  
       520        521        532        531        641        642        653        652  
       521        522        533        532        642        643        654        653  
       522        523        534        533        643        644        655        654  
       523        524        535        534        644        645        656        655  
       524        525        536        535        645        646        657        656  
       525        526        537        536        646        647        658        657  
       526        527        538        537        647        648        659        658  
       527        528        539        538        648        649        660        659  
       529        530        541        540        650        651        662        661  
       530        531        542        541        651        652        663        662  
       531        532        543        542        652        653        664        663  
       532        533        544        543        653        654        665        664  
       533        534        545        544        654        655        666        665  
       534        535        546        545        655        656        667        666  
       535        536        547        546        656        657        668        667  
       536        537        548        547        657        658        669        668  
       537        538        549        548        658        659        670        669  
       538        539        550        549        659        660        671        670  
       540        541        552        551        661        662        673        672  
       541        542        553        552        662        663        674        673  
       542        543        554        553        663        664        675        674  
       543        544        555        554        664        665        676        675  
       544        545        556        555        665        666        677        676  
       545        546        557        556        666        667        678        677  
       546        547        558        557        667        668        679        678  
       547        548        559        558        668        669        680        679  
       548        549        560        559        669        670        681        680  
       549        550        561        560        670        671        682        681  
       551        552        563        562        672        673        684        683  
       552        553        564        563        673        674        685        684  
       553        554        565        564        674        675        686        685  
       554        555        566        565        675        676        687        686  
       555        556        567        566        676        677        688        687  
       556        557        568        567        677        678        689        688  
       557        558        569        568        678        679        690        689  
       558        559        570        569        679        680        691        690  
       559        560        571        570        680        681        692        691  
       560        561        572        571        681        682        693        692  
       562        563        574        573        683        684        695        694  
       563        564        575        574        684        685        696        695  
       564        565        576        575        685        686        697        696  
       565        566        577        576        686        687        698        697  
       566        567        578        577        687        688        699        698  
       567        568        579        578        688        689        700        699  
       568        569        580        579        689        690        701        700  
       569        570        581        580        690        691        702        701  
       570        571        582        581        691        692        703        702  
       571        572        583        582        692        693        704        703  
       573        574        585        584        694        695        706        705  
       574        575        586        585        695        696        707        706  
       575        576        587        586        696        697        708        707  
       576        577        588        587        697        698        709        708  
       577        578        589        588        698        699        710        709  
       578        579        590        589        699        700        711        710  
       579        580        591        590        700        701        712        711  
       580        581        592        591        701        702        713        712  
       581        582        593        592        702        703        714        713  
       582        583        594        593        703        704        715        714  
       584        585        596        595        705        706        717        716  
       585        586        597        596        706        707        718        717  
       586        587        598        597        707        708        719        718  
       587        588        599        598        708        709        720        719  
       588        589        600        599        709        710        721        720  
       589        590        601        600        710        711        722        721  
       590        591        602        601        711        712        723        722  
       591        592        603        602        712        713        724        723  
       592        593        604        603        713        714        725        724  
       593        594        605        604        714        715        726        725  
       606        607        618        617        727        728        739        738  
       607        608        619        618        728        729        740        739  
       608        609        620        619        729        730        741        740  
       609        610        621        620        730        731        742        741  
       610        611        622        621        731        732        743        742  
       611        612        623        622        732        733        744        743  
       612        613        624        623        733        734        745        744  
       613        614        625        624        734        735        746        745  
       614        615        626        625        735        736        747        746  
       615        616        627        626        736        737        748        747  
       617        618        629        628        738        739        750        749  
       618        619        630        629        739        740        751        750  
       619        620        631        630        740        741        752        751  
       620        621        632        631        741        742        753        752  
       621        622        633        632        742        743        754        753  
       622        623        634        633        743        744        755        754  
       623        624        635        634        744        745        756        755  
       624        625        636        635        745        746        757        756  
       625        626        637        636        746        747        758        757  
       626        627        638        637        747        748        759        758  
       628        629        640        639        749        750        761        760  
       629        630        641        640        750        751        762        761  
       630        631        642        641        751        752        763        762  
       631        632        643        642        752        753        764        763  
       632        633        644        643        753        754        765        764  
       633        634        645        644        754        755        766        765  
       634        635        646        645        755        756        767        766  
       635        636        647        646        756        757        768        767  
       636        637        648        647        757        758        769        768  
       637        638        649        648        758        759        770        769  
       639        640        651        650        760        761        772        771  
       640        641        652        651        761        762        773        772  
       641        642        653        652        762        763        774        773  
       642        643        654        653        763        764        775        774  
       643        644        655        654        764        765        776        775  
       644        645        656        655        765        766        777        776  
       645        646        657        656        766        767        778        777  
       646        647        658        657        767        768        779        778  
       647        648        659        658        768        769        780        779  
       648        649        660        659        769        770        781        780  
       650        651        662        661        771        772        783        782  
       651        652        663        662        772        773        784        783  
       652        653        664        663        773        774        785        784  
       653        654        665        664        774        775        786        785  
       654        655        666        665        775        776        787        786  
       655        656        667        666        776        777        788        787  
       656        657        668        667        777        778        789        788  
       657        658        669        668        778        779        790        789  
       658        659        670        669        779        780        791        790  
       659        660        671        670        780        781        792        791  
       661        662        673        672        782        783        794        793  
       662        663        674        673        783        784        795        794  
       663        664        675        674        784        785        796        795  
       664        665        676        675        785        786        797        796  
       665        666        677        676        786        787        798        797  
       666        667        678        677        787        788        799        798  
       667        668        679        678        788        789        800        799  
       668        669        680        679        789        790        801        800  
       669        670        681        680        790        791        802        801  
       670        671        682        681        791        792        803        802  
       672        673        684        683        793        794        805        804  
       673        674        685        684        794        795        806        805  
       674        675        686        685        795        796        807        806  
       675        676        687        686        796        797        808        807  
       676        677        688        687        797        798        809        808  
       677        678        689        688        798        799        810        809  
       678        679        690        689        799        800        811        810  
       679        680        691        690        800        801        812        811  
       680        681        692        691        801        802        813        812  
       681        682        693        692        802        803        814        813  
       683        684        695        694        804        805        816        815  
       684        685        696        695        805        806        817        816  
       685        686        697        696        806        807        818        817  
       686        687        698        697        807        808        819        818  
       687        688        699        698        808        809        820        819  
       688        689        700        699        809        810        821        820  
       689        690        701        700        810        811        822        821  
       690        691        702        701        811        812        823        822  
       691        692        703        702        812        813        824        823  
       692        693        704        703        813        814        825        824  
       694        695        706        705        815        816        827        826  
       695        696        707        706        816        817        828        827  
       696        697        708        707        817        818        829        828  
       697        698        709        708        818        819        830        829  
       698        699        710        709        819        820        831        830  
       699        700        711        710        820        821        832        831  
       700        701        712        711        821        822        833        832  
       701        702        713        712        822        823        834        833  
       702        703        714        713        823        824        835        834  
       703        704        715        714        824        825        836        835  
       705        706        717        716        826        827        838        837  
       706        707        718        717        827        828        839        838  
       707        708        719        718        828        829        840        839  
       708        709        720        719        829        830        841        840  
       709        710        721        720        830        831        842        841  
       710        711        722        721        831        832        843        842  
       711        712        723        722        832        833        844        843  
       712        713        724        723        833        834        845        844  
       713        714        725        724        834        835        846        845  
       714        715        726        725        835        836        847        846  
       727        728        739        738        848        849        860        859  
       728        729        740        739        849        850        861        860  
       729        730        741        740        850        851        862        861  
       730        731        742        741        851        852        863        862  
       731        732        743        742        852        853        864        863  
       732        733        744        743        853        854        865        864  
       733        734        745        744        854        855        866        865  
       734        735        746        745        855        856        867        866  
       735        736        747        746        856        857        868        867  
       736        737        748        747        857        858        869        868  
       738        739        750        749        859        860        871        870  
       739        740        751        750        860        861        872        871  
       740        741        752        751        861        862        873        872  
       741        742        753        752        862        863        874        873  
       742        743        754        753        863        864        875        874  
       743        744        755        754        864        865        876        875  
       744        745        756        755        865        866        877        876  
       745        746        757        756        866        867        878        877  
       746        747        758        757        867        868        879        878  
       747        748        759        758        868        869        880        879  
       749        750        761        760        870        871        882        881  
       750        751        762        761        871        872        883        882  
       751        752        763        762        872        873        884        883  
       752        753        764        763        873        874        885        884  
       753        754        765        764        874        875        886        885  
       754        755        766        765        875        876        887        886  
       755        756        767        766        876        877        888        887  
       756        757        768        767        877        878        889        888  
       757        758        769        768        878        879        890        889  
       758        759        770        769        879        880        891        890  
       760        761        772        771        881        882        893        892  
       761        762        773        772        882        883        894        893  
       762        763        774        773        883        884        895        894  
       763        764        775        774        884        885        896        895  
       764        765        776        775        885        886        897        896  
       765        766        777        776        886        887        898        897  
       766        767        778        777        887        888        899        898  
       767        768        779        778        888        889        900        899  
       768        769        780        779        889        890        901        900  
       769        770        781        780        890        891        902        901  
       771        772        783        782        892        893        904        903  
       772        773        784        783        893        894        905        904  
       773        774        785        784        894        895        906        905  
       774        775        786        785        895        896        907        906  
       775        776        787        786        896        897        908        907  
       776        777        788        787        897        898        909        908  
       777        778        789        788        898        899        910        909  
       778        779        790        789        899        900        911        910  
       779        780        791        790        900        901        912        911  
       780        781        792        791        901        902        913        912  
       782        783        794        793        903        904        915        914  
       783        784        795        794        904        905        916        915  
       784        785        796        795        905        906        917        916  
       785        786        797        796        906        907        918        917  
       786        787        798        797        907        908        919        918  
       787        788        799        798        908        909        920        919  
       788        789        800        799        909        910        921        920  
       789        790        801        800        910        911        922        921  
       790        791        802        801        911        912        923        922  
       791        792        803        802        912        913        924        923  
       793        794        805        804        914        915        926        925  
       794        795        806        805        915        916        927        926  
       795        796        807        806        916        917        928        927  
       796        797        808        807        917        918        929        928  
       797        798        809        808        918        919        930        929  
       798        799        810        809        919        920        931        930  
       799        800        811        810        920        921        932        931  
       800        801        812        811        921        922        933        932  
       801        802        813        812        922        923        934        933  
       802        803        814        813        923        924        935        934  
       804        805        816        815        925        926        937        936  
       805        806        817        816        926        927        938        937  
       806        807        818        817        927        928        939        938  
       807        808        819        818        928        929        940        939  
       808        809        820        819        929        930        941        940  
       809        810        821        820        930        931        942        941  
       810        811        822        821        931        932        943        942  
       811        812        823        822        932        933        944        943  
       812        813        824        823        933        934        945        944  
       813        814        825        824        934        935        946        945  
       815        816        827        826        936        937        948        947  
       816        817        828        827        937        938        949        948  
       817        818        829        828        938        939        950        949  
       818        819        830        829        939        940        951        950  
       819        820        831        830        940        941        952        951  
       820        821        832        831        941        942        953        952  
       821        822        833        832        942        943        954        953  
       822        823        834        833        943        944        955        954  
       823        824        835        834        944        945        956        955  
       824        825        836        835        945        946        957        956  
       826        827        838        837        947        948        959        958  
       827        828        839        838        948        949        960        959  
       828        829        840        839        949        950        961        960  
       829        830        841        840        950        951        962        961  
       830        831        842        841        951        952        963        962  
       831        832        843        842        952        953        964        963  
       832        833        844        843        953        954        965        964  
       833        834        845        844        954        955        966        965  
       834        835        846        845        955        956        967        966  
       835        836        847        846        956        957        968        967  
       848        849        860        859        969        970        981        980  
       849        850        861        860        970        971        982        981  
       850        851        862        861        971        972        983        982  
       851        852        863        862        972        973        984        983  
       852        853        864        863        973        974        985        984  
       853        854        865        864        974        975        986        985  
       854        855        866        865        975        976        987        986  
       855        856        867        866        976        977        988        987  
       856        857        868        867        977        978        989        988  
       857        858        869        868        978        979        990        989  
       859        860        871        870        980        981        992        991  
       860        861        872        871        981        982        993        992  
       861        862        873        872        982        983        994        993  
       862        863        874        873        983        984        995        994  
       863        864        875        874        984        985        996        995  
       864        865        876        875        985        986        997        996  
       865        866        877        876        986        987        998        997  
       866        867        878        877        987        988        999        998  
       867        868        879        878        988        989       1000        999  
       868        869        880        879        989        990       1001       1000  
       870        871        882        881        991        992       1003       1002  
       871        872        883        882        992        993       1004       1003  
       872        873        884        883        993        994       1005       1004  
       873        874        885        884        994        995       1006       1005  
       874        875        886        885        995        996       1007       1006  
       875        876        887        886        996        997       1008       1007  
       876        877        888        887        997        998       1009       1008  
       877        878        889        888        998        999       1010       1009  
       878        879        890        889        999       1000       1011       1010  
       879        880        891        890       1000       1001       1012       1011  
       881        882        893        892       1002       1003       1014       1013  
       882        883        894        893       1003       1004       1015       1014  
       883        884        895        894       1004       1005       1016       1015  
       884        885        896        895       1005       1006       1017       1016  
       885        886        897        896       1006       1007       1018       1017  
       886        887        898        897       1007       1008       1019       1018  
       887        888        899        898       1008       1009       1020       1019  
       888        889        900        899       1009       1010       1021       1020  
       889        890        901        900       1010       1011       1022       1021  
       890        891        902        901       1011       1012       1023       1022  
       892        893        904        903       1013       1014       1025       1024  
       893        894        905        904       1014       1015       1026       1025  
       894        895        906        905       1015       1016       1027       1026  
       895        896        907        906       1016       1017       1028       1027  
       896        897        908        907       1017       1018       1029       1028  
       897        898        909        908       1018       1019       1030       1029  
       898        899        910        909       1019       1020       1031       1030  
       899        900        911        910       1020       1021       1032       1031  
       900        901        912        911       1021       1022       1033       1032  
       901        902        913        912       1022       1023       1034       1033  
       903        904        915        914       1024       1025       1036       1035  
       904        905        916        915       1025       1026       1037       1036  
       905        906        917        916       1026       1027       1038       1037  
       906        907        918        917       1027       1028       1039       1038  
       907        908        919        918       1028       1029       1040       1039  
       908        909        920        919       1029       1030       1041       1040  
       909        910        921        920       1030       1031       1042       1041  
       910        911        922        921       1031       1032       1043       1042  
       911        912        923        922       1032       1033       1044       1043  
       912        913        924        923       1033       1034       1045       1044  
       914        915        926        925       1035       1036       1047       1046  
       915        916        927        926       1036       1037       1048       1047  
       916        917        928        927       1037       1038       1049       1048  
       917        918        929        928       1038       1039       1050       1049  
       918        919        930        929       1039       1040       1051       1050  
       919        920        931        930       1040       1041       1052       1051  
       920        921        932        931       1041       1042       1053       1052  
       921        922        933        932       1042       1043       1054       1053  
       922        923        934        933       1043       1044       1055       1054  
       923        924        935        934       1044       1045       1056       1055  
       925        926        937        936       1046       1047       1058       1057  
       926        927        938        937       1047       1048       1059       1058  
       927        928        939        938       1048       1049       1060       1059  
       928        929        940        939       1049       1050       1061       1060  
       929        930        941        940       1050       1051       1062       1061  
       930        931        942        941       1051       1052       1063       1062  
       931        932        943        942       1052       1053       1064       1063  
       932        933        944        943       1053       1054       1065       1064  
       933        934        945        944       1054       1055       1066       1065  
       934        935        946        945       1055       1056       1067       1066  
       936        937        948        947       1057       1058       1069       1068  
       937        938        949        948       1058       1059       1070       1069  
       938        939        950        949       1059       1060       1071       1070  
       939        940        951        950       1060       1061       1072       1071  
       940        941        952        951       1061       1062       1073       1072  
       941        942        953        952       1062       1063       1074       1073  
       942        943        954        953       1063       1064       1075       1074  
       943        944        955        954       1064       1065       1076       1075  
       944        945        956        955       1065       1066       1077       1076  
       945        946        957        956       1066       1067       1078       1077  
       947        948        959        958       1068       1069       1080       1079  
       948        949        960        959       1069       1070       1081       1080  
       949        950        961        960       1070       1071       1082       1081  
       950        951        962        961       1071       1072       1083       1082  
       951        952        963        962       1072       1073       1084       1083  
       952        953        964        963       1073       1074       1085       1084  
       953        954        965        964       1074       1075       1086       1085  
       954        955        966        965       1075       1076       1087       1086  
       955        956        967        966       1076       1077       1088       1087  
       956        957        968        967       1077       1078       1089       1088  
       969        970        981        980       1090       1091       1102       1101  
       970        971        982        981       1091       1092       1103       1102  
       971        972        983        982       1092       1093       1104       1103  
       972        973        984        983       1093       1094       1105       1104  
       973        974        985        984       1094       1095       1106       1105  
       974        975        986        985       1095       1096       1107       1106  
       975        976        987        986       1096       1097       1108       1107  
       976        977        988        987       1097       1098       1109       1108  
       977        978        989        988       1098       1099       1110       1109  
       978        979        990        989       1099       1100       1111       1110  
       980        981        992        991       1101       1102       1113       1112  
       981        982        993        992       1102       1103       1114       1113  
       982        983        994        993       1103       1104       1115       1114  
       983        984        995        994       1104       1105       1116       1115  
       984        985        996        995       1105       1106       1117       1116  
       985        986        997        996       1106       1107       1118       1117  
       986        987        998        997       1107       1108       1119       1118  
       987        988        999        998       1108       1109       1120       1119  
       988        989       1000        999       1109       1110       1121       1120  
       989        990       1001       1000       1110       1111       1122       1121  
       991        992       1003       1002       1112       1113       1124       1123  
       992        993       1004       1003       1113       1114       1125       1124  
       993        994       1005       1004       1114       1115       1126       1125  
       994        995       1006       1005       1115       1116       1127       1126  
       995        996       1007       1006       1116       1117       1128       1127  
       996        997       1008       1007       1117       1118       1129       1128  
       997        998       1009       1008       1118       1119       1130       1129  
       998        999       1010       1009       1119       1120       1131       1130  
       999       1000       1011       1010       1120       1121       1132       1131  
      1000       1001       1012       1011       1121       1122       1133       1132  
      1002       1003       1014       1013       1123       1124       1135       1134  
      1003       1004       1015       1014       1124       1125       1136       1135  
      1004       1005       1016       1015       1125       1126       1137       1136  
      1005       1006       1017       1016       1126       1127       1138       1137  
      1006       1007       1018       1017       1127       1128       1139       1138  
      1007       1008       1019       1018       1128       1129       1140       1139  
      1008       1009       1020       1019       1129       1130       1141       1140  
      1009       1010       1021       1020       1130       1131       1142       1141  
      1010       1011       1022       1021       1131       1132       1143       1142  
      1011       1012       1023       1022       1132       1133       1144       1143  
      1013       1014       1025       1024       1134       1135       1146       1145  
      1014       1015       1026       1025       1135       1136       1147       1146  
      1015       1016       1027       1026       1136       1137       1148       1147  
      1016       1017       1028       1027       1137       1138       1149       1148  
      1017       1018       1029       1028       1138       1139       1150       1149  
      1018       1019       1030       1029       1139       1140       1151       1150  
      1019       1020       1031       1030       1140       1141       1152       1151  
      1020       1021       1032       1031       1141       1142       1153       1152  
      1021       1022       1033       1032       1142       1143       1154       1153  
      1022       1023       1034       1033       1143       1144       1155       1154  
      1024       1025       1036       1035       1145       1146       1157       1156  
      1025       1026       1037       1036       1146       1147       1158       1157  
      1026       1027       1038       1037       1147       1148       1159       1158  
      1027       1028       1039       1038       1148       1149       1160       1159  
      1028       1029       1040       1039       1149       1150       1161       1160  
      1029       1030       1041       1040       1150       1151       1162       1161  
      1030       1031       1042       1041       1151       1152       1163       1162  
      1031       1032       1043       1042       1152       1153       1164       1163  
      1032       1033       1044       1043       1153       1154       1165       1164  
      1033       1034       1045       1044       1154       1155       1166       1165  
      1035       1036       1047       1046       1156       1157       1168       1167  
      1036       1037       1048       1047       1157       1158       1169       1168  
      1037       1038       1049       1048       1158       1159       1170       1169  
      1038       1039       1050       1049       1159       1160       1171       1170  
      1039       1040       1051       1050       1160       1161       1172       1171  
      1040       1041       1052       1051       1161       1162       1173       1172  
      1041       1042       1053       1052       1162       1163       1174       1173  
      1042       1043       1054       1053       1163       1164       1175       1174  
      1043       1044       1055       1054       1164       1165       1176       1175  
      1044       1045       1056       1055       1165       1166       1177       1176  
      1046       1047       1058       1057       1167       1168       1179       1178  
      1047       1048       1059       1058       1168       1169       1180       1179  
      1048       1049       1060       1059       1169       1170       1181       1180  
      1049       1050       1061       1060       1170       1171       1182       1181  
      1050       1051       1062       1061       1171       1172       1183       1182  
      1051       1052       1063       1062       1172       1173       1184       1183  
      1052       1053       1064       1063       1173       1174       1185       1184  
      1053       1054       1065       1064       1174       1175       1186       1185  
      1054       1055       1066       1065       1175       1176       1187       1186  
      1055       1056       1067       1066       1176       1177       1188       1187  
      1057       1058       1069       1068       1178       1179       1190       1189  
      1058       1059       1070       1069       1179       1180       1191       1190  
      1059       1060       1071       1070       1180       1181       1192       1191  
      1060       1061       1072       1071       1181       1182       1193       1192  
      1061       1062       1073       1072       1182       1183       1194       1193  
      1062       1063       1074       1073       1183       1184       1195       1194  
      1063       1064       1075       1074       1184       1185       1196       1195  
      1064       1065       1076       1075       1185       1186       1197       1196  
      1065       1066       1077       1076       1186       1187       1198       1197  
      1066       1067       1078       1077       1187       1188       1199       1198  
      1068       1069       1080       1079       1189       1190       1201       1200  
      1069       1070       1081       1080       1190       1191       1202       1201  
      1070       1071       1082       1081       1191       1192       1203       1202  
      1071       1072       1083       1082       1192       1193       1204       1203  
      1072       1073       1084       1083       1193       1194       1205       1204  
      1073       1074       1085       1084       1194       1195       1206       1205  
      1074       1075       1086       1085       1195       1196       1207       1206  
      1075       1076       1087       1086       1196       1197       1208       1207  
      1076       1077       1088       1087       1197       1198       1209       1208  
      1077       1078       1089       1088       1198       1199       1210       1209  
      1090       1091       1102       1101       1211       1212       1223       1222  
      1091       1092       1103       1102       1212       1213       1224       1223  
      1092       1093       1104       1103       1213       1214       1225       1224  
      1093       1094       1105       1104       1214       1215       1226       1225  
      1094       1095       1106       1105       1215       1216       1227       1226  
      1095       1096       1107       1106       1216       1217       1228       1227  
      1096       1097       1108       1107       1217       1218       1229       1228  
      1097       1098       1109       1108       1218       1219       1230       1229  
      1098       1099       1110       1109       1219       1220       1231       1230  
      1099       1100       1111       1110       1220       1221       1232       1231  
      1101       1102       1113       1112       1222       1223       1234       1233  
      1102       1103       1114       1113       1223       1224       1235       1234  
      1103       1104       1115       1114       1224       1225       1236       1235  
      1104       1105       1116       1115       1225       1226       1237       1236  
      1105       1106       1117       1116       1226       1227       1238       1237  
      1106       1107       1118       1117       1227       1228       1239       1238  
      1107       1108       1119       1118       1228       1229       1240       1239  
      1108       1109       1120       1119       1229       1230       1241       1240  
      1109       1110       1121       1120       1230       1231       1242       1241  
      1110       1111       1122       1121       1231       1232       1243       1242  
      1112       1113       1124       1123       1233       1234       1245       1244  
      1113       1114       1125       1124       1234       1235       1246       1245  
      1114       1115       1126       1125       1235       1236       1247       1246  
      1115       1116       1127       1126       1236       1237       1248       1247  
      1116       1117       1128       1127       1237       1238       1249       1248  
      1117       1118       1129       1128       1238       1239       1250       1249  
      1118       1119       1130       1129       1239       1240       1251       1250  
      1119       1120       1131       1130       1240       1241       1252       1251  
      1120       1121       1132       1131       1241       1242       1253       1252  
      1121       1122       1133       1132       1242       1243       1254       1253  
      1123       1124       1135       1134       1244       1245       1256       1255  
      1124       1125       1136       1135       1245       1246       1257       1256  
      1125       1126       1137       1136       1246       1247       1258       1257  
      1126       1127       1138       1137       1247       1248       1259       1258  
      1127       1128       1139       1138       1248       1249       1260       1259  
      1128       1129       1140       1139       1249       1250       1261       1260  
      1129       1130       1141       1140       1250       1251       1262       1261  
      1130       1131       1142       1141       1251       1252       1263       1262  
      1131       1132       1143       1142       1252       1253       1264       1263  
      1132       1133       1144       1143       1253       1254       1265       1264  
      1134       1135       1146       1145       1255       1256       1267       1266  
      1135       1136       1147       1146       1256       1257       1268       1267  
      1136       1137       1148       1147       1257       1258       1269       1268  
      1137       1138       1149       1148       1258       1259       1270       1269  
      1138       1139       1150       1149       1259       1260       1271       1270  
      1139       1140       1151       1150       1260       1261       1272       1271  
      1140       1141       1152       1151       1261       1262       1273       1272  
      1141       1142       1153       1152       1262       1263       1274       1273  
      1142       1143       1154       1153       1263       1264       1275       1274  
      1143       1144       1155       1154       1264       1265       1276       1275  
      1145       1146       1157       1156       1266       1267       1278       1277  
      1146       1147       1158       1157       1267       1268       1279       1278  
      1147       1148       1159       1158       1268       1269       1280       1279  
      1148       1149       1160       1159       1269       1270       1281       1280  
      1149       1150       1161       1160       1270       1271       1282       1281  
      1150       1151       1162       1161       1271       1272       1283       1282  
      1151       1152       1163       1162       1272       1273       1284       1283  
      1152       1153       1164       1163       1273       1274       1285       1284  
      1153       1154       1165       1164       1274       1275       1286       1285  
      1154       1155       1166       1165       1275       1276       1287       1286  
      1156       1157       1168       1167       1277       1278       1289       1288  
      1157       1158       1169       1168       1278       1279       1290       1289  
      1158       1159       1170       1169       1279       1280       1291       1290  
      1159       1160       1171       1170       1280       1281       1292       1291  
      1160       1161       1172       1171       1281       1282       1293       1292  
      1161       1162       1173       1172       1282       1283       1294       1293  
      1162       1163       1174       1173       1283       1284       1295       1294  
      1163       1164       1175       1174       1284       1285       1296       1295  
      1164       1165       1176       1175       1285       1286       1297       1296  
      1165       1166       1177       1176       1286       1287       1298       1297  
      1167       1168       1179       1178       1288       1289       1300       1299  
      1168       1169       1180       1179       1289       1290       1301       1300  
      1169       1170       1181       1180       1290       1291       1302       1301  
      1170       1171       1182       1181       1291       1292       1303       1302  
      1171       1172       1183       1182       1292       1293       1304       1303  
      1172       1173       1184       1183       1293       1294       1305       1304  
      1173       1174       1185       1184       1294       1295       1306       1305  
      1174       1175       1186       1185       1295       1296       1307       1306  
      1175       1176       1187       1186       1296       1297       1308       1307  
      1176       1177       1188       1187       1297       1298       1309       1308  
      1178       1179       1190       1189       1299       1300       1311       1310  
      1179       1180       1191       1190       1300       1301       1312       1311  
      1180       1181       1192       1191       1301       1302       1313       1312  
      1181       1182       1193       1192       1302       1303       1314       1313  
      1182       1183       1194       1193       1303       1304       1315       1314  
      1183       1184       1195       1194       1304       1305       1316       1315  
      1184       1185       1196       1195       1305       1306       1317       1316  
      1185       1186       1197       1196       1306       1307       1318       1317  
      1186       1187       1198       1197       1307       1308       1319       1318  
      1187       1188       1199       1198       1308       1309       1320       1319  
      1189       1190       1201       1200       1310       1311       1322       1321  
      1190       1191       1202       1201       1311       1312       1323       1322  
      1191       1192       1203       1202       1312       1313       1324       1323  
      1192       1193       1204       1203       1313       1314       1325       1324  
      1193       1194       1205       1204       1314       1315       1326       1325  
      1194       1195       1206       1205       1315       1316       1327       1326  
      1195       1196       1207       1206       1316       1317       1328       1327  
      1196       1197       1208       1207       1317       1318       1329       1328  
      1197       1198       1209       1208       1318       1319       1330       1329  
      1198       1199       1210       1209       1319       1320       1331       1330  
      1211       1212       1223       1222       1332       1333       1344       1343  
      1212       1213       1224       1223       1333       1334       1345       1344  
      1213       1214       1225       1224       1334       1335       1346       1345  
      1214       1215       1226       1225       1335       1336       1347       1346  
      1215       1216       1227       1226       1336       1337       1348       1347  
      1216       1217       1228       1227       1337       1338       1349       1348  
      1217       1218       1229       1228       1338       1339       1350       1349  
      1218       1219       1230       1229       1339       1340       1351       1350  
      1219       1220       1231       1230       1340       1341       1352       1351  
      1220       1221       1232       1231       1341       1342       1353       1352  
      1222       1223       1234       1233       1343       1344       1355       1354  
      1223       1224       1235       1234       1344       1345       1356       1355  
      1224       1225       1236       1235       1345       1346       1357       1356  
      1225       1226       1237       1236       1346       1347       1358       1357  
      1226       1227       1238       1237       1347       1348       1359       1358  
      1227       1228       1239       1238       1348       1349       1360       1359  
      1228       1229       1240       1239       1349       1350       1361       1360  
      1229       1230       1241       1240       1350       1351       1362       1361  
      1230       1231       1242       1241       1351       1352       1363       1362  
      1231       1232       1243       1242       1352       1353       1364       1363  
      1233       1234       1245       1244       1354       1355       1366       1365  
      1234       1235       1246       1245       1355       1356       1367       1366  
      1235       1236       1247       1246       1356       1357       1368       1367  
      1236       1237       1248       1247       1357       1358       1369       1368  
      1237       1238       1249       1248       1358       1359       1370       1369  
      1238       1239       1250       1249       1359       1360       1371       1370  
      1239       1240       1251       1250       1360       1361       1372       1371  
      1240       1241       1252       1251       1361       1362       1373       1372  
      1241       1242       1253       1252       1362       1363       1374       1373  
      1242       1243       1254       1253       1363       1364       1375       1374  
      1244       1245       1256       1255       1365       1366       1377       1376  
      1245       1246       1257       1256       1366       1367       1378       1377  
      1246       1247       1258       1257       1367       1368       1379       1378  
      1247       1248       1259       1258       1368       1369       1380       1379  
      1248       1249       1260       1259       1369       1370       1381       1380  
      1249       1250       1261       1260       1370       1371       1382       1381  
      1250       1251       1262       1261       1371       1372       1383       1382  
      1251       1252       1263       1262       1372       1373       1384       1383  
      1252       1253       1264       1263       1373       1374       1385       1384  
      1253       1254       1265       1264       1374       1375       1386       1385  
      1255       1256       1267       1266       1376       1377       1388       1387  
      1256       1257       1268       1267       1377       1378       1389       1388  
      1257       1258       1269       1268       1378       1379       1390       1389  
      1258       1259       1270       1269       1379       1380       1391       1390  
      1259       1260       1271       1270       1380       1381       1392       1391  
      1260       1261       1272       1271       1381       1382       1393       1392  
      1261       1262       1273       1272       1382       1383       1394       1393  
      1262       1263       1274       1273       1383       1384       1395       1394  
      1263       1264       1275       1274       1384       1385       1396       1395  
      1264       1265       1276       1275       1385       1386       1397       1396  
      1266       1267       1278       1277       1387       1388       1399       1398  
      1267       1268       1279       1278       1388       1389       1400       1399  
      1268       1269       1280       1279       1389       1390       1401       1400  
      1269       1270       1281       1280       1390       1391       1402       1401  
      1270       1271       1282       1281       1391       1392       1403       1402  
      1271       1272       1283       1282       1392       1393       1404       1403  
      1272       1273       1284       1283       1393       1394       1405       1404  
      1273       1274       1285       1284       1394       1395       1406       1405  
      1274       1275       1286       1285       1395       1396       1407       1406  
      1275       1276       1287       1286       1396       1397       1408       1407  
      1277       1278       1289       1288       1398       1399       1410       1409  
      1278       1279       1290       1289       1399       1400       1411       1410  
      1279       1280       1291       1290       1400       1401       1412       1411  
      1280       1281       1292       1291       1401       1402       1413       1412  
      1281       1282       1293       1292       1402       1403       1414       1413  
      1282       1283       1294       1293       1403       1404       1415       1414  
      1283       1284       1295       1294       1404       1405       1416       1415  
      1284       1285       1296       1295       1405       1406       1417       1416  
      1285       1286       1297       1296       1406       1407       1418       1417  
      1286       1287       1298       1297       1407       1408       1419       1418  
      1288       1289       1300       1299       1409       1410       1421       1420  
      1289       1290       1301       1300       1410       1411       1422       1421  
      1290       1291       1302       1301       1411       1412       1423       1422  
      1291       1292       1303       1302       1412       1413       1424       1423  
      1292       1293       1304       1303       1413       1414       1425       1424  
      1293       1294       1305       1304       1414       1415       1426       1425  
      1294       1295       1306       1305       1415       1416       1427       1426  
      1295       1296       1307       1306       1416       1417       1428       1427  
      1296       1297       1308       1307       1417       1418       1429       1428  
      1297       1298       1309       1308       1418       1419       1430       1429  
      1299       1300       1311       1310       1420       1421       1432       1431  
      1300       1301       1312       1311       1421       1422       1433       1432  
      1301       1302       1313       1312       1422       1423       1434       1433  
      1302       1303       1314       1313       1423       1424       1435       1434  
      1303       1304       1315       1314       1424       1425       1436       1435  
      1304       1305       1316       1315       1425       1426       1437       1436  
      1305       1306       1317       1316       1426       1427       1438       1437  
      1306       1307       1318       1317       1427       1428       1439       1438  
      1307       1308       1319       1318       1428       1429       1440       1439  
      1308       1309       1320       1319       1429       1430       1441       1440  
      1310       1311       1322       1321       1431       1432       1443       1442  
      1311       1312       1323       1322       1432       1433       1444       1443  
      1312       1313       1324       1323       1433       1434       1445       1444  
      1313       1314       1325       1324       1434       1435       1446       1445  
      1314       1315       1326       1325       1435       1436       1447       1446  
      1315       1316       1327       1326       1436       1437       1448       1447  
      1316       1317       1328       1327       1437       1438       1449       1448  
      1317       1318       1329       1328       1438       1439       1450       1449  
      1318       1319       1330       1329       1439       1440       1451       1450  
      1319       1320       1331       1330       1440       1441       1452       1451  
      1332       1333       1344       1343       1453       1454       1465       1464  
      1333       1334       1345       1344       1454       1455       1466       1465  
      1334       1335       1346       1345       1455       1456       1467       1466  
      1335       1336       1347       1346       1456       1457       1468       1467  
      1336       1337       1348       1347       1457       1458       1469       1468  
      1337       1338       1349       1348       1458       1459       1470       1469  
      1338       1339       1350       1349       1459       1460       1471       1470  
      1339       1340       1351       1350       1460       1461       1472       1471  
      1340       1341       1352       1351       1461       1462       1473       1472  
      1341       1342       1353       1352       1462       1463       1474       1473  
      1343       1344       1355       1354       1464       1465       1476       1475  
      1344       1345       1356       1355       1465       1466       1477       1476  
      1345       1346       1357       1356       1466       1467       1478       1477  
      1346       1347       1358       1357       1467       1468       1479       1478  
      1347       1348       1359       1358       1468       1469       1480       1479  
      1348       1349       1360       1359       1469       1470       1481       1480  
      1349       1350       1361       1360       1470       1471       1482       1481  
      1350       1351       1362       1361       1471       1472       1483       1482  
      1351       1352       1363       1362       1472       1473       1484       1483  
      1352       1353       1364       1363       1473       1474       1485       1484  
      1354       1355       1366       1365       1475       1476       1487       1486  
      1355       1356       1367       1366       1476       1477       1488       1487  
      1356       1357       1368       1367       1477       1478       1489       1488  
      1357       1358       1369       1368       1478       1479       1490       1489  
      1358       1359       1370       1369       1479       1480       1491       1490  
      1359       1360       1371       1370       1480       1481       1492       1491  
      1360       1361       1372       1371       1481       1482       1493       1492  
      1361       1362       1373       1372       1482       1483       1494       1493  
      1362       1363       1374       1373       1483       1484       1495       1494  
      1363       1364       1375       1374       1484       1485       1496       1495  
      1365       1366       1377       1376       1486       1487       1498       1497  
      1366       1367       1378       1377       1487       1488       1499       1498  
      1367       1368       1379       1378       1488       1489       1500       1499  
      1368       1369       1380       1379       1489       1490       1501       1500  
      1369       1370       1381       1380       1490       1491       1502       1501  
      1370       1371       1382       1381       1491       1492       1503       1502  
      1371       1372       1383       1382       1492       1493       1504       1503  
      1372       1373       1384       1383       1493       1494       1505       1504  
      1373       1374       1385       1384       1494       1495       1506       1505  
      1374       1375       1386       1385       1495       1496       1507       1506  
      1376       1377       1388       1387       1497       1498       1509       1508  
      1377       1378       1389       1388       1498       1499       1510       1509  
      1378       1379       1390       1389       1499       1500       1511       1510  
      1379       1380       1391       1390       1500       1501       1512       1511  
      1380       1381       1392       1391       1501       1502       1513       1512  
      1381       1382       1393       1392       1502       1503       1514       1513  
      1382       1383       1394       1393       1503       1504       1515       1514  
      1383       1384       1395       1394       1504       1505       1516       1515  
      1384       1385       1396       1395       1505       1506       1517       1516  
      1385       1386       1397       1396       1506       1507       1518       1517  
      1387       1388       1399       1398       1508       1509       1520       1519  
      1388       1389       1400       1399       1509       1510       1521       1520  
      1389       1390       1401       1400       1510       1511       1522       1521  
      1390       1391       1402       1401       1511       1512       1523       1522  
      1391       1392       1403       1402       1512       1513       1524       1523  
      1392       1393       1404       1403       1513       1514       1525       1524  
      1393       1394       1405       1404       1514       1515       1526       1525  
      1394       1395       1406       1405       1515       1516       1527       1526  
      1395       1396       1407       1406       1516       1517       1528       1527  
      1396       1397       1408       1407       1517       1518       1529       1528  
      1398       1399       1410       1409       1519       1520       1531       1530  
      1399       1400       1411       1410       1520       1521       1532       1531  
      1400       1401       1412       1411       1521       1522       1533       1532  
      1401       1402       1413       1412       1522       1523       1534       1533  
      1402       1403       1414       1413       1523       1524       1535       1534  
      1403       1404       1415       1414       1524       1525       1536       1535  
      1404       1405       1416       1415       1525       1526       1537       1536  
      1405       1406       1417       1416       1526       1527       1538       1537  
      1406       1407       1418       1417       1527       1528       1539       1538  
      1407       1408       1419       1418       1528       1529       1540       1539  
      1409       1410       1421       1420       1530       1531       1542       1541  
      1410       1411       1422       1421       1531       1532       1543       1542  
      1411       1412       1423       1422       1532       1533       1544       1543  
      1412       1413       1424       1423       1533       1534       1545       1544  
      1413       1414       1425       1424       1534       1535       1546       1545  
      1414       1415       1426       1425       1535       1536       1547       1546  
      1415       1416       1427       1426       1536       1537       1548       1547  
      1416       1417       1428       1427       1537       1538       1549       1548  
      1417       1418       1429       1428       1538       1539       1550       1549  
      1418       1419       1430       1429       1539       1540       1551       1550  
      1420       1421       1432       1431       1541       1542       1553       1552  
      1421       1422       1433       1432       1542       1543       1554       1553  
      1422       1423       1434       1433       1543       1544       1555       1554  
      1423       1424       1435       1434       1544       1545       1556       1555  
      1424       1425       1436       1435       1545       1546       1557       1556  
      1425       1426       1437       1436       1546       1547       1558       1557  
      1426       1427       1438       1437       1547       1548       1559       1558  
      1427       1428       1439       1438       1548       1549       1560       1559  
      1428       1429       1440       1439       1549       1550       1561       1560  
      1429       1430       1441       1440       1550       1551       1562       1561  
      1431       1432       1443       1442       1552       1553       1564       1563  
      1432       1433       1444       1443       1553       1554       1565       1564  
      1433       1434       1445       1444       1554       1555       1566       1565  
      1434       1435       1446       1445       1555       1556       1567       1566  
      1435       1436       1447       1446       1556       1557       1568       1567  
      1436       1437       1448       1447       1557       1558       1569       1568  
      1437       1438       1449       1448       1558       1559       1570       1569  
      1438       1439       1450       1449       1559       1560       1571       1570  
      1439       1440       1451       1450       1560       1561       1572       1571  
      1440       1441       1452       1451       1561       1562       1573       1572  
      1453       1454       1465       1464       1574       1575       1586       1585  
      1454       1455       1466       1465       1575       1576       1587       1586  
      1455       1456       1467       1466       1576       1577       1588       1587  
      1456       1457       1468       1467       1577       1578       1589       1588  
      1457       1458       1469       1468       1578       1579       1590       1589  
      1458       1459       1470       1469       1579       1580       1591       1590  
      1459       1460       1471       1470       1580       1581       1592       1591  
      1460       1461       1472       1471       1581       1582       1593       1592  
      1461       1462       1473       1472       1582       1583       1594       1593  
      1462       1463       1474       1473       1583       1584       1595       1594  
      1464       1465       1476       1475       1585       1586       1597       1596  
      1465       1466       1477       1476       1586       1587       1598       1597  
      1466       1467       1478       1477       1587       1588       1599       1598  
      1467       1468       1479       1478       1588       1589       1600       1599  
      1468       1469       1480       1479       1589       1590       1601       1600  
      1469       1470       1481       1480       1590       1591       1602       1601  
      1470       1471       1482       1481       1591       1592       1603       1602  
      1471       1472       1483       1482       1592       1593       1604       1603  
      1472       1473       1484       1483       1593       1594       1605       1604  
      1473       1474       1485       1484       1594       1595       1606       1605  
      1475       1476       1487       1486       1596       1597       1608       1607  
      1476       1477       1488       1487       1597       1598       1609       1608  
      1477       1478       1489       1488       1598       1599       1610       1609  
      1478       1479       1490       1489       1599       1600       1611       1610  
      1479       1480       1491       1490       1600       1601       1612       1611  
      1480       1481       1492       1491       1601       1602       1613       1612  
      1481       1482       1493       1492       1602       1603       1614       1613  
      1482       1483       1494       1493       1603       1604       1615       1614  
      1483       1484       1495       1494       1604       1605       1616       1615  
      1484       1485       1496       1495       1605       1606       1617       1616  
      1486       1487       1498       1497       1607       1608       1619       1618  
      1487       1488       1499       1498       1608       1609       1620       1619  
      1488       1489       1500       1499       1609       1610       1621       1620  
      1489       1490       1501       1500       1610       1611       1622       1621  
      1490       1491       1502       1501       1611       1612       1623       1622  
      1491       1492       1503       1502       1612       1613       1624       1623  
      1492       1493       1504       1503       1613       1614       1625       1624  
      1493       1494       1505       1504       1614       1615       1626       1625  
      1494       1495       1506       1505       1615       1616       1627       1626  
      1495       1496       1507       1506       1616       1617       1628       1627  
      1497       1498       1509       1508       1618       1619       1630       1629  
      1498       1499       1510       1509       1619       1620       1631       1630  
      1499       1500       1511       1510       1620       1621       1632       1631  
      1500       1501       1512       1511       1621       1622       1633       1632  
      1501       1502       1513       1512       1622       1623       1634       1633  
      1502       1503       1514       1513       1623       1624       1635       1634  
      1503       1504       1515       1514       1624       1625       1636       1635  
      1504       1505       1516       1515       1625       1626       1637       1636  
      1505       1506       1517       1516       1626       1627       1638       1637  
      1506       1507       1518       1517       1627       1628       1639       1638  
      1508       1509       1520       1519       1629       1630       1641       1640  
      1509       1510       1521       1520       1630       1631       1642       1641  
      1510       1511       1522       1521       1631       1632       1643       1642  
      1511       1512       1523       1522       1632       1633       1644       1643  
      1512       1513       1524       1523       1633       1634       1645       1644  
      1513       1514       1525       1524       1634       1635       1646       1645  
      1514       1515       1526       1525       1635       1636       1647       1646  
      1515       1516       1527       1526       1636       1637       1648       1647  
      1516       1517       1528       1527       1637       1638       1649       1648  
      1517       1518       1529       1528       1638       1639       1650       1649  
      1519       1520       1531       1530       1640       1641       1652       1651  
      1520       1521       1532       1531       1641       1642       1653       1652  
      1521       1522       1533       1532       1642       1643       1654       1653  
      1522       1523       1534       1533       1643       1644       1655       1654  
      1523       1524       1535       1534       1644       1645       1656       1655  
      1524       1525       1536       1535       1645       1646       1657       1656  
      1525       1526       1537       1536       1646       1647       1658       1657  
      1526       1527       1538       1537       1647       1648       1659       1658  
      1527       1528       1539       1538       1648       1649       1660       1659  
      1528       1529       1540       1539       1649       1650       1661       1660  
      1530       1531       1542       1541       1651       1652       1663       1662  
      1531       1532       1543       1542       1652       1653       1664       1663  
      1532       1533       1544       1543       1653       1654       1665       1664  
      1533       1534       1545       1544       1654       1655       1666       1665  
      1534       1535       1546       1545       1655       1656       1667       1666  
      1535       1536       1547       1546       1656       1657       1668       1667  
      1536       1537       1548       1547       1657       1658       1669       1668  
      1537       1538       1549       1548       1658       1659       1670       1669  
      1538       1539       1550       1549       1659       1660       1671       1670  
      1539       1540       1551       1550       1660       1661       1672       1671  
      1541       1542       1553       1552       1662       1663       1674       1673  
      1542       1543       1554       1553       1663       1664       1675       1674  
      1543       1544       1555       1554       1664       1665       1676       1675  
      1544       1545       1556       1555       1665       1666       1677       1676  
      1545       1546       1557       1556       1666       1667       1678       1677  
      1546       1547       1558       1557       1667       1668       1679       1678  
      1547       1548       1559       1558       1668       1669       1680       1679  
      1548       1549       1560       1559       1669       1670       1681       1680  
      1549       1550       1561       1560       1670       1671       1682       1681  
      1550       1551       1562       1561       1671       1672       1683       1682  
      1552       1553       1564       1563       1673       1674       1685       1684  
      1553       1554       1565       1564       1674       1675       1686       1685  
      1554       1555       1566       1565       1675       1676       1687       1686  
      1555       1556       1567       1566       1676       1677       1688       1687  
      1556       1557       1568       1567       1677       1678       1689       1688  
      1557       1558       1569       1568       1678       1679       1690       1689  
      1558       1559       1570       1569       1679       1680       1691       1690  
      1559       1560       1571       1570       1680       1681       1692       1691  
      1560       1561       1572       1571       1681       1682       1693       1692  
      1561       1562       1573       1572       1682       1683       1694       1693  
      1574       1575       1586       1585       1695       1696       1707       1706  
      1575       1576       1587       1586       1696       1697       1708       1707  
      1576       1577       1588       1587       1697       1698       1709       1708  
      1577       1578       1589       1588       1698       1699       1710       1709  
      1578       1579       1590       1589       1699       1700       1711       1710  
      1579       1580       1591       1590       1700       1701       1712       1711  
      1580       1581       1592       1591       1701       1702       1713       1712  
      1581       1582       1593       1592       1702       1703       1714       1713  
      1582       1583       1594       1593       1703       1704       1715       1714  
      1583       1584       1595       1594       1704       1705       1716       1715  
      1585       1586       1597       1596       1706       1707       1718       1717  
      1586       1587       1598       1597       1707       1708       1719       1718  
      1587       1588       1599       1598       1708       1709       1720       1719  
      1588       1589       1600       1599       1709       1710       1721       1720  
      1589       1590       1601       1600       1710       1711       1722       1721  
      1590       1591       1602       1601       1711       1712       1723       1722  
      1591       1592       1603       1602       1712       1713       1724       1723  
      1592       1593       1604       1603       1713       1714       1725       1724  
      1593       1594       1605       1604       1714       1715       1726       1725  
      1594       1595       1606       1605       1715       1716       1727       1726  
      1596       1597       1608       1607       1717       1718       1729       1728  
      1597       1598       1609       1608       1718       1719       1730       1729  
      1598       1599       1610       1609       1719       1720       1731       1730  
      1599       1600       1611       1610       1720       1721       1732       1731  
      1600       1601       1612       1611       1721       1722       1733       1732  
      1601       1602       1613       1612       1722       1723       1734       1733  
      1602       1603       1614       1613       1723       1724       1735       1734  
      1603       1604       1615       1614       1724       1725       1736       1735  
      1604       1605       1616       1615       1725       1726       1737       1736  
      1605       1606       1617       1616       1726       1727       1738       1737  
      1607       1608       1619       1618       1728       1729       1740       1739  
      1608       1609       1620       1619       1729       1730       1741       1740  
      1609       1610       1621       1620       1730       1731       1742       1741  
      1610       1611       1622       1621       1731       1732       1743       1742  
      1611       1612       1623       1622       1732       1733       1744       1743  
      1612       1613       1624       1623       1733       1734       1745       1744  
      1613       1614       1625       1624       1734       1735       1746       1745  
      1614       1615       1626       1625       1735       1736       1747       1746  
      1615       1616       1627       1626       1736       1737       1748       1747  
      1616       1617       1628       1627       1737       1738       1749       1748  
      1618       1619       1630       1629       1739       1740       1751       1750  
      1619       1620       1631       1630       1740       1741       1752       1751  
      1620       1621       1632       1631       1741       1742       1753       1752  
      1621       1622       1633       1632       1742       1743       1754       1753  
      1622       1623       1634       1633       1743       1744       1755       1754  
      1623       1624       1635       1634       1744       1745       1756       1755  
      1624       1625       1636       1635       1745       1746       1757       1756  
      1625       1626       1637       1636       1746       1747       1758       1757  
      1626       1627       1638       1637       1747       1748       1759       1758  
      1627       1628       1639       1638       1748       1749       1760       1759  
      1629       1630       1641       1640       1750       1751       1762       1761  
      1630       1631       1642       1641       1751       1752       1763       1762  
      1631       1632       1643       1642       1752       1753       1764       1763  
      1632       1633       1644       1643       1753       1754       1765       1764  
      1633       1634       1645       1644       1754       1755       1766       1765  
      1634       1635       1646       1645       1755       1756       1767       1766  
      1635       1636       1647       1646       1756       1757       1768       1767  
      1636       1637       1648       1647       1757       1758       1769       1768  
      1637       1638       1649       1648       1758       1759       1770       1769  
      1638       1639       1650       1649       1759       1760       1771       1770  
      1640       1641       1652       1651       1761       1762       1773       1772  
      1641       1642       1653       1652       1762       1763       1774       1773  
      1642       1643       1654       1653       1763       1764       1775       1774  
      1643       1644       1655       1654       1764       1765       1776       1775  
      1644       1645       1656       1655       1765       1766       1777       1776  
      1645       1646       1657       1656       1766       1767       1778       1777  
      1646       1647       1658       1657       1767       1768       1779       1778  
      1647       1648       1659       1658       1768       1769       1780       1779  
      1648       1649       1660       1659       1769       1770       1781       1780  
      1649       1650       1661       1660       1770       1771       1782       1781  
      1651       1652       1663       1662       1772       1773       1784       1783  
      1652       1653       1664       1663       1773       1774       1785       1784  
      1653       1654       1665       1664       1774       1775       1786       1785  
      1654       1655       1666       1665       1775       1776       1787       1786  
      1655       1656       1667       1666       1776       1777       1788       1787  
      1656       1657       1668       1667       1777       1778       1789       1788  
      1657       1658       1669       1668       1778       1779       1790       1789  
      1658       1659       1670       1669       1779       1780       1791       1790  
      1659       1660       1671       1670       1780       1781       1792       1791  
      1660       1661       1672       1671       1781       1782       1793       1792  
      1662       1663       1674       1673       1783       1784       1795       1794  
      1663       1664       1675       1674       1784       1785       1796       1795  
      1664       1665       1676       1675       1785       1786       1797       1796  
      1665       1666       1677       1676       1786       1787       1798       1797  
      1666       1667       1678       1677       1787       1788       1799       1798  
      1667       1668       1679       1678       1788       1789       1800       1799  
      1668       1669       1680       1679       1789       1790       1801       1800  
      1669       1670       1681       1680       1790       1791       1802       1801  
      1670       1671       1682       1681       1791       1792       1803       1802  
      1671       1672       1683       1682       1792       1793       1804       1803  
      1673       1674       1685       1684       1794       1795       1806       1805  
      1674       1675       1686       1685       1795       1796       1807       1806  
      1675       1676       1687       1686       1796       1797       1808       1807  
      1676       1677       1688       1687       1797       1798       1809       1808  
      1677       1678       1689       1688       1798       1799       1810       1809  
      1678       1679       1690       1689       1799       1800       1811       1810  
      1679       1680       1691       1690       1800       1801       1812       1811  
      1680       1681       1692       1691       1801       1802       1813       1812  
      1681       1682       1693       1692       1802       1803       1814       1813  
      1682       1683       1694       1693       1803       1804       1815       1814  
      1695       1696       1707       1706       1816       1817       1828       1827  
      1696       1697       1708       1707       1817       1818       1829       1828  
      1697       1698       1709       1708       1818       1819       1830       1829  
      1698       1699       1710       1709       1819       1820       1831       1830  
      1699       1700       1711       1710       1820       1821       1832       1831  
      1700       1701       1712       1711       1821       1822       1833       1832  
      1701       1702       1713       1712       1822       1823       1834       1833  
      1702       1703       1714       1713       1823       1824       1835       1834  
      1703       1704       1715       1714       1824       1825       1836       1835  
      1704       1705       1716       1715       1825       1826       1837       1836  
      1706       1707       1718       1717       1827       1828       1839       1838  
      1707       1708       1719       1718       1828       1829       1840       1839  
      1708       1709       1720       1719       1829       1830       1841       1840  
      1709       1710       1721       1720       1830       1831       1842       1841  
      1710       1711       1722       1721       1831       1832       1843       1842  
      1711       1712       1723       1722       1832       1833       1844       1843  
      1712       1713       1724       1723       1833       1834       1845       1844  
      1713       1714       1725       1724       1834       1835       1846       1845  
      1714       1715       1726       1725       1835       1836       1847       1846  
      1715       1716       1727       1726       1836       1837       1848       1847  
      1717       1718       1729       1728       1838       1839       1850       1849  
      1718       1719       1730       1729       1839       1840       1851       1850  
      1719       1720       1731       1730       1840       1841       1852       1851  
      1720       1721       1732       1731       1841       1842       1853       1852  
      1721       1722       1733       1732       1842       1843       1854       1853  
      1722       1723       1734       1733       1843       1844       1855       1854  
      1723       1724       1735       1734       1844       1845       1856       1855  
      1724       1725       1736       1735       1845       1846       1857       1856  
      1725       1726       1737       1736       1846       1847       1858       1857  
      1726       1727       1738       1737       1847       1848       1859       1858  
      1728       1729       1740       1739       1849       1850       1861       1860  
      1729       1730       1741       1740       1850       1851       1862       1861  
      1730       1731       1742       1741       1851       1852       1863       1862  
      1731       1732       1743       1742       1852       1853       1864       1863  
      1732       1733       1744       1743       1853       1854       1865       1864  
      1733       1734       1745       1744       1854       1855       1866       1865  
      1734       1735       1746       1745       1855       1856       1867       1866  
      1735       1736       1747       1746       1856       1857       1868       1867  
      1736       1737       1748       1747       1857       1858       1869       1868  
      1737       1738       1749       1748       1858       1859       1870       1869  
      1739       1740       1751       1750       1860       1861       1872       1871  
      1740       1741       1752       1751       1861       1862       1873       1872  
      1741       1742       1753       1752       1862       1863       1874       1873  
      1742       1743       1754       1753       1863       1864       1875       1874  
      1743       1744       1755       1754       1864       1865       1876       1875  
      1744       1745       1756       1755       1865       1866       1877       1876  
      1745       1746       1757       1756       1866       1867       1878       1877  
      1746       1747       1758       1757       1867       1868       1879       1878  
      1747       1748       1759       1758       1868       1869       1880       1879  
      1748       1749       1760       1759       1869       1870       1881       1880  
      1750       1751       1762       1761       1871       1872       1883       1882  
      1751       1752       1763       1762       1872       1873       1884       1883  
      1752       1753       1764       1763       1873       1874       1885       1884  
      1753       1754       1765       1764       1874       1875       1886       1885  
      1754       1755       1766       1765       1875       1876       1887       1886  
      1755       1756       1767       1766       1876       1877       1888       1887  
      1756       1757       1768       1767       1877       1878       1889       1888  
      1757       1758       1769       1768       1878       1879       1890       1889  
      1758       1759       1770       1769       1879       1880       1891       1890  
      1759       1760       1771       1770       1880       1881       1892       1891  
      1761       1762       1773       1772       1882       1883       1894       1893  
      1762       1763       1774       1773       1883       1884       1895       1894  
      1763       1764       1775       1774       1884       1885       1896       1895  
      1764       1765       1776       1775       1885       1886       1897       1896  
      1765       1766       1777       1776       1886       1887       1898       1897  
      1766       1767       1778       1777       1887       1888       1899       1898  
      1767       1768       1779       1778       1888       1889       1900       1899  
      1768       1769       1780       1779       1889       1890       1901       1900  
      1769       1770       1781       1780       1890       1891       1902       1901  
      1770       1771       1782       1781       1891       1892       1903       1902  
      1772       1773       1784       1783       1893       1894       1905       1904  
      1773       1774       1785       1784       1894       1895       1906       1905  
      1774       1775       1786       1785       1895       1896       1907       1906  
      1775       1776       1787       1786       1896       1897       1908       1907  
      1776       1777       1788       1787       1897       1898       1909       1908  
      1777       1778       1789       1788       1898       1899       1910       1909  
      1778       1779       1790       1789       1899       1900       1911       1910  
      1779       1780       1791       1790       1900       1901       1912       1911  
      1780       1781       1792       1791       1901       1902       1913       1912  
      1781       1782       1793       1792       1902       1903       1914       1913  
      1783       1784       1795       1794       1904       1905       1916       1915  
      1784       1785       1796       1795       1905       1906       1917       1916  
      1785       1786       1797       1796       1906       1907       1918       1917  
      1786       1787       1798       1797       1907       1908       1919       1918  
      1787       1788       1799       1798       1908       1909       1920       1919  
      1788       1789       1800       1799       1909       1910       1921       1920  
      1789       1790       1801       1800       1910       1911       1922       1921  
      1790       1791       1802       1801       1911       1912       1923       1922  
      1791       1792       1803       1802       1912       1913       1924       1923  
      1792       1793       1804       1803       1913       1914       1925       1924  
      1794       1795       1806       1805       1915       1916       1927       1926  
      1795       1796       1807       1806       1916       1917       1928       1927  
      1796       1797       1808       1807       1917       1918       1929       1928  
      1797       1798       1809       1808       1918       1919       1930       1929  
      1798       1799       1810       1809       1919       1920       1931       1930  
      1799       1800       1811       1810       1920       1921       1932       1931  
      1800       1801       1812       1811       1921       1922       1933       1932  
      1801       1802       1813       1812       1922       1923       1934       1933  
      1802       1803       1814       1813       1923       1924       1935       1934  
      1803       1804       1815       1814       1924       1925       1936       1935  
      1816       1817       1828       1827       1937       1938       1949       1948  
      1817       1818       1829       1828       1938       1939       1950       1949  
      1818       1819       1830       1829       1939       1940       1951       1950  
      1819       1820       1831       1830       1940       1941       1952       1951  
      1820       1821       1832       1831       1941       1942       1953       1952  
      1821       1822       1833       1832       1942       1943       1954       1953  
      1822       1823       1834       1833       1943       1944       1955       1954  
      1823       1824       1835       1834       1944       1945       1956       1955  
      1824       1825       1836       1835       1945       1946       1957       1956  
      1825       1826       1837       1836       1946       1947       1958       1957  
      1827       1828       1839       1838       1948       1949       1960       1959  
      1828       1829       1840       1839       1949       1950       1961       1960  
      1829       1830       1841       1840       1950       1951       1962       1961  
      1830       1831       1842       1841       1951       1952       1963       1962  
      1831       1832       1843       1842       1952       1953       1964       1963  
      1832       1833       1844       1843       1953       1954       1965       1964  
      1833       1834       1845       1844       1954       1955       1966       1965  
      1834       1835       1846       1845       1955       1956       1967       1966  
      1835       1836       1847       1846       1956       1957       1968       1967  
      1836       1837       1848       1847       1957       1958       1969       1968  
      1838       1839       1850       1849       1959       1960       1971       1970  
      1839       1840       1851       1850       1960       1961       1972       1971  
      1840       1841       1852       1851       1961       1962       1973       1972  
      1841       1842       1853       1852       1962       1963       1974       1973  
      1842       1843       1854       1853       1963       1964       1975       1974  
      1843       1844       1855       1854       1964       1965       1976       1975  
      1844       1845       1856       1855       1965       1966       1977       1976  
      1845       1846       1857       1856       1966       1967       1978       1977  
      1846       1847       1858       1857       1967       1968       1979       1978  
      1847       1848       1859       1858       1968       1969       1980       1979  
      1849       1850       1861       1860       1970       1971       1982       1981  
      1850       1851       1862       1861       1971       1972       1983       1982  
      1851       1852       1863       1862       1972       1973       1984       1983  
      1852       1853       1864       1863       1973       1974       1985       1984  
      1853       1854       1865       1864       1974       1975       1986       1985  
      1854       1855       1866       1865       1975       1976       1987       1986  
      1855       1856       1867       1866       1976       1977       1988       1987  
      1856       1857       1868       1867       1977       1978       1989       1988  
      1857       1858       1869       1868       1978       1979       1990       1989  
      1858       1859       1870       1869       1979       1980       1991       1990  
      1860       1861       1872       1871       1981       1982       1993       1992  
      1861       1862       1873       1872       1982       1983       1994       1993  
      1862       1863       1874       1873       1983       1984       1995       1994  
      1863       1864       1875       1874       1984       1985       1996       1995  
      1864       1865       1876       1875       1985       1986       1997       1996  
      1865       1866       1877       1876       1986       1987       1998       1997  
      1866       1867       1878       1877       1987       1988       1999       1998  
      1867       1868       1879       1878       1988       1989       2000       1999  
      1868       1869       1880       1879       1989       1990       2001       2000  
      1869       1870       1881       1880       1990       1991       2002       2001  
      1871       1872       1883       1882       1992       1993       2004       2003  
      1872       1873       1884       1883       1993       1994       2005       2004  
      1873       1874       1885       1884       1994       1995       2006       2005  
      1874       1875       1886       1885       1995       1996       2007       2006  
      1875       1876       1887       1886       1996       1997       2008       2007  
      1876       1877       1888       1887       1997       1998       2009       2008  
      1877       1878       1889       1888       1998       1999       2010       2009  
      1878       1879       1890       1889       1999       2000       2011       2010  
      1879       1880       1891       1890       2000       2001       2012       2011  
      1880       1881       1892       1891       2001       2002       2013       2012  
      1882       1883       1894       1893       2003       2004       2015       2014  
      1883       1884       1895       1894       2004       2005       2016       2015  
      1884       1885       1896       1895       2005       2006       2017       2016  
      1885       1886       1897       1896       2006       2007       2018       2017  
      1886       1887       1898       1897       2007       2008       2019       2018  
      1887       1888       1899       1898       2008       2009       2020       2019  
      1888       1889       1900       1899       2009       2010       2021       2020  
      1889       1890       1901       1900       2010       2011       2022       2021  
      1890       1891       1902       1901       2011       2012       2023       2022  
      1891       1892       1903       1902       2012       2013       2024       2023  
      1893       1894       1905       1904       2014       2015       2026       2025  
      1894       1895       1906       1905       2015       2016       2027       2026  
      1895       1896       1907       1906       2016       2017       2028       2027  
      1896       1897       1908       1907       2017       2018       2029       2028  
      1897       1898       1909       1908       2018       2019       2030       2029  
      1898       1899       1910       1909       2019       2020       2031       2030  
      1899       1900       1911       1910       2020       2021       2032       2031  
      1900       1901       1912       1911       2021       2022       2033       2032  
      1901       1902       1913       1912       2022       2023       2034       2033  
      1902       1903       1914       1913       2023       2024       2035       2034  
      1904       1905       1916       1915       2025       2026       2037       2036  
      1905       1906       1917       1916       2026       2027       2038       2037  
      1906       1907       1918       1917       2027       2028       2039       2038  
      1907       1908       1919       1918       2028       2029       2040       2039  
      1908       1909       1920       1919       2029       2030       2041       2040  
      1909       1910       1921       1920       2030       2031       2042       2041  
      1910       1911       1922       1921       2031       2032       2043       2042  
      1911       1912       1923       1922       2032       2033       2044       2043  
      1912       1913       1924       1923       2033       2034       2045       2044  
      1913       1914       1925       1924       2034       2035       2046       2045  
      1915       1916       1927       1926       2036       2037       2048       2047  
      1916       1917       1928       1927       2037       2038       2049       2048  
      1917       1918       1929       1928       2038       2039       2050       2049  
      1918       1919       1930       1929       2039       2040       2051       2050  
      1919       1920       1931       1930       2040       2041       2052       2051  
      1920       1921       1932       1931       2041       2042       2053       2052  
      1921       1922       1933       1932       2042       2043       2054       2053  
      1922       1923       1934       1933       2043       2044       2055       2054  
      1923       1924       1935       1934       2044       2045       2056       2055  
      1924       1925       1936       1935       2045       2046       2057       2056  
      1937       1938       1949       1948       2058       2059       2070       2069  
      1938       1939       1950       1949       2059       2060       2071       2070  
      1939       1940       1951       1950       2060       2061       2072       2071  
      1940       1941       1952       1951       2061       2062       2073       2072  
      1941       1942       1953       1952       2062       2063       2074       2073  
      1942       1943       1954       1953       2063       2064       2075       2074  
      1943       1944       1955       1954       2064       2065       2076       2075  
      1944       1945       1956       1955       2065       2066       2077       2076  
      1945       1946       1957       1956       2066       2067       2078       2077  
      1946       1947       1958       1957       2067       2068       2079       2078  
      1948       1949       1960       1959       2069       2070       2081       2080  
      1949       1950       1961       1960       2070       2071       2082       2081  
      1950       1951       1962       1961       2071       2072       2083       2082  
      1951       1952       1963       1962       2072       2073       2084       2083  
      1952       1953       1964       1963       2073       2074       2085       2084  
      1953       1954       1965       1964       2074       2075       2086       2085  
      1954       1955       1966       1965       2075       2076       2087       2086  
      1955       1956       1967       1966       2076       2077       2088       2087  
      1956       1957       1968       1967       2077       2078       2089       2088  
      1957       1958       1969       1968       2078       2079       2090       2089  
      1959       1960       1971       1970       2080       2081       2092       2091  
      1960       1961       1972       1971       2081       2082       2093       2092  
      1961       1962       1973       1972       2082       2083       2094       2093  
      1962       1963       1974       1973       2083       2084       2095       2094  
      1963       1964       1975       1974       2084       2085       2096       2095  
      1964       1965       1976       1975       2085       2086       2097       2096  
      1965       1966       1977       1976       2086       2087       2098       2097  
      1966       1967       1978       1977       2087       2088       2099       2098  
      1967       1968       1979       1978       2088       2089       2100       2099  
      1968       1969       1980       1979       2089       2090       2101       2100  
      1970       1971       1982       1981       2091       2092       2103       2102  
      1971       1972       1983       1982       2092       2093       2104       2103  
      1972       1973       1984       1983       2093       2094       2105       2104  
      1973       1974       1985       1984       2094       2095       2106       2105  
      1974       1975       1986       1985       2095       2096       2107       2106  
      1975       1976       1987       1986       2096       2097       2108       2107  
      1976       1977       1988       1987       2097       2098       2109       2108  
      1977       1978       1989       1988       2098       2099       2110       2109  
      1978       1979       1990       1989       2099       2100       2111       2110  
      1979       1980       1991       1990       2100       2101       2112       2111  
      1981       1982       1993       1992       2102       2103       2114       2113  
      1982       1983       1994       1993       2103       2104       2115       2114  
      1983       1984       1995       1994       2104       2105       2116       2115  
      1984       1985       1996       1995       2105       2106       2117       2116  
      1985       1986       1997       1996       2106       2107       2118       2117  
      1986       1987       1998       1997       2107       2108       2119       2118  
      1987       1988       1999       1998       2108       2109       2120       2119  
      1988       1989       2000       1999       2109       2110       2121       2120  
      1989       1990       2001       2000       2110       2111       2122       2121  
      1990       1991       2002       2001       2111       2112       2123       2122  
      1992       1993       2004       2003       2113       2114       2125       2124  
      1993       1994       2005       2004       2114       2115       2126       2125  
      1994       1995       2006       2005       2115       2116       2127       2126  
      1995       1996       2007       2006       2116       2117       2128       2127  
      1996       1997       2008       2007       2117       2118       2129       2128  
      1997       1998       2009       2008       2118       2119       2130       2129  
      1998       1999       2010       2009       2119       2120       2131       2130  
      1999       2000       2011       2010       2120       2121       2132       2131  
      2000       2001       2012       2011       2121       2122       2133       2132  
      2001       2002       2013       2012       2122       2123       2134       2133  
      2003       2004       2015       2014       2124       2125       2136       2135  
      2004       2005       2016       2015       2125       2126       2137       2136  
      2005       2006       2017       2016       2126       2127       2138       2137  
      2006       2007       2018       2017       2127       2128       2139       2138  
      2007       2008       2019       2018       2128       2129       2140       2139  
      2008       2009       2020       2019       2129       2130       2141       2140  
      2009       2010       2021       2020       2130       2131       2142       2141  
      2010       2011       2022       2021       2131       2132       2143       2142  
      2011       2012       2023       2022       2132       2133       2144       2143  
      2012       2013       2024       2023       2133       2134       2145       2144  
      2014       2015       2026       2025       2135       2136       2147       2146  
      2015       2016       2027       2026       2136       2137       2148       2147  
      2016       2017       2028       2027       2137       2138       2149       2148  
      2017       2018       2029       2028       2138       2139       2150       2149  
      2018       2019       2030       2029       2139       2140       2151       2150  
      2019       2020       2031       2030       2140       2141       2152       2151  
      2020       2021       2032       2031       2141       2142       2153       2152  
      2021       2022       2033       2032       2142       2143       2154       2153  
      2022       2023       2034       2033       2143       2144       2155       2154  
      2023       2024       2035       2034       2144       2145       2156       2155  
      2025       2026       2037       2036       2146       2147       2158       2157  
      2026       2027       2038       2037       2147       2148       2159       2158  
      2027       2028       2039       2038       2148       2149       2160       2159  
      2028       2029       2040       2039       2149       2150       2161       2160  
      2029       2030       2041       2040       2150       2151       2162       2161  
      2030       2031       2042       2041       2151       2152       2163       2162  
      2031       2032       2043       2042       2152       2153       2164       2163  
      2032       2033       2044       2043       2153       2154       2165       2164  
      2033       2034       2045       2044       2154       2155       2166       2165  
      2034       2035       2046       2045       2155       2156       2167       2166  
      2036       2037       2048       2047       2157       2158       2169       2168  
      2037       2038       2049       2048       2158       2159       2170       2169  
      2038       2039       2050       2049       2159       2160       2171       2170  
      2039       2040       2051       2050       2160       2161       2172       2171  
      2040       2041       2052       2051       2161       2162       2173       2172  
      2041       2042       2053       2052       2162       2163       2174       2173  
      2042       2043       2054       2053       2163       2164       2175       2174  
      2043       2044       2055       2054       2164       2165       2176       2175  
      2044       2045       2056       2055       2165       2166       2177       2176  
      2045       2046       2057       2056       2166       2167       2178       2177  
      2058       2059       2070       2069       2179       2180       2191       2190  
      2059       2060       2071       2070       2180       2181       2192       2191  
      2060       2061       2072       2071       2181       2182       2193       2192  
      2061       2062       2073       2072       2182       2183       2194       2193  
      2062       2063       2074       2073       2183       2184       2195       2194  
      2063       2064       2075       2074       2184       2185       2196       2195  
      2064       2065       2076       2075       2185       2186       2197       2196  
      2065       2066       2077       2076       2186       2187       2198       2197  
      2066       2067       2078       2077       2187       2188       2199       2198  
      2067       2068       2079       2078       2188       2189       2200       2199  
      2069       2070       2081       2080       2190       2191       2202       2201  
      2070       2071       2082       2081       2191       2192       2203       2202  
      2071       2072       2083       2082       2192       2193       2204       2203  
      2072       2073       2084       2083       2193       2194       2205       2204  
      2073       2074       2085       2084       2194       2195       2206       2205  
      2074       2075       2086       2085       2195       2196       2207       2206  
      2075       2076       2087       2086       2196       2197       2208       2207  
      2076       2077       2088       2087       2197       2198       2209       2208  
      2077       2078       2089       2088       2198       2199       2210       2209  
      2078       2079       2090       2089       2199       2200       2211       2210  
      2080       2081       2092       2091       2201       2202       2213       2212  
      2081       2082       2093       2092       2202       2203       2214       2213  
      2082       2083       2094       2093       2203       2204       2215       2214  
      2083       2084       2095       2094       2204       2205       2216       2215  
      2084       2085       2096       2095       2205       2206       2217       2216  
      2085       2086       2097       2096       2206       2207       2218       2217  
      2086       2087       2098       2097       2207       2208       2219       2218  
      2087       2088       2099       2098       2208       2209       2220       2219  
      2088       2089       2100       2099       2209       2210       2221       2220  
      2089       2090       2101       2100       2210       2211       2222       2221  
      2091       2092       2103       2102       2212       2213       2224       2223  
      2092       2093       2104       2103       2213       2214       2225       2224  
      2093       2094       2105       2104       2214       2215       2226       2225  
      2094       2095       2106       2105       2215       2216       2227       2226  
      2095       2096       2107       2106       2216       2217       2228       2227  
      2096       2097       2108       2107       2217       2218       2229       2228  
      2097       2098       2109       2108       2218       2219       2230       2229  
      2098       2099       2110       2109       2219       2220       2231       2230  
      2099       2100       2111       2110       2220       2221       2232       2231  
      2100       2101       2112       2111       2221       2222       2233       2232  
      2102       2103       2114       2113       2223       2224       2235       2234  
      2103       2104       2115       2114       2224       2225       2236       2235  
      2104       2105       2116       2115       2225       2226       2237       2236  
      2105       2106       2117       2116       2226       2227       2238       2237  
      2106       2107       2118       2117       2227       2228       2239       2238  
      2107       2108       2119       2118       2228       2229       2240       2239  
      2108       2109       2120       2119       2229       2230       2241       2240  
      2109       2110       2121       2120       2230       2231       2242       2241  
      2110       2111       2122       2121       2231       2232       2243       2242  
      2111       2112       2123       2122       2232       2233       2244       2243  
      2113       2114       2125       2124       2234       2235       2246       2245  
      2114       2115       2126       2125       2235       2236       2247       2246  
      2115       2116       2127       2126       2236       2237       2248       2247  
      2116       2117       2128       2127       2237       2238       2249       2248  
      2117       2118       2129       2128       2238       2239       2250       2249  
      2118       2119       2130       2129       2239       2240       2251       2250  
      2119       2120       2131       2130       2240       2241       2252       2251  
      2120       2121       2132       2131       2241       2242       2253       2252  
      2121       2122       2133       2132       2242       2243       2254       2253  
      2122       2123       2134       2133       2243       2244       2255       2254  
      2124       2125       2136       2135       2245       2246       2257       2256  
      2125       2126       2137       2136       2246       2247       2258       2257  
      2126       2127       2138       2137       2247       2248       2259       2258  
      2127       2128       2139       2138       2248       2249       2260       2259  
      2128       2129       2140       2139       2249       2250       2261       2260  
      2129       2130       2141       2140       2250       2251       2262       2261  
      2130       2131       2142       2141       2251       2252       2263       2262  
      2131       2132       2143       2142       2252       2253       2264       2263  
      2132       2133       2144       2143       2253       2254       2265       2264  
      2133       2134       2145       2144       2254       2255       2266       2265  
      2135       2136       2147       2146       2256       2257       2268       2267  
      2136       2137       2148       2147       2257       2258       2269       2268  
      2137       2138       2149       2148       2258       2259       2270       2269  
      2138       2139       2150       2149       2259       2260       2271       2270  
      2139       2140       2151       2150       2260       2261       2272       2271  
      2140       2141       2152       2151       2261       2262       2273       2272  
      2141       2142       2153       2152       2262       2263       2274       2273  
      2142       2143       2154       2153       2263       2264       2275       2274  
      2143       2144       2155       2154       2264       2265       2276       2275  
      2144       2145       2156       2155       2265       2266       2277       2276  
      2146       2147       2158       2157       2267       2268       2279       2278  
      2147       2148       2159       2158       2268       2269       2280       2279  
      2148       2149       2160       2159       2269       2270       2281       2280  
      2149       2150       2161       2160       2270       2271       2282       2281  
      2150       2151       2162       2161       2271       2272       2283       2282  
      2151       2152       2163       2162       2272       2273       2284       2283  
      2152       2153       2164       2163       2273       2274       2285       2284  
      2153       2154       2165       2164       2274       2275       2286       2285  
      2154       2155       2166       2165       2275       2276       2287       2286  
      2155       2156       2167       2166       2276       2277       2288       2287  
      2157       2158       2169       2168       2278       2279       2290       2289  
      2158       2159       2170       2169       2279       2280       2291       2290  
      2159       2160       2171       2170       2280       2281       2292       2291  
      2160       2161       2172       2171       2281       2282       2293       2292  
      2161       2162       2173       2172       2282       2283       2294       2293  
      2162       2163       2174       2173       2283       2284       2295       2294  
      2163       2164       2175       2174       2284       2285       2296       2295  
      2164       2165       2176       2175       2285       2286       2297       2296  
      2165       2166       2177       2176       2286       2287       2298       2297  
      2166       2167       2178       2177       2287       2288       2299       2298  
      2179       2180       2191       2190       2300       2301       2312       2311  
      2180       2181       2192       2191       2301       2302       2313       2312  
      2181       2182       2193       2192       2302       2303       2314       2313  
      2182       2183       2194       2193       2303       2304       2315       2314  
      2183       2184       2195       2194       2304       2305       2316       2315  
      2184       2185       2196       2195       2305       2306       2317       2316  
      2185       2186       2197       2196       2306       2307       2318       2317  
      2186       2187       2198       2197       2307       2308       2319       2318  
      2187       2188       2199       2198       2308       2309       2320       2319  
      2188       2189       2200       2199       2309       2310       2321       2320  
      2190       2191       2202       2201       2311       2312       2323       2322  
      2191       2192       2203       2202       2312       2313       2324       2323  
      2192       2193       2204       2203       2313       2314       2325       2324  
      2193       2194       2205       2204       2314       2315       2326       2325  
      2194       2195       2206       2205       2315       2316       2327       2326  
      2195       2196       2207       2206       2316       2317       2328       2327  
      2196       2197       2208       2207       2317       2318       2329       2328  
      2197       2198       2209       2208       2318       2319       2330       2329  
      2198       2199       2210       2209       2319       2320       2331       2330  
      2199       2200       2211       2210       2320       2321       2332       2331  
      2201       2202       2213       2212       2322       2323       2334       2333  
      2202       2203       2214       2213       2323       2324       2335       2334  
      2203       2204       2215       2214       2324       2325       2336       2335  
      2204       2205       2216       2215       2325       2326       2337       2336  
      2205       2206       2217       2216       2326       2327       2338       2337  
      2206       2207       2218       2217       2327       2328       2339       2338  
      2207       2208       2219       2218       2328       2329       2340       2339  
      2208       2209       2220       2219       2329       2330       2341       2340  
      2209       2210       2221       2220       2330       2331       2342       2341  
      2210       2211       2222       2221       2331       2332       2343       2342  
      2212       2213       2224       2223       2333       2334       2345       2344  
      2213       2214       2225       2224       2334       2335       2346       2345  
      2214       2215       2226       2225       2335       2336       2347       2346  
      2215       2216       2227       2226       2336       2337       2348       2347  
      2216       2217       2228       2227       2337       2338       2349       2348  
      2217       2218       2229       2228       2338       2339       2350       2349  
      2218       2219       2230       2229       2339       2340       2351       2350  
      2219       2220       2231       2230       2340       2341       2352       2351  
      2220       2221       2232       2231       2341       2342       2353       2352  
      2221       2222       2233       2232       2342       2343       2354       2353  
      2223       2224       2235       2234       2344       2345       2356       2355  
      2224       2225       2236       2235       2345       2346       2357       2356  
      2225       2226       2237       2236       2346       2347       2358       2357  
      2226       2227       2238       2237       2347       2348       2359       2358  
      2227       2228       2239       2238       2348       2349       2360       2359  
      2228       2229       2240       2239       2349       2350       2361       2360  
      2229       2230       2241       2240       2350       2351       2362       2361  
      2230       2231       2242       2241       2351       2352       2363       2362  
      2231       2232       2243       2242       2352       2353       2364       2363  
      2232       2233       2244       2243       2353       2354       2365       2364  
      2234       2235       2246       2245       2355       2356       2367       2366  
      2235       2236       2247       2246       2356       2357       2368       2367  
      2236       2237       2248       2247       2357       2358       2369       2368  
      2237       2238       2249       2248       2358       2359       2370       2369  
      2238       2239       2250       2249       2359       2360       2371       2370  
      2239       2240       2251       2250       2360       2361       2372       2371  
      2240       2241       2252       2251       2361       2362       2373       2372  
      2241       2242       2253       2252       2362       2363       2374       2373  
      2242       2243       2254       2253       2363       2364       2375       2374  
      2243       2244       2255       2254       2364       2365       2376       2375  
      2245       2246       2257       2256       2366       2367       2378       2377  
      2246       2247       2258       2257       2367       2368       2379       2378  
      2247       2248       2259       2258       2368       2369       2380       2379  
      2248       2249       2260       2259       2369       2370       2381       2380  
      2249       2250       2261       2260       2370       2371       2382       2381  
      2250       2251       2262       2261       2371       2372       2383       2382  
      2251       2252       2263       2262       2372       2373       2384       2383  
      2252       2253       2264       2263       2373       2374       2385       2384  
      2253       2254       2265       2264       2374       2375       2386       2385  
      2254       2255       2266       2265       2375       2376       2387       2386  
      2256       2257       2268       2267       2377       2378       2389       2388  
      2257       2258       2269       2268       2378       2379       2390       2389  
      2258       2259       2270       2269       2379       2380       2391       2390  
      2259       2260       2271       2270       2380       2381       2392       2391  
      2260       2261       2272       2271       2381       2382       2393       2392  
      2261       2262       2273       2272       2382       2383       2394       2393  
      2262       2263       2274       2273       2383       2384       2395       2394  
      2263       2264       2275       2274       2384       2385       2396       2395  
      2264       2265       2276       2275       2385       2386       2397       2396  
      2265       2266       2277       2276       2386       2387       2398       2397  
      2267       2268       2279       2278       2388       2389       2400       2399  
      2268       2269       2280       2279       2389       2390       2401       2400  
      2269       2270       2281       2280       2390       2391       2402       2401  
      2270       2271       2282       2281       2391       2392       2403       2402  
      2271       2272       2283       2282       2392       2393       2404       2403  
      2272       2273       2284       2283       2393       2394       2405       2404  
      2273       2274       2285       2284       2394       2395       2406       2405  
      2274       2275       2286       2285       2395       2396       2407       2406  
      2275       2276       2287       2286       2396       2397       2408       2407  
      2276       2277       2288       2287       2397       2398       2409       2408  
      2278       2279       2290       2289       2399       2400       2411       2410  
      2279       2280       2291       2290       2400       2401       2412       2411  
      2280       2281       2292       2291       2401       2402       2413       2412  
      2281       2282       2293       2292       2402       2403       2414       2413  
      2282       2283       2294       2293       2403       2404       2415       2414  
      2283       2284       2295       2294       2404       2405       2416       2415  
      2284       2285       2296       2295       2405       2406       2417       2416  
      2285       2286       2297       2296       2406       2407       2418       2417  
      2286       2287       2298       2297       2407       2408       2419       2418  
      2287       2288       2299       2298       2408       2409       2420       2419  
      2300       2301       2312       2311       2421       2422       2433       2432  
      2301       2302       2313       2312       2422       2423       2434       2433  
      2302       2303       2314       2313       2423       2424       2435       2434  
      2303       2304       2315       2314       2424       2425       2436       2435  
      2304       2305       2316       2315       2425       2426       2437       2436  
      2305       2306       2317       2316       2426       2427       2438       2437  
      2306       2307       2318       2317       2427       2428       2439       2438  
      2307       2308       2319       2318       2428       2429       2440       2439  
      2308       2309       2320       2319       2429       2430       2441       2440  
      2309       2310       2321       2320       2430       2431       2442       2441  
      2311       2312       2323       2322       2432       2433       2444       2443  
      2312       2313       2324       2323       2433       2434       2445       2444  
      2313       2314       2325       2324       2434       2435       2446       2445  
      2314       2315       2326       2325       2435       2436       2447       2446  
      2315       2316       2327       2326       2436       2437       2448       2447  
      2316       2317       2328       2327       2437       2438       2449       2448  
      2317       2318       2329       2328       2438       2439       2450       2449  
      2318       2319       2330       2329       2439       2440       2451       2450  
      2319       2320       2331       2330       2440       2441       2452       2451  
      2320       2321       2332       2331       2441       2442       2453       2452  
      2322       2323       2334       2333       2443       2444       2455       2454  
      2323       2324       2335       2334       2444       2445       2456       2455  
      2324       2325       2336       2335       2445       2446       2457       2456  
      2325       2326       2337       2336       2446       2447       2458       2457  
      2326       2327       2338       2337       2447       2448       2459       2458  
      2327       2328       2339       2338       2448       2449       2460       2459  
      2328       2329       2340       2339       2449       2450       2461       2460  
      2329       2330       2341       2340       2450       2451       2462       2461  
      2330       2331       2342       2341       2451       2452       2463       2462  
      2331       2332       2343       2342       2452       2453       2464       2463  
      2333       2334       2345       2344       2454       2455       2466       2465  
      2334       2335       2346       2345       2455       2456       2467       2466  
      2335       2336       2347       2346       2456       2457       2468       2467  
      2336       2337       2348       2347       2457       2458       2469       2468  
      2337       2338       2349       2348       2458       2459       2470       2469  
      2338       2339       2350       2349       2459       2460       2471       2470  
      2339       2340       2351       2350       2460       2461       2472       2471  
      2340       2341       2352       2351       2461       2462       2473       2472  
      2341       2342       2353       2352       2462       2463       2474       2473  
      2342       2343       2354       2353       2463       2464       2475       2474  
      2344       2345       2356       2355       2465       2466       2477       2476  
      2345       2346       2357       2356       2466       2467       2478       2477  
      2346       2347       2358       2357       2467       2468       2479       2478  
      2347       2348       2359       2358       2468       2469       2480       2479  
      2348       2349       2360       2359       2469       2470       2481       2480  
      2349       2350       2361       2360       2470       2471       2482       2481  
      2350       2351       2362       2361       2471       2472       2483       2482  
      2351       2352       2363       2362       2472       2473       2484       2483  
      2352       2353       2364       2363       2473       2474       2485       2484  
      2353       2354       2365       2364       2474       2475       2486       2485  
      2355       2356       2367       2366       2476       2477       2488       2487  
      2356       2357       2368       2367       2477       2478       2489       2488  
      2357       2358       2369       2368       2478       2479       2490       2489  
      2358       2359       2370       2369       2479       2480       2491       2490  
      2359       2360       2371       2370       2480       2481       2492       2491  
      2360       2361       2372       2371       2481       2482       2493       2492  
      2361       2362       2373       2372       2482       2483       2494       2493  
      2362       2363       2374       2373       2483       2484       2495       2494  
      2363       2364       2375       2374       2484       2485       2496       2495  
      2364       2365       2376       2375       2485       2486       2497       2496  
      2366       2367       2378       2377       2487       2488       2499       2498  
      2367       2368       2379       2378       2488       2489       2500       2499  
      2368       2369       2380       2379       2489       2490       2501       2500  
      2369       2370       2381       2380       2490       2491       2502       2501  
      2370       2371       2382       2381       2491       2492       2503       2502  
      2371       2372       2383       2382       2492       2493       2504       2503  
      2372       2373       2384       2383       2493       2494       2505       2504  
      2373       2374       2385       2384       2494       2495       2506       2505  
      2374       2375       2386       2385       2495       2496       2507       2506  
      2375       2376       2387       2386       2496       2497       2508       2507  
      2377       2378       2389       2388       2498       2499       2510       2509  
      2378       2379       2390       2389       2499       2500       2511       2510  
      2379       2380       2391       2390       2500       2501       2512       2511  
      2380       2381       2392       2391       2501       2502       2513       2512  
      2381       2382       2393       2392       2502       2503       2514       2513  
      2382       2383       2394       2393       2503       2504       2515       2514  
      2383       2384       2395       2394       2504       2505       2516       2515  
      2384       2385       2396       2395       2505       2506       2517       2516  
      2385       2386       2397       2396       2506       2507       2518       2517  
      2386       2387       2398       2397       2507       2508       2519       2518  
      2388       2389       2400       2399       2509       2510       2521       2520  
      2389       2390       2401       2400       2510       2511       2522       2521  
      2390       2391       2402       2401       2511       2512       2523       2522  
      2391       2392       2403       2402       2512       2513       2524       2523  
      2392       2393       2404       2403       2513       2514       2525       2524  
      2393       2394       2405       2404       2514       2515       2526       2525  
      2394       2395       2406       2405       2515       2516       2527       2526  
      2395       2396       2407       2406       2516       2517       2528       2527  
      2396       2397       2408       2407       2517       2518       2529       2528  
      2397       2398       2409       2408       2518       2519       2530       2529  
      2399       2400       2411       2410       2520       2521       2532       2531  
      2400       2401       2412       2411       2521       2522       2533       2532  
      2401       2402       2413       2412       2522       2523       2534       2533  
      2402       2403       2414       2413       2523       2524       2535       2534  
      2403       2404       2415       2414       2524       2525       2536       2535  
      2404       2405       2416       2415       2525       2526       2537       2536  
      2405       2406       2417       2416       2526       2527       2538       2537  
      2406       2407       2418       2417       2527       2528       2539       2538  
      2407       2408       2419       2418       2528       2529       2540       2539  
      2408       2409       2420       2419       2529       2530       2541       2540  
      2421       2422       2433       2432       2542       2543       2554       2553  
      2422       2423       2434       2433       2543       2544       2555       2554  
      2423       2424       2435       2434       2544       2545       2556       2555  
      2424       2425       2436       2435       2545       2546       2557       2556  
      2425       2426       2437       2436       2546       2547       2558       2557  
      2426       2427       2438       2437       2547       2548       2559       2558  
      2427       2428       2439       2438       2548       2549       2560       2559  
      2428       2429       2440       2439       2549       2550       2561       2560  
      2429       2430       2441       2440       2550       2551       2562       2561  
      2430       2431       2442       2441       2551       2552       2563       2562  
      2432       2433       2444       2443       2553       2554       2565       2564  
      2433       2434       2445       2444       2554       2555       2566       2565  
      2434       2435       2446       2445       2555       2556       2567       2566  
      2435       2436       2447       2446       2556       2557       2568       2567  
      2436       2437       2448       2447       2557       2558       2569       2568  
      2437       2438       2449       2448       2558       2559       2570       2569  
      2438       2439       2450       2449       2559       2560       2571       2570  
      2439       2440       2451       2450       2560       2561       2572       2571  
      2440       2441       2452       2451       2561       2562       2573       2572  
      2441       2442       2453       2452       2562       2563       2574       2573  
      2443       2444       2455       2454       2564       2565       2576       2575  
      2444       2445       2456       2455       2565       2566       2577       2576  
      2445       2446       2457       2456       2566       2567       2578       2577  
      2446       2447       2458       2457       2567       2568       2579       2578  
      2447       2448       2459       2458       2568       2569       2580       2579  
      2448       2449       2460       2459       2569       2570       2581       2580  
      2449       2450       2461       2460       2570       2571       2582       2581  
      2450       2451       2462       2461       2571       2572       2583       2582  
      2451       2452       2463       2462       2572       2573       2584       2583  
      2452       2453       2464       2463       2573       2574       2585       2584  
      2454       2455       2466       2465       2575       2576       2587       2586  
      2455       2456       2467       2466       2576       2577       2588       2587  
      2456       2457       2468       2467       2577       2578       2589       2588  
      2457       2458       2469       2468       2578       2579       2590       2589  
      2458       2459       2470       2469       2579       2580       2591       2590  
      2459       2460       2471       2470       2580       2581       2592       2591  
      2460       2461       2472       2471       2581       2582       2593       2592  
      2461       2462       2473       2472       2582       2583       2594       2593  
      2462       2463       2474       2473       2583       2584       2595       2594  
      2463       2464       2475       2474       2584       2585       2596       2595  
      2465       2466       2477       2476       2586       2587       2598       2597  
      2466       2467       2478       2477       2587       2588       2599       2598  
      2467       2468       2479       2478       2588       2589       2600       2599  
      2468       2469       2480       2479       2589       2590       2601       2600  
      2469       2470       2481       2480       2590       2591       2602       2601  
      2470       2471       2482       2481       2591       2592       2603       2602  
      2471       2472       2483       2482       2592       2593       2604       2603  
      2472       2473       2484       2483       2593       2594       2605       2604  
      2473       2474       2485       2484       2594       2595       2606       2605  
      2474       2475       2486       2485       2595       2596       2607       2606  
      2476       2477       2488       2487       2597       2598       2609       2608  
      2477       2478       2489       2488       2598       2599       2610       2609  
      2478       2479       2490       2489       2599       2600       2611       2610  
      2479       2480       2491       2490       2600       2601       2612       2611  
      2480       2481       2492       2491       2601       2602       2613       2612  
      2481       2482       2493       2492       2602       2603       2614       2613  
      2482       2483       2494       2493       2603       2604       2615       2614  
      2483       2484       2495       2494       2604       2605       2616       2615  
      2484       2485       2496       2495       2605       2606       2617       2616  
      2485       2486       2497       2496       2606       2607       2618       2617  
      2487       2488       2499       2498       2608       2609       2620       2619  
      2488       2489       2500       2499       2609       2610       2621       2620  
      2489       2490       2501       2500       2610       2611       2622       2621  
      2490       2491       2502       2501       2611       2612       2623       2622  
      2491       2492       2503       2502       2612       2613       2624       2623  
      2492       2493       2504       2503       2613       2614       2625       2624  
      2493       2494       2505       2504       2614       2615       2626       2625  
      2494       2495       2506       2505       2615       2616       2627       2626  
      2495       2496       2507       2506       2616       2617       2628       2627  
      2496       2497       2508       2507       2617       2618       2629       2628  
      2498       2499       2510       2509       2619       2620       2631       2630  
      2499       2500       2511       2510       2620       2621       2632       2631  
      2500       2501       2512       2511       2621       2622       2633       2632  
      2501       2502       2513       2512       2622       2623       2634       2633  
      2502       2503       2514       2513       2623       2624       2635       2634  
      2503       2504       2515       2514       2624       2625       2636       2635  
      2504       2505       2516       2515       2625       2626       2637       2636  
      2505       2506       2517       2516       2626       2627       2638       2637  
      2506       2507       2518       2517       2627       2628       2639       2638  
      2507       2508       2519       2518       2628       2629       2640       2639  
      2509       2510       2521       2520       2630       2631       2642       2641  
      2510       2511       2522       2521       2631       2632       2643       2642  
      2511       2512       2523       2522       2632       2633       2644       2643  
      2512       2513       2524       2523       2633       2634       2645       2644  
      2513       2514       2525       2524       2634       2635       2646       2645  
      2514       2515       2526       2525       2635       2636       2647       2646  
      2515       2516       2527       2526       2636       2637       2648       2647  
      2516       2517       2528       2527       2637       2638       2649       2648  
      2517       2518       2529       2528       2638       2639       2650       2649  
      2518       2519       2530       2529       2639       2640       2651       2650  
      2520       2521       2532       2531       2641       2642       2653       2652  
      2521       2522       2533       2532       2642       2643       2654       2653  
      2522       2523       2534       2533       2643       2644       2655       2654  
      2523       2524       2535       2534       2644       2645       2656       2655  
      2524       2525       2536       2535       2645       2646       2657       2656  
      2525       2526       2537       2536       2646       2647       2658       2657  
      2526       2527       2538       2537       2647       2648       2659       2658  
      2527       2528       2539       2538       2648       2649       2660       2659  
      2528       2529       2540       2539       2649       2650       2661       2660  
      2529       2530       2541       2540       2650       2651       2662       2661  
      2542       2543       2554       2553       2663       2664       2675       2674  
      2543       2544       2555       2554       2664       2665       2676       2675  
      2544       2545       2556       2555       2665       2666       2677       2676  
      2545       2546       2557       2556       2666       2667       2678       2677  
      2546       2547       2558       2557       2667       2668       2679       2678  
      2547       2548       2559       2558       2668       2669       2680       2679  
      2548       2549       2560       2559       2669       2670       2681       2680  
      2549       2550       2561       2560       2670       2671       2682       2681  
      2550       2551       2562       2561       2671       2672       2683       2682  
      2551       2552       2563       2562       2672       2673       2684       2683  
      2553       2554       2565       2564       2674       2675       2686       2685  
      2554       2555       2566       2565       2675       2676       2687       2686  
      2555       2556       2567       2566       2676       2677       2688       2687  
      2556       2557       2568       2567       2677       2678       2689       2688  
      2557       2558       2569       2568       2678       2679       2690       2689  
      2558       2559       2570       2569       2679       2680       2691       2690  
      2559       2560       2571       2570       2680       2681       2692       2691  
      2560       2561       2572       2571       2681       2682       2693       2692  
      2561       2562       2573       2572       2682       2683       2694       2693  
      2562       2563       2574       2573       2683       2684       2695       2694  
      2564       2565       2576       2575       2685       2686       2697       2696  
      2565       2566       2577       2576       2686       2687       2698       2697  
      2566       2567       2578       2577       2687       2688       2699       2698  
      2567       2568       2579       2578       2688       2689       2700       2699  
      2568       2569       2580       2579       2689       2690       2701       2700  
      2569       2570       2581       2580       2690       2691       2702       2701  
      2570       2571       2582       2581       2691       2692       2703       2702  
      2571       2572       2583       2582       2692       2693       2704       2703  
      2572       2573       2584       2583       2693       2694       2705       2704  
      2573       2574       2585       2584       2694       2695       2706       2705  
      2575       2576       2587       2586       2696       2697       2708       2707  
      2576       2577       2588       2587       2697       2698       2709       2708  
      2577       2578       2589       2588       2698       2699       2710       2709  
      2578       2579       2590       2589       2699       2700       2711       2710  
      2579       2580       2591       2590       2700       2701       2712       2711  
      2580       2581       2592       2591       2701       2702       2713       2712  
      2581       2582       2593       2592       2702       2703       2714       2713  
      2582       2583       2594       2593       2703       2704       2715       2714  
      2583       2584       2595       2594       2704       2705       2716       2715  
      2584       2585       2596       2595       2705       2706       2717       2716  
      2586       2587       2598       2597       2707       2708       2719       2718  
      2587       2588       2599       2598       2708       2709       2720       2719  
      2588       2589       2600       2599       2709       2710       2721       2720  
      2589       2590       2601       2600       2710       2711       2722       2721  
      2590       2591       2602       2601       2711       2712       2723       2722  
      2591       2592       2603       2602       2712       2713       2724       2723  
      2592       2593       2604       2603       2713       2714       2725       2724  
      2593       2594       2605       2604       2714       2715       2726       2725  
      2594       2595       2606       2605       2715       2716       2727       2726  
      2595       2596       2607       2606       2716       2717       2728       2727  
      2597       2598       2609       2608       2718       2719       2730       2729  
      2598       2599       2610       2609       2719       2720       2731       2730  
      2599       2600       2611       2610       2720       2721       2732       2731  
      2600       2601       2612       2611       2721       2722       2733       2732  
      2601       2602       2613       2612       2722       2723       2734       2733  
      2602       2603       2614       2613       2723       2724       2735       2734  
      2603       2604       2615       2614       2724       2725       2736       2735  
      2604       2605       2616       2615       2725       2726       2737       2736  
      2605       2606       2617       2616       2726       2727       2738       2737  
      2606       2607       2618       2617       2727       2728       2739       2738  
      2608       2609       2620       2619       2729       2730       2741       2740  
      2609       2610       2621       2620       2730       2731       2742       2741  
      2610       2611       2622       2621       2731       2732       2743       2742  
      2611       2612       2623       2622       2732       2733       2744       2743  
      2612       2613       2624       2623       2733       2734       2745       2744  
      2613       2614       2625       2624       2734       2735       2746       2745  
      2614       2615       2626       2625       2735       2736       2747       2746  
      2615       2616       2627       2626       2736       2737       2748       2747  
      2616       2617       2628       2627       2737       2738       2749       2748  
      2617       2618       2629       2628       2738       2739       2750       2749  
      2619       2620       2631       2630       2740       2741       2752       2751  
      2620       2621       2632       2631       2741       2742       2753       2752  
      2621       2622       2633       2632       2742       2743       2754       2753  
      2622       2623       2634       2633       2743       2744       2755       2754  
      2623       2624       2635       2634       2744       2745       2756       2755  
      2624       2625       2636       2635       2745       2746       2757       2756  
      2625       2626       2637       2636       2746       2747       2758       2757  
      2626       2627       2638       2637       2747       2748       2759       2758  
      2627       2628       2639       2638       2748       2749       2760       2759  
      2628       2629       2640       2639       2749       2750       2761       2760  
      2630       2631       2642       2641       2751       2752       2763       2762  
      2631       2632       2643       2642       2752       2753       2764       2763  
      2632       2633       2644       2643       2753       2754       2765       2764  
      2633       2634       2645       2644       2754       2755       2766       2765  
      2634       2635       2646       2645       2755       2756       2767       2766  
      2635       2636       2647       2646       2756       2757       2768       2767  
      2636       2637       2648       2647       2757       2758       2769       2768  
      2637       2638       2649       2648       2758       2759       2770       2769  
      2638       2639       2650       2649       2759       2760       2771       2770  
      2639       2640       2651       2650       2760       2761       2772       2771  
      2641       2642       2653       2652       2762       2763       2774       2773  
      2642       2643       2654       2653       2763       2764       2775       2774  
      2643       2644       2655       2654       2764       2765       2776       2775  
      2644       2645       2656       2655       2765       2766       2777       2776  
      2645       2646       2657       2656       2766       2767       2778       2777  
      2646       2647       2658       2657       2767       2768       2779       2778  
      2647       2648       2659       2658       2768       2769       2780       2779  
      2648       2649       2660       2659       2769       2770       2781       2780  
      2649       2650       2661       2660       2770       2771       2782       2781  
      2650       2651       2662       2661       2771       2772       2783       2782  
      2663       2664       2675       2674       2784       2785       2796       2795  
      2664       2665       2676       2675       2785       2786       2797       2796  
      2665       2666       2677       2676       2786       2787       2798       2797  
      2666       2667       2678       2677       2787       2788       2799       2798  
      2667       2668       2679       2678       2788       2789       2800       2799  
      2668       2669       2680       2679       2789       2790       2801       2800  
      2669       2670       2681       2680       2790       2791       2802       2801  
      2670       2671       2682       2681       2791       2792       2803       2802  
      2671       2672       2683       2682       2792       2793       2804       2803  
      2672       2673       2684       2683       2793       2794       2805       2804  
      2674       2675       2686       2685       2795       2796       2807       2806  
      2675       2676       2687       2686       2796       2797       2808       2807  
      2676       2677       2688       2687       2797       2798       2809       2808  
      2677       2678       2689       2688       2798       2799       2810       2809  
      2678       2679       2690       2689       2799       2800       2811       2810  
      2679       2680       2691       2690       2800       2801       2812       2811  
      2680       2681       2692       2691       2801       2802       2813       2812  
      2681       2682       2693       2692       2802       2803       2814       2813  
      2682       2683       2694       2693       2803       2804       2815       2814  
      2683       2684       2695       2694       2804       2805       2816       2815  
      2685       2686       2697       2696       2806       2807       2818       2817  
      2686       2687       2698       2697       2807       2808       2819       2818  
      2687       2688       2699       2698       2808       2809       2820       2819  
      2688       2689       2700       2699       2809       2810       2821       2820  
      2689       2690       2701       2700       2810       2811       2822       2821  
      2690       2691       2702       2701       2811       2812       2823       2822  
      2691       2692       2703       2702       2812       2813       2824       2823  
      2692       2693       2704       2703       2813       2814       2825       2824  
      2693       2694       2705       2704       2814       2815       2826       2825  
      2694       2695       2706       2705       2815       2816       2827       2826  
      2696       2697       2708       2707       2817       2818       2829       2828  
      2697       2698       2709       2708       2818       2819       2830       2829  
      2698       2699       2710       2709       2819       2820       2831       2830  
      2699       2700       2711       2710       2820       2821       2832       2831  
      2700       2701       2712       2711       2821       2822       2833       2832  
      2701       2702       2713       2712       2822       2823       2834       2833  
      2702       2703       2714       2713       2823       2824       2835       2834  
      2703       2704       2715       2714       2824       2825       2836       2835  
      2704       2705       2716       2715       2825       2826       2837       2836  
      2705       2706       2717       2716       2826       2827       2838       2837  
      2707       2708       2719       2718       2828       2829       2840       2839  
      2708       2709       2720       2719       2829       2830       2841       2840  
      2709       2710       2721       2720       2830       2831       2842       2841  
      2710       2711       2722       2721       2831       2832       2843       2842  
      2711       2712       2723       2722       2832       2833       2844       2843  
      2712       2713       2724       2723       2833       2834       2845       2844  
      2713       2714       2725       2724       2834       2835       2846       2845  
      2714       2715       2726       2725       2835       2836       2847       2846  
      2715       2716       2727       2726       2836       2837       2848       2847  
      2716       2717       2728       2727       2837       2838       2849       2848  
      2718       2719       2730       2729       2839       2840       2851       2850  
      2719       2720       2731       2730       2840       2841       2852       2851  
      2720       2721       2732       2731       2841       2842       2853       2852  
      2721       2722       2733       2732       2842       2843       2854       2853  
      2722       2723       2734       2733       2843       2844       2855       2854  
      2723       2724       2735       2734       2844       2845       2856       2855  
      2724       2725       2736       2735       2845       2846       2857       2856  
      2725       2726       2737       2736       2846       2847       2858       2857  
      2726       2727       2738       2737       2847       2848       2859       2858  
      2727       2728       2739       2738       2848       2849       2860       2859  
      2729       2730       2741       2740       2850       2851       2862       2861  
      2730       2731       2742       2741       2851       2852       2863       2862  
      2731       2732       2743       2742       2852       2853       2864       2863  
      2732       2733       2744       2743       2853       2854       2865       2864  
      2733       2734       2745       2744       2854       2855       2866       2865  
      2734       2735       2746       2745       2855       2856       2867       2866  
      2735       2736       2747       2746       2856       2857       2868       2867  
      2736       2737       2748       2747       2857       2858       2869       2868  
      2737       2738       2749       2748       2858       2859       2870       2869  
      2738       2739       2750       2749       2859       2860       2871       2870  
      2740       2741       2752       2751       2861       2862       2873       2872  
      2741       2742       2753       2752       2862       2863       2874       2873  
      2742       2743       2754       2753       2863       2864       2875       2874  
      2743       2744       2755       2754       2864       2865       2876       2875  
      2744       2745       2756       2755       2865       2866       2877       2876  
      2745       2746       2757       2756       2866       2867       2878       2877  
      2746       2747       2758       2757       2867       2868       2879       2878  
      2747       2748       2759       2758       2868       2869       2880       2879  
      2748       2749       2760       2759       2869       2870       2881       2880  
      2749       2750       2761       2760       2870       2871       2882       2881  
      2751       2752       2763       2762       2872       2873       2884       2883  
      2752       2753       2764       2763       2873       2874       2885       2884  
      2753       2754       2765       2764       2874       2875       2886       2885  
      2754       2755       2766       2765       2875       2876       2887       2886  
      2755       2756       2767       2766       2876       2877       2888       2887  
      2756       2757       2768       2767       2877       2878       2889       2888  
      2757       2758       2769       2768       2878       2879       2890       2889  
      2758       2759       2770       2769       2879       2880       2891       2890  
      2759       2760       2771       2770       2880       2881       2892       2891  
      2760       2761       2772       2771       2881       2882       2893       2892  
      2762       2763       2774       2773       2883       2884       2895       2894  
      2763       2764       2775       2774       2884       2885       2896       2895  
      2764       2765       2776       2775       2885       2886       2897       2896  
      2765       2766       2777       2776       2886       2887       2898       2897  
      2766       2767       2778       2777       2887       2888       2899       2898  
      2767       2768       2779       2778       2888       2889       2900       2899  
      2768       2769       2780       2779       2889       2890       2901       2900  
      2769       2770       2781       2780       2890       2891       2902       2901  
      2770       2771       2782       2781       2891       2892       2903       2902  
      2771       2772       2783       2782       2892       2893       2904       2903  
      2784       2785       2796       2795       2905       2906       2917       2916  
      2785       2786       2797       2796       2906       2907       2918       2917  
      2786       2787       2798       2797       2907       2908       2919       2918  
      2787       2788       2799       2798       2908       2909       2920       2919  
      2788       2789       2800       2799       2909       2910       2921       2920  
      2789       2790       2801       2800       2910       2911       2922       2921  
      2790       2791       2802       2801       2911       2912       2923       2922  
      2791       2792       2803       2802       2912       2913       2924       2923  
      2792       2793       2804       2803       2913       2914       2925       2924  
      2793       2794       2805       2804       2914       2915       2926       2925  
      2795       2796       2807       2806       2916       2917       2928       2927  
      2796       2797       2808       2807       2917       2918       2929       2928  
      2797       2798       2809       2808       2918       2919       2930       2929  
      2798       2799       2810       2809       2919       2920       2931       2930  
      2799       2800       2811       2810       2920       2921       2932       2931  
      2800       2801       2812       2811       2921       2922       2933       2932  
      2801       2802       2813       2812       2922       2923       2934       2933  
      2802       2803       2814       2813       2923       2924       2935       2934  
      2803       2804       2815       2814       2924       2925       2936       2935  
      2804       2805       2816       2815       2925       2926       2937       2936  
      2806       2807       2818       2817       2927       2928       2939       2938  
      2807       2808       2819       2818       2928       2929       2940       2939  
      2808       2809       2820       2819       2929       2930       2941       2940  
      2809       2810       2821       2820       2930       2931       2942       2941  
      2810       2811       2822       2821       2931       2932       2943       2942  
      2811       2812       2823       2822       2932       2933       2944       2943  
      2812       2813       2824       2823       2933       2934       2945       2944  
      2813       2814       2825       2824       2934       2935       2946       2945  
      2814       2815       2826       2825       2935       2936       2947       2946  
      2815       2816       2827       2826       2936       2937       2948       2947  
      2817       2818       2829       2828       2938       2939       2950       2949  
      2818       2819       2830       2829       2939       2940       2951       2950  
      2819       2820       2831       2830       2940       2941       2952       2951  
      2820       2821       2832       2831       2941       2942       2953       2952  
      2821       2822       2833       2832       2942       2943       2954       2953  
      2822       2823       2834       2833       2943       2944       2955       2954  
      2823       2824       2835       2834       2944       2945       2956       2955  
      2824       2825       2836       2835       2945       2946       2957       2956  
      2825       2826       2837       2836       2946       2947       2958       2957  
      2826       2827       2838       2837       2947       2948       2959       2958  
      2828       2829       2840       2839       2949       2950       2961       2960  
      2829       2830       2841       2840       2950       2951       2962       2961  
      2830       2831       2842       2841       2951       2952       2963       2962  
      2831       2832       2843       2842       2952       2953       2964       2963  
      2832       2833       2844       2843       2953       2954       2965       2964  
      2833       2834       2845       2844       2954       2955       2966       2965  
      2834       2835       2846       2845       2955       2956       2967       2966  
      2835       2836       2847       2846       2956       2957       2968       2967  
      2836       2837       2848       2847       2957       2958       2969       2968  
      2837       2838       2849       2848       2958       2959       2970       2969  
      2839       2840       2851       2850       2960       2961       2972       2971  
      2840       2841       2852       2851       2961       2962       2973       2972  
      2841       2842       2853       2852       2962       2963       2974       2973  
      2842       2843       2854       2853       2963       2964       2975       2974  
      2843       2844       2855       2854       2964       2965       2976       2975  
      2844       2845       2856       2855       2965       2966       2977       2976  
      2845       2846       2857       2856       2966       2967       2978       2977  
      2846       2847       2858       2857       2967       2968       2979       2978  
      2847       2848       2859       2858       2968       2969       2980       2979  
      2848       2849       2860       2859       2969       2970       2981       2980  
      2850       2851       2862       2861       2971       2972       2983       2982  
      2851       2852       2863       2862       2972       2973       2984       2983  
      2852       2853       2864       2863       2973       2974       2985       2984  
      2853       2854       2865       2864       2974       2975       2986       2985  
      2854       2855       2866       2865       2975       2976       2987       2986  
      2855       2856       2867       2866       2976       2977       2988       2987  
      2856       2857       2868       2867       2977       2978       2989       2988  
      2857       2858       2869       2868       2978       2979       2990       2989  
      2858       2859       2870       2869       2979       2980       2991       2990  
      2859       2860       2871       2870       2980       2981       2992       2991  
      2861       2862       2873       2872       2982       2983       2994       2993  
      2862       2863       2874       2873       2983       2984       2995       2994  
      2863       2864       2875       2874       2984       2985       2996       2995  
      2864       2865       2876       2875       2985       2986       2997       2996  
      2865       2866       2877       2876       2986       2987       2998       2997  
      2866       2867       2878       2877       2987       2988       2999       2998  
      2867       2868       2879       2878       2988       2989       3000       2999  
      2868       2869       2880       2879       2989       2990       3001       3000  
      2869       2870       2881       2880       2990       2991       3002       3001  
      2870       2871       2882       2881       2991       2992       3003       3002  
      2872       2873       2884       2883       2993       2994       3005       3004  
      2873       2874       2885       2884       2994       2995       3006       3005  
      2874       2875       2886       2885       2995       2996       3007       3006  
      2875       2876       2887       2886       2996       2997       3008       3007  
      2876       2877       2888       2887       2997       2998       3009       3008  
      2877       2878       2889       2888       2998       2999       3010       3009  
      2878       2879       2890       2889       2999       3000       3011       3010  
      2879       2880       2891       2890       3000       3001       3012       3011  
      2880       2881       2892       2891       3001       3002       3013       3012  
      2881       2882       2893       2892       3002       3003       3014       3013  
      2883       2884       2895       2894       3004       3005       3016       3015  
      2884       2885       2896       2895       3005       3006       3017       3016  
      2885       2886       2897       2896       3006       3007       3018       3017  
      2886       2887       2898       2897       3007       3008       3019       3018  
      2887       2888       2899       2898       3008       3009       3020       3019  
      2888       2889       2900       2899       3009       3010       3021       3020  
      2889       2890       2901       2900       3010       3011       3022       3021  
      2890       2891       2902       2901       3011       3012       3023       3022  
      2891       2892       2903       2902       3012       3013       3024       3023  
      2892       2893       2904       2903       3013       3014       3025       3024  
      2905       2906       2917       2916       3026       3027       3038       3037  
      2906       2907       2918       2917       3027       3028       3039       3038  
      2907       2908       2919       2918       3028       3029       3040       3039  
      2908       2909       2920       2919       3029       3030       3041       3040  
      2909       2910       2921       2920       3030       3031       3042       3041  
      2910       2911       2922       2921       3031       3032       3043       3042  
      2911       2912       2923       2922       3032       3033       3044       3043  
      2912       2913       2924       2923       3033       3034       3045       3044  
      2913       2914       2925       2924       3034       3035       3046       3045  
      2914       2915       2926       2925       3035       3036       3047       3046  
      2916       2917       2928       2927       3037       3038       3049       3048  
      2917       2918       2929       2928       3038       3039       3050       3049  
      2918       2919       2930       2929       3039       3040       3051       3050  
      2919       2920       2931       2930       3040       3041       3052       3051  
      2920       2921       2932       2931       3041       3042       3053       3052  
      2921       2922       2933       2932       3042       3043       3054       3053  
      2922       2923       2934       2933       3043       3044       3055       3054  
      2923       2924       2935       2934       3044       3045       3056       3055  
      2924       2925       2936       2935       3045       3046       3057       3056  
      2925       2926       2937       2936       3046       3047       3058       3057  
      2927       2928       2939       2938       3048       3049       3060       3059  
      2928       2929       2940       2939       3049       3050       3061       3060  
      2929       2930       2941       2940       3050       3051       3062       3061  
      2930       2931       2942       2941       3051       3052       3063       3062  
      2931       2932       2943       2942       3052       3053       3064       3063  
      2932       2933       2944       2943       3053       3054       3065       3064  
      2933       2934       2945       2944       3054       3055       3066       3065  
      2934       2935       2946       2945       3055       3056       3067       3066  
      2935       2936       2947       2946       3056       3057       3068       3067  
      2936       2937       2948       2947       3057       3058       3069       3068  
      2938       2939       2950       2949       3059       3060       3071       3070  
      2939       2940       2951       2950       3060       3061       3072       3071  
      2940       2941       2952       2951       3061       3062       3073       3072  
      2941       2942       2953       2952       3062       3063       3074       3073  
      2942       2943       2954       2953       3063       3064       3075       3074  
      2943       2944       2955       2954       3064       3065       3076       3075  
      2944       2945       2956       2955       3065       3066       3077       3076  
      2945       2946       2957       2956       3066       3067       3078       3077  
      2946       2947       2958       2957       3067       3068       3079       3078  
      2947       2948       2959       2958       3068       3069       3080       3079  
      2949       2950       2961       2960       3070       3071       3082       3081  
      2950       2951       2962       2961       3071       3072       3083       3082  
      2951       2952       2963       2962       3072       3073       3084       3083  
      2952       2953       2964       2963       3073       3074       3085       3084  
      2953       2954       2965       2964       3074       3075       3086       3085  
      2954       2955       2966       2965       3075       3076       3087       3086  
      2955       2956       2967       2966       3076       3077       3088       3087  
      2956       2957       2968       2967       3077       3078       3089       3088  
      2957       2958       2969       2968       3078       3079       3090       3089  
      2958       2959       2970       2969       3079       3080       3091       3090  
      2960       2961       2972       2971       3081       3082       3093       3092  
      2961       2962       2973       2972       3082       3083       3094       3093  
      2962       2963       2974       2973       3083       3084       3095       3094  
      2963       2964       2975       2974       3084       3085       3096       3095  
      2964       2965       2976       2975       3085       3086       3097       3096  
      2965       2966       2977       2976       3086       3087       3098       3097  
      2966       2967       2978       2977       3087       3088       3099       3098  
      2967       2968       2979       2978       3088       3089       3100       3099  
      2968       2969       2980       2979       3089       3090       3101       3100  
      2969       2970       2981       2980       3090       3091       3102       3101  
      2971       2972       2983       2982       3092       3093       3104       3103  
      2972       2973       2984       2983       3093       3094       3105       3104  
      2973       2974       2985       2984       3094       3095       3106       3105  
      2974       2975       2986       2985       3095       3096       3107       3106  
      2975       2976       2987       2986       3096       3097       3108       3107  
      2976       2977       2988       2987       3097       3098       3109       3108  
      2977       2978       2989       2988       3098       3099       3110       3109  
      2978       2979       2990       2989       3099       3100       3111       3110  
      2979       2980       2991       2990       3100       3101       3112       3111  
      2980       2981       2992       2991       3101       3102       3113       3112  
      2982       2983       2994       2993       3103       3104       3115       3114  
      2983       2984       2995       2994       3104       3105       3116       3115  
      2984       2985       2996       2995       3105       3106       3117       3116  
      2985       2986       2997       2996       3106       3107       3118       3117  
      2986       2987       2998       2997       3107       3108       3119       3118  
      2987       2988       2999       2998       3108       3109       3120       3119  
      2988       2989       3000       2999       3109       3110       3121       3120  
      2989       2990       3001       3000       3110       3111       3122       3121  
      2990       2991       3002       3001       3111       3112       3123       3122  
      2991       2992       3003       3002       3112       3113       3124       3123  
      2993       2994       3005       3004       3114       3115       3126       3125  
      2994       2995       3006       3005       3115       3116       3127       3126  
      2995       2996       3007       3006       3116       3117       3128       3127  
      2996       2997       3008       3007       3117       3118       3129       3128  
      2997       2998       3009       3008       3118       3119       3130       3129  
      2998       2999       3010       3009       3119       3120       3131       3130  
      2999       3000       3011       3010       3120       3121       3132       3131  
      3000       3001       3012       3011       3121       3122       3133       3132  
      3001       3002       3013       3012       3122       3123       3134       3133  
      3002       3003       3014       3013       3123       3124       3135       3134  
      3004       3005       3016       3015       3125       3126       3137       3136  
      3005       3006       3017       3016       3126       3127       3138       3137  
      3006       3007       3018       3017       3127       3128       3139       3138  
      3007       3008       3019       3018       3128       3129       3140       3139  
      3008       3009       3020       3019       3129       3130       3141       3140  
      3009       3010       3021       3020       3130       3131       3142       3141  
      3010       3011       3022       3021       3131       3132       3143       3142  
      3011       3012       3023       3022       3132       3133       3144       3143  
      3012       3013       3024       3023       3133       3134       3145       3144  
      3013       3014       3025       3024       3134       3135       3146       3145  
      3026       3027       3038       3037       3147       3148       3159       3158  
      3027       3028       3039       3038       3148       3149       3160       3159  
      3028       3029       3040       3039       3149       3150       3161       3160  
      3029       3030       3041       3040       3150       3151       3162       3161  
      3030       3031       3042       3041       3151       3152       3163       3162  
      3031       3032       3043       3042       3152       3153       3164       3163  
      3032       3033       3044       3043       3153       3154       3165       3164  
      3033       3034       3045       3044       3154       3155       3166       3165  
      3034       3035       3046       3045       3155       3156       3167       3166  
      3035       3036       3047       3046       3156       3157       3168       3167  
      3037       3038       3049       3048       3158       3159       3170       3169  
      3038       3039       3050       3049       3159       3160       3171       3170  
      3039       3040       3051       3050       3160       3161       3172       3171  
      3040       3041       3052       3051       3161       3162       3173       3172  
      3041       3042       3053       3052       3162       3163       3174       3173  
      3042       3043       3054       3053       3163       3164       3175       3174  
      3043       3044       3055       3054       3164       3165       3176       3175  
      3044       3045       3056       3055       3165       3166       3177       3176  
      3045       3046       3057       3056       3166       3167       3178       3177  
      3046       3047       3058       3057       3167       3168       3179       3178  
      3048       3049       3060       3059       3169       3170       3181       3180  
      3049       3050       3061       3060       3170       3171       3182       3181  
      3050       3051       3062       3061       3171       3172       3183       3182  
      3051       3052       3063       3062       3172       3173       3184       3183  
      3052       3053       3064       3063       3173       3174       3185       3184  
      3053       3054       3065       3064       3174       3175       3186       3185  
      3054       3055       3066       3065       3175       3176       3187       3186  
      3055       3056       3067       3066       3176       3177       3188       3187  
      3056       3057       3068       3067       3177       3178       3189       3188  
      3057       3058       3069       3068       3178       3179       3190       3189  
      3059       3060       3071       3070       3180       3181       3192       3191  
      3060       3061       3072       3071       3181       3182       3193       3192  
      3061       3062       3073       3072       3182       3183       3194       3193  
      3062       3063       3074       3073       3183       3184       3195       3194  
      3063       3064       3075       3074       3184       3185       3196       3195  
      3064       3065       3076       3075       3185       3186       3197       3196  
      3065       3066       3077       3076       3186       3187       3198       3197  
      3066       3067       3078       3077       3187       3188       3199       3198  
      3067       3068       3079       3078       3188       3189       3200       3199  
      3068       3069       3080       3079       3189       3190       3201       3200  
      3070       3071       3082       3081       3191       3192       3203       3202  
      3071       3072       3083       3082       3192       3193       3204       3203  
      3072       3073       3084       3083       3193       3194       3205       3204  
      3073       3074       3085       3084       3194       3195       3206       3205  
      3074       3075       3086       3085       3195       3196       3207       3206  
      3075       3076       3087       3086       3196       3197       3208       3207  
      3076       3077       3088       3087       3197       3198       3209       3208  
      3077       3078       3089       3088       3198       3199       3210       3209  
      3078       3079       3090       3089       3199       3200       3211       3210  
      3079       3080       3091       3090       3200       3201       3212       3211  
      3081       3082       3093       3092       3202       3203       3214       3213  
      3082       3083       3094       3093       3203       3204       3215       3214  
      3083       3084       3095       3094       3204       3205       3216       3215  
      3084       3085       3096       3095       3205       3206       3217       3216  
      3085       3086       3097       3096       3206       3207       3218       3217  
      3086       3087       3098       3097       3207       3208       3219       3218  
      3087       3088       3099       3098       3208       3209       3220       3219  
      3088       3089       3100       3099       3209       3210       3221       3220  
      3089       3090       3101       3100       3210       3211       3222       3221  
      3090       3091       3102       3101       3211       3212       3223       3222  
      3092       3093       3104       3103       3213       3214       3225       3224  
      3093       3094       3105       3104       3214       3215       3226       3225  
      3094       3095       3106       3105       3215       3216       3227       3226  
      3095       3096       3107       3106       3216       3217       3228       3227  
      3096       3097       3108       3107       3217       3218       3229       3228  
      3097       3098       3109       3108       3218       3219       3230       3229  
      3098       3099       3110       3109       3219       3220       3231       3230  
      3099       3100       3111       3110       3220       3221       3232       3231  
      3100       3101       3112       3111       3221       3222       3233       3232  
      3101       3102       3113       3112       3222       3223       3234       3233  
      3103       3104       3115       3114       3224       3225       3236       3235  
      3104       3105       3116       3115       3225       3226       3237       3236  
      3105       3106       3117       3116       3226       3227       3238       3237  
      3106       3107       3118       3117       3227       3228       3239       3238  
      3107       3108       3119       3118       3228       3229       3240       3239  
      3108       3109       3120       3119       3229       3230       3241       3240  
      3109       3110       3121       3120       3230       3231       3242       3241  
      3110       3111       3122       3121       3231       3232       3243       3242  
      3111       3112       3123       3122       3232       3233       3244       3243  
      3112       3113       3124       3123       3233       3234       3245       3244  
      3114       3115       3126       3125       3235       3236       3247       3246  
      3115       3116       3127       3126       3236       3237       3248       3247  
      3116       3117       3128       3127       3237       3238       3249       3248  
      3117       3118       3129       3128       3238       3239       3250       3249  
      3118       3119       3130       3129       3239       3240       3251       3250  
      3119       3120       3131       3130       3240       3241       3252       3251  
      3120       3121       3132       3131       3241       3242       3253       3252  
      3121       3122       3133       3132       3242       3243       3254       3253  
      3122       3123       3134       3133       3243       3244       3255       3254  
      3123       3124       3135       3134       3244       3245       3256       3255  
      3125       3126       3137       3136       3246       3247       3258       3257  
      3126       3127       3138       3137       3247       3248       3259       3258  
      3127       3128       3139       3138       3248       3249       3260       3259  
      3128       3129       3140       3139       3249       3250       3261       3260  
      3129       3130       3141       3140       3250       3251       3262       3261  
      3130       3131       3142       3141       3251       3252       3263       3262  
      3131       3132       3143       3142       3252       3253       3264       3263  
      3132       3133       3144       3143       3253       3254       3265       3264  
      3133       3134       3145       3144       3254       3255       3266       3265  
      3134       3135       3146       3145       3255       3256       3267       3266  
      3147       3148       3159       3158       3268       3269       3280       3279  
      3148       3149       3160       3159       3269       3270       3281       3280  
      3149       3150       3161       3160       3270       3271       3282       3281  
      3150       3151       3162       3161       3271       3272       3283       3282  
      3151       3152       3163       3162       3272       3273       3284       3283  
      3152       3153       3164       3163       3273       3274       3285       3284  
      3153       3154       3165       3164       3274       3275       3286       3285  
      3154       3155       3166       3165       3275       3276       3287       3286  
      3155       3156       3167       3166       3276       3277       3288       3287  
      3156       3157       3168       3167       3277       3278       3289       3288  
      3158       3159       3170       3169       3279       3280       3291       3290  
      3159       3160       3171       3170       3280       3281       3292       3291  
      3160       3161       3172       3171       3281       3282       3293       3292  
      3161       3162       3173       3172       3282       3283       3294       3293  
      3162       3163       3174       3173       3283       3284       3295       3294  
      3163       3164       3175       3174       3284       3285       3296       3295  
      3164       3165       3176       3175       3285       3286       3297       3296  
      3165       3166       3177       3176       3286       3287       3298       3297  
      3166       3167       3178       3177       3287       3288       3299       3298  
      3167       3168       3179       3178       3288       3289       3300       3299  
      3169       3170       3181       3180       3290       3291       3302       3301  
      3170       3171       3182       3181       3291       3292       3303       3302  
      3171       3172       3183       3182       3292       3293       3304       3303  
      3172       3173       3184       3183       3293       3294       3305       3304  
      3173       3174       3185       3184       3294       3295       3306       3305  
      3174       3175       3186       3185       3295       3296       3307       3306  
      3175       3176       3187       3186       3296       3297       3308       3307  
      3176       3177       3188       3187       3297       3298       3309       3308  
      3177       3178       3189       3188       3298       3299       3310       3309  
      3178       3179       3190       3189       3299       3300       3311       3310  
      3180       3181       3192       3191       3301       3302       3313       3312  
      3181       3182       3193       3192       3302       3303       3314       3313  
      3182       3183       3194       3193       3303       3304       3315       3314  
      3183       3184       3195       3194       3304       3305       3316       3315  
      3184       3185       3196       3195       3305       3306       3317       3316  
      3185       3186       3197       3196       3306       3307       3318       3317  
      3186       3187       3198       3197       3307       3308       3319       3318  
      3187       3188       3199       3198       3308       3309       3320       3319  
      3188       3189       3200       3199       3309       3310       3321       3320  
      3189       3190       3201       3200       3310       3311       3322       3321  
      3191       3192       3203       3202       3312       3313       3324       3323  
      3192       3193       3204       3203       3313       3314       3325       3324  
      3193       3194       3205       3204       3314       3315       3326       3325  
      3194       3195       3206       3205       3315       3316       3327       3326  
      3195       3196       3207       3206       3316       3317       3328       3327  
      3196       3197       3208       3207       3317       3318       3329       3328  
      3197       3198       3209       3208       3318       3319       3330       3329  
      3198       3199       3210       3209       3319       3320       3331       3330  
      3199       3200       3211       3210       3320       3321       3332       3331  
      3200       3201       3212       3211       3321       3322       3333       3332  
      3202       3203       3214       3213       3323       3324       3335       3334  
      3203       3204       3215       3214       3324       3325       3336       3335  
      3204       3205       3216       3215       3325       3326       3337       3336  
      3205       3206       3217       3216       3326       3327       3338       3337  
      3206       3207       3218       3217       3327       3328       3339       3338  
      3207       3208       3219       3218       3328       3329       3340       3339  
      3208       3209       3220       3219       3329       3330       3341       3340  
      3209       3210       3221       3220       3330       3331       3342       3341  
      3210       3211       3222       3221       3331       3332       3343       3342  
      3211       3212       3223       3222       3332       3333       3344       3343  
      3213       3214       3225       3224       3334       3335       3346       3345  
      3214       3215       3226       3225       3335       3336       3347       3346  
      3215       3216       3227       3226       3336       3337       3348       3347  
      3216       3217       3228       3227       3337       3338       3349       3348  
      3217       3218       3229       3228       3338       3339       3350       3349  
      3218       3219       3230       3229       3339       3340       3351       3350  
      3219       3220       3231       3230       3340       3341       3352       3351  
      3220       3221       3232       3231       3341       3342       3353       3352  
      3221       3222       3233       3232       3342       3343       3354       3353  
      3222       3223       3234       3233       3343       3344       3355       3354  
      3224       3225       3236       3235       3345       3346       3357       3356  
      3225       3226       3237       3236       3346       3347       3358       3357  
      3226       3227       3238       3237       3347       3348       3359       3358  
      3227       3228       3239       3238       3348       3349       3360       3359  
      3228       3229       3240       3239       3349       3350       3361       3360  
      3229       3230       3241       3240       3350       3351       3362       3361  
      3230       3231       3242       3241       3351       3352       3363       3362  
      3231       3232       3243       3242       3352       3353       3364       3363  
      3232       3233       3244       3243       3353       3354       3365       3364  
      3233       3234       3245       3244       3354       3355       3366       3365  
      3235       3236       3247       3246       3356       3357       3368       3367  
      3236       3237       3248       3247       3357       3358       3369       3368  
      3237       3238       3249       3248       3358       3359       3370       3369  
      3238       3239       3250       3249       3359       3360       3371       3370  
      3239       3240       3251       3250       3360       3361       3372       3371  
      3240       3241       3252       3251       3361       3362       3373       3372  
      3241       3242       3253       3252       3362       3363       3374       3373  
      3242       3243       3254       3253       3363       3364       3375       3374  
      3243       3244       3255       3254       3364       3365       3376       3375  
      3244       3245       3256       3255       3365       3366       3377       3376  
      3246       3247       3258       3257       3367       3368       3379       3378  
      3247       3248       3259       3258       3368       3369       3380       3379  
      3248       3249       3260       3259       3369       3370       3381       3380  
      3249       3250       3261       3260       3370       3371       3382       3381  
      3250       3251       3262       3261       3371       3372       3383       3382  
      3251       3252       3263       3262       3372       3373       3384       3383  
      3252       3253       3264       3263       3373       3374       3385       3384  
      3253       3254       3265       3264       3374       3375       3386       3385  
      3254       3255       3266       3265       3375       3376       3387       3386  
      3255       3256       3267       3266       3376       3377       3388       3387  
      3268       3269       3280       3279       3389       3390       3401       3400  
      3269       3270       3281       3280       3390       3391       3402       3401  
      3270       3271       3282       3281       3391       3392       3403       3402  
      3271       3272       3283       3282       3392       3393       3404       3403  
      3272       3273       3284       3283       3393       3394       3405       3404  
      3273       3274       3285       3284       3394       3395       3406       3405  
      3274       3275       3286       3285       3395       3396       3407       3406  
      3275       3276       3287       3286       3396       3397       3408       3407  
      3276       3277       3288       3287       3397       3398       3409       3408  
      3277       3278       3289       3288       3398       3399       3410       3409  
      3279       3280       3291       3290       3400       3401       3412       3411  
      3280       3281       3292       3291       3401       3402       3413       3412  
      3281       3282       3293       3292       3402       3403       3414       3413  
      3282       3283       3294       3293       3403       3404       3415       3414  
      3283       3284       3295       3294       3404       3405       3416       3415  
      3284       3285       3296       3295       3405       3406       3417       3416  
      3285       3286       3297       3296       3406       3407       3418       3417  
      3286       3287       3298       3297       3407       3408       3419       3418  
      3287       3288       3299       3298       3408       3409       3420       3419  
      3288       3289       3300       3299       3409       3410       3421       3420  
      3290       3291       3302       3301       3411       3412       3423       3422  
      3291       3292       3303       3302       3412       3413       3424       3423  
      3292       3293       3304       3303       3413       3414       3425       3424  
      3293       3294       3305       3304       3414       3415       3426       3425  
      3294       3295       3306       3305       3415       3416       3427       3426  
      3295       3296       3307       3306       3416       3417       3428       3427  
      3296       3297       3308       3307       3417       3418       3429       3428  
      3297       3298       3309       3308       3418       3419       3430       3429  
      3298       3299       3310       3309       3419       3420       3431       3430  
      3299       3300       3311       3310       3420       3421       3432       3431  
      3301       3302       3313       3312       3422       3423       3434       3433  
      3302       3303       3314       3313       3423       3424       3435       3434  
      3303       3304       3315       3314       3424       3425       3436       3435  
      3304       3305       3316       3315       3425       3426       3437       3436  
      3305       3306       3317       3316       3426       3427       3438       3437  
      3306       3307       3318       3317       3427       3428       3439       3438  
      3307       3308       3319       3318       3428       3429       3440       3439  
      3308       3309       3320       3319       3429       3430       3441       3440  
      3309       3310       3321       3320       3430       3431       3442       3441  
      3310       3311       3322       3321       3431       3432       3443       3442  
      3312       3313       3324       3323       3433       3434       3445       3444  
      3313       3314       3325       3324       3434       3435       3446       3445  
      3314       3315       3326       3325       3435       3436       3447       3446  
      3315       3316       3327       3326       3436       3437       3448       3447  
      3316       3317       3328       3327       3437       3438       3449       3448  
      3317       3318       3329       3328       3438       3439       3450       3449  
      3318       3319       3330       3329       3439       3440       3451       3450  
      3319       3320       3331       3330       3440       3441       3452       3451  
      3320       3321       3332       3331       3441       3442       3453       3452  
      3321       3322       3333       3332       3442       3443       3454       3453  
      3323       3324       3335       3334       3444       3445       3456       3455  
      3324       3325       3336       3335       3445       3446       3457       3456  
      3325       3326       3337       3336       3446       3447       3458       3457  
      3326       3327       3338       3337       3447       3448       3459       3458  
      3327       3328       3339       3338       3448       3449       3460       3459  
      3328       3329       3340       3339       3449       3450       3461       3460  
      3329       3330       3341       3340       3450       3451       3462       3461  
      3330       3331       3342       3341       3451       3452       3463       3462  
      3331       3332       3343       3342       3452       3453       3464       3463  
      3332       3333       3344       3343       3453       3454       3465       3464  
      3334       3335       3346       3345       3455       3456       3467       3466  
      3335       3336       3347       3346       3456       3457       3468       3467  
      3336       3337       3348       3347       3457       3458       3469       3468  
      3337       3338       3349       3348       3458       3459       3470       3469  
      3338       3339       3350       3349       3459       3460       3471       3470  
      3339       3340       3351       3350       3460       3461       3472       3471  
      3340       3341       3352       3351       3461       3462       3473       3472  
      3341       3342       3353       3352       3462       3463       3474       3473  
      3342       3343       3354       3353       3463       3464       3475       3474  
      3343       3344       3355       3354       3464       3465       3476       3475  
      3345       3346       3357       3356       3466       3467       3478       3477  
      3346       3347       3358       3357       3467       3468       3479       3478  
      3347       3348       3359       3358       3468       3469       3480       3479  
      3348       3349       3360       3359       3469       3470       3481       3480  
      3349       3350       3361       3360       3470       3471       3482       3481  
      3350       3351       3362       3361       3471       3472       3483       3482  
      3351       3352       3363       3362       3472       3473       3484       3483  
      3352       3353       3364       3363       3473       3474       3485       3484  
      3353       3354       3365       3364       3474       3475       3486       3485  
      3354       3355       3366       3365       3475       3476       3487       3486  
      3356       3357       3368       3367       3477       3478       3489       3488  
      3357       3358       3369       3368       3478       3479       3490       3489  
      3358       3359       3370       3369       3479       3480       3491       3490  
      3359       3360       3371       3370       3480       3481       3492       3491  
      3360       3361       3372       3371       3481       3482       3493       3492  
      3361       3362       3373       3372       3482       3483       3494       3493  
      3362       3363       3374       3373       3483       3484       3495       3494  
      3363       3364       3375       3374       3484       3485       3496       3495  
      3364       3365       3376       3375       3485       3486       3497       3496  
      3365       3366       3377       3376       3486       3487       3498       3497  
      3367       3368       3379       3378       3488       3489       3500       3499  
      3368       3369       3380       3379       3489       3490       3501       3500  
      3369       3370       3381       3380       3490       3491       3502       3501  
      3370       3371       3382       3381       3491       3492       3503       3502  
      3371       3372       3383       3382       3492       3493       3504       3503  
      3372       3373       3384       3383       3493       3494       3505       3504  
      3373       3374       3385       3384       3494       3495       3506       3505  
      3374       3375       3386       3385       3495       3496       3507       3506  
      3375       3376       3387       3386       3496       3497       3508       3507  
      3376       3377       3388       3387       3497       3498       3509       3508  
      3389       3390       3401       3400       3510       3511       3522       3521  
      3390       3391       3402       3401       3511       3512       3523       3522  
      3391       3392       3403       3402       3512       3513       3524       3523  
      3392       3393       3404       3403       3513       3514       3525       3524  
      3393       3394       3405       3404       3514       3515       3526       3525  
      3394       3395       3406       3405       3515       3516       3527       3526  
      3395       3396       3407       3406       3516       3517       3528       3527  
      3396       3397       3408       3407       3517       3518       3529       3528  
      3397       3398       3409       3408       3518       3519       3530       3529  
      3398       3399       3410       3409       3519       3520       3531       3530  
      3400       3401       3412       3411       3521       3522       3533       3532  
      3401       3402       3413       3412       3522       3523       3534       3533  
      3402       3403       3414       3413       3523       3524       3535       3534  
      3403       3404       3415       3414       3524       3525       3536       3535  
      3404       3405       3416       3415       3525       3526       3537       3536  
      3405       3406       3417       3416       3526       3527       3538       3537  
      3406       3407       3418       3417       3527       3528       3539       3538  
      3407       3408       3419       3418       3528       3529       3540       3539  
      3408       3409       3420       3419       3529       3530       3541       3540  
      3409       3410       3421       3420       3530       3531       3542       3541  
      3411       3412       3423       3422       3532       3533       3544       3543  
      3412       3413       3424       3423       3533       3534       3545       3544  
      3413       3414       3425       3424       3534       3535       3546       3545  
      3414       3415       3426       3425       3535       3536       3547       3546  
      3415       3416       3427       3426       3536       3537       3548       3547  
      3416       3417       3428       3427       3537       3538       3549       3548  
      3417       3418       3429       3428       3538       3539       3550       3549  
      3418       3419       3430       3429       3539       3540       3551       3550  
      3419       3420       3431       3430       3540       3541       3552       3551  
      3420       3421       3432       3431       3541       3542       3553       3552  
      3422       3423       3434       3433       3543       3544       3555       3554  
      3423       3424       3435       3434       3544       3545       3556       3555  
      3424       3425       3436       3435       3545       3546       3557       3556  
      3425       3426       3437       3436       3546       3547       3558       3557  
      3426       3427       3438       3437       3547       3548       3559       3558  
      3427       3428       3439       3438       3548       3549       3560       3559  
      3428       3429       3440       3439       3549       3550       3561       3560  
      3429       3430       3441       3440       3550       3551       3562       3561  
      3430       3431       3442       3441       3551       3552       3563       3562  
      3431       3432       3443       3442       3552       3553       3564       3563  
      3433       3434       3445       3444       3554       3555       3566       3565  
      3434       3435       3446       3445       3555       3556       3567       3566  
      3435       3436       3447       3446       3556       3557       3568       3567  
      3436       3437       3448       3447       3557       3558       3569       3568  
      3437       3438       3449       3448       3558       3559       3570       3569  
      3438       3439       3450       3449       3559       3560       3571       3570  
      3439       3440       3451       3450       3560       3561       3572       3571  
      3440       3441       3452       3451       3561       3562       3573       3572  
      3441       3442       3453       3452       3562       3563       3574       3573  
      3442       3443       3454       3453       3563       3564       3575       3574  
      3444       3445       3456       3455       3565       3566       3577       3576  
      3445       3446       3457       3456       3566       3567       3578       3577  
      3446       3447       3458       3457       3567       3568       3579       3578  
      3447       3448       3459       3458       3568       3569       3580       3579  
      3448       3449       3460       3459       3569       3570       3581       3580  
      3449       3450       3461       3460       3570       3571       3582       3581  
      3450       3451       3462       3461       3571       3572       3583       3582  
      3451       3452       3463       3462       3572       3573       3584       3583  
      3452       3453       3464       3463       3573       3574       3585       3584  
      3453       3454       3465       3464       3574       3575       3586       3585  
      3455       3456       3467       3466       3576       3577       3588       3587  
      3456       3457       3468       3467       3577       3578       3589       3588  
      3457       3458       3469       3468       3578       3579       3590       3589  
      3458       3459       3470       3469       3579       3580       3591       3590  
      3459       3460       3471       3470       3580       3581       3592       3591  
      3460       3461       3472       3471       3581       3582       3593       3592  
      3461       3462       3473       3472       3582       3583       3594       3593  
      3462       3463       3474       3473       3583       3584       3595       3594  
      3463       3464       3475       3474       3584       3585       3596       3595  
      3464       3465       3476       3475       3585       3586       3597       3596  
      3466       3467       3478       3477       3587       3588       3599       3598  
      3467       3468       3479       3478       3588       3589       3600       3599  
      3468       3469       3480       3479       3589       3590       3601       3600  
      3469       3470       3481       3480       3590       3591       3602       3601  
      3470       3471       3482       3481       3591       3592       3603       3602  
      3471       3472       3483       3482       3592       3593       3604       3603  
      3472       3473       3484       3483       3593       3594       3605       3604  
      3473       3474       3485       3484       3594       3595       3606       3605  
      3474       3475       3486       3485       3595       3596       3607       3606  
      3475       3476       3487       3486       3596       3597       3608       3607  
      3477       3478       3489       3488       3598       3599       3610       3609  
      3478       3479       3490       3489       3599       3600       3611       3610  
      3479       3480       3491       3490       3600       3601       3612       3611  
      3480       3481       3492       3491       3601       3602       3613       3612  
      3481       3482       3493       3492       3602       3603       3614       3613  
      3482       3483       3494       3493       3603       3604       3615       3614  
      3483       3484       3495       3494       3604       3605       3616       3615  
      3484       3485       3496       3495       3605       3606       3617       3616  
      3485       3486       3497       3496       3606       3607       3618       3617  
      3486       3487       3498       3497       3607       3608       3619       3618  
      3488       3489       3500       3499       3609       3610       3621       3620  
      3489       3490       3501       3500       3610       3611       3622       3621  
      3490       3491       3502       3501       3611       3612       3623       3622  
      3491       3492       3503       3502       3612       3613       3624       3623  
      3492       3493       3504       3503       3613       3614       3625       3624  
      3493       3494       3505       3504       3614       3615       3626       3625  
      3494       3495       3506       3505       3615       3616       3627       3626  
      3495       3496       3507       3506       3616       3617       3628       3627  
      3496       3497       3508       3507       3617       3618       3629       3628  
      3497       3498       3509       3508       3618       3619       3630       3629  
      3510       3511       3522       3521       3631       3632       3643       3642  
      3511       3512       3523       3522       3632       3633       3644       3643  
      3512       3513       3524       3523       3633       3634       3645       3644  
      3513       3514       3525       3524       3634       3635       3646       3645  
      3514       3515       3526       3525       3635       3636       3647       3646  
      3515       3516       3527       3526       3636       3637       3648       3647  
      3516       3517       3528       3527       3637       3638       3649       3648  
      3517       3518       3529       3528       3638       3639       3650       3649  
      3518       3519       3530       3529       3639       3640       3651       3650  
      3519       3520       3531       3530       3640       3641       3652       3651  
      3521       3522       3533       3532       3642       3643       3654       3653  
      3522       3523       3534       3533       3643       3644       3655       3654  
      3523       3524       3535       3534       3644       3645       3656       3655  
      3524       3525       3536       3535       3645       3646       3657       3656  
      3525       3526       3537       3536       3646       3647       3658       3657  
      3526       3527       3538       3537       3647       3648       3659       3658  
      3527       3528       3539       3538       3648       3649       3660       3659  
      3528       3529       3540       3539       3649       3650       3661       3660  
      3529       3530       3541       3540       3650       3651       3662       3661  
      3530       3531       3542       3541       3651       3652       3663       3662  
      3532       3533       3544       3543       3653       3654       3665       3664  
      3533       3534       3545       3544       3654       3655       3666       3665  
      3534       3535       3546       3545       3655       3656       3667       3666  
      3535       3536       3547       3546       3656       3657       3668       3667  
      3536       3537       3548       3547       3657       3658       3669       3668  
      3537       3538       3549       3548       3658       3659       3670       3669  
      3538       3539       3550       3549       3659       3660       3671       3670  
      3539       3540       3551       3550       3660       3661       3672       3671  
      3540       3541       3552       3551       3661       3662       3673       3672  
      3541       3542       3553       3552       3662       3663       3674       3673  
      3543       3544       3555       3554       3664       3665       3676       3675  
      3544       3545       3556       3555       3665       3666       3677       3676  
      3545       3546       3557       3556       3666       3667       3678       3677  
      3546       3547       3558       3557       3667       3668       3679       3678  
      3547       3548       3559       3558       3668       3669       3680       3679  
      3548       3549       3560       3559       3669       3670       3681       3680  
      3549       3550       3561       3560       3670       3671       3682       3681  
      3550       3551       3562       3561       3671       3672       3683       3682  
      3551       3552       3563       3562       3672       3673       3684       3683  
      3552       3553       3564       3563       3673       3674       3685       3684  
      3554       3555       3566       3565       3675       3676       3687       3686  
      3555       3556       3567       3566       3676       3677       3688       3687  
      3556       3557       3568       3567       3677       3678       3689       3688  
      3557       3558       3569       3568       3678       3679       3690       3689  
      3558       3559       3570       3569       3679       3680       3691       3690  
      3559       3560       3571       3570       3680       3681       3692       3691  
      3560       3561       3572       3571       3681       3682       3693       3692  
      3561       3562       3573       3572       3682       3683       3694       3693  
      3562       3563       3574       3573       3683       3684       3695       3694  
      3563       3564       3575       3574       3684       3685       3696       3695  
      3565       3566       3577       3576       3686       3687       3698       3697  
      3566       3567       3578       3577       3687       3688       3699       3698  
      3567       3568       3579       3578       3688       3689       3700       3699  
      3568       3569       3580       3579       3689       3690       3701       3700  
      3569       3570       3581       3580       3690       3691       3702       3701  
      3570       3571       3582       3581       3691       3692       3703       3702  
      3571       3572       3583       3582       3692       3693       3704       3703  
      3572       3573       3584       3583       3693       3694       3705       3704  
      3573       3574       3585       3584       3694       3695       3706       3705  
      3574       3575       3586       3585       3695       3696       3707       3706  
      3576       3577       3588       3587       3697       3698       3709       3708  
      3577       3578       3589       3588       3698       3699       3710       3709  
      3578       3579       3590       3589       3699       3700       3711       3710  
      3579       3580       3591       3590       3700       3701       3712       3711  
      3580       3581       3592       3591       3701       3702       3713       3712  
      3581       3582       3593       3592       3702       3703       3714       3713  
      3582       3583       3594       3593       3703       3704       3715       3714  
      3583       3584       3595       3594       3704       3705       3716       3715  
      3584       3585       3596       3595       3705       3706       3717       3716  
      3585       3586       3597       3596       3706       3707       3718       3717  
      3587       3588       3599       3598       3708       3709       3720       3719  
      3588       3589       3600       3599       3709       3710       3721       3720  
      3589       3590       3601       3600       3710       3711       3722       3721  
      3590       3591       3602       3601       3711       3712       3723       3722  
      3591       3592       3603       3602       3712       3713       3724       3723  
      3592       3593       3604       3603       3713       3714       3725       3724  
      3593       3594       3605       3604       3714       3715       3726       3725  
      3594       3595       3606       3605       3715       3716       3727       3726  
      3595       3596       3607       3606       3716       3717       3728       3727  
      3596       3597       3608       3607       3717       3718       3729       3728  
      3598       3599       3610       3609       3719       3720       3731       3730  
      3599       3600       3611       3610       3720       3721       3732       3731  
      3600       3601       3612       3611       3721       3722       3733       3732  
      3601       3602       3613       3612       3722       3723       3734       3733  
      3602       3603       3614       3613       3723       3724       3735       3734  
      3603       3604       3615       3614       3724       3725       3736       3735  
      3604       3605       3616       3615       3725       3726       3737       3736  
      3605       3606       3617       3616       3726       3727       3738       3737  
      3606       3607       3618       3617       3727       3728       3739       3738  
      3607       3608       3619       3618       3728       3729       3740       3739  
      3609       3610       3621       3620       3730       3731       3742       3741  
      3610       3611       3622       3621       3731       3732       3743       3742  
      3611       3612       3623       3622       3732       3733       3744       3743  
      3612       3613       3624       3623       3733       3734       3745       3744  
      3613       3614       3625       3624       3734       3735       3746       3745  
      3614       3615       3626       3625       3735       3736       3747       3746  
      3615       3616       3627       3626       3736       3737       3748       3747  
      3616       3617       3628       3627       3737       3738       3749       3748  
      3617       3618       3629       3628       3738       3739       3750       3749  
      3618       3619       3630       3629       3739       3740       3751       3750  
      3631       3632       3643       3642       3752       3753       3764       3763  
      3632       3633       3644       3643       3753       3754       3765       3764  
      3633       3634       3645       3644       3754       3755       3766       3765  
      3634       3635       3646       3645       3755       3756       3767       3766  
      3635       3636       3647       3646       3756       3757       3768       3767  
      3636       3637       3648       3647       3757       3758       3769       3768  
      3637       3638       3649       3648       3758       3759       3770       3769  
      3638       3639       3650       3649       3759       3760       3771       3770  
      3639       3640       3651       3650       3760       3761       3772       3771  
      3640       3641       3652       3651       3761       3762       3773       3772  
      3642       3643       3654       3653       3763       3764       3775       3774  
      3643       3644       3655       3654       3764       3765       3776       3775  
      3644       3645       3656       3655       3765       3766       3777       3776  
      3645       3646       3657       3656       3766       3767       3778       3777  
      3646       3647       3658       3657       3767       3768       3779       3778  
      3647       3648       3659       3658       3768       3769       3780       3779  
      3648       3649       3660       3659       3769       3770       3781       3780  
      3649       3650       3661       3660       3770       3771       3782       3781  
      3650       3651       3662       3661       3771       3772       3783       3782  
      3651       3652       3663       3662       3772       3773       3784       3783  
      3653       3654       3665       3664       3774       3775       3786       3785  
      3654       3655       3666       3665       3775       3776       3787       3786  
      3655       3656       3667       3666       3776       3777       3788       3787  
      3656       3657       3668       3667       3777       3778       3789       3788  
      3657       3658       3669       3668       3778       3779       3790       3789  
      3658       3659       3670       3669       3779       3780       3791       3790  
      3659       3660       3671       3670       3780       3781       3792       3791  
      3660       3661       3672       3671       3781       3782       3793       3792  
      3661       3662       3673       3672       3782       3783       3794       3793  
      3662       3663       3674       3673       3783       3784       3795       3794  
      3664       3665       3676       3675       3785       3786       3797       3796  
      3665       3666       3677       3676       3786       3787       3798       3797  
      3666       3667       3678       3677       3787       3788       3799       3798  
      3667       3668       3679       3678       3788       3789       3800       3799  
      3668       3669       3680       3679       3789       3790       3801       3800  
      3669       3670       3681       3680       3790       3791       3802       3801  
      3670       3671       3682       3681       3791       3792       3803       3802  
      3671       3672       3683       3682       3792       3793       3804       3803  
      3672       3673       3684       3683       3793       3794       3805       3804  
      3673       3674       3685       3684       3794       3795       3806       3805  
      3675       3676       3687       3686       3796       3797       3808       3807  
      3676       3677       3688       3687       3797       3798       3809       3808  
      3677       3678       3689       3688       3798       3799       3810       3809  
      3678       3679       3690       3689       3799       3800       3811       3810  
      3679       3680       3691       3690       3800       3801       3812       3811  
      3680       3681       3692       3691       3801       3802       3813       3812  
      3681       3682       3693       3692       3802       3803       3814       3813  
      3682       3683       3694       3693       3803       3804       3815       3814  
      3683       3684       3695       3694       3804       3805       3816       3815  
      3684       3685       3696       3695       3805       3806       3817       3816  
      3686       3687       3698       3697       3807       3808       3819       3818  
      3687       3688       3699       3698       3808       3809       3820       3819  
      3688       3689       3700       3699       3809       3810       3821       3820  
      3689       3690       3701       3700       3810       3811       3822       3821  
      3690       3691       3702       3701       3811       3812       3823       3822  
      3691       3692       3703       3702       3812       3813       3824       3823  
      3692       3693       3704       3703       3813       3814       3825       3824  
      3693       3694       3705       3704       3814       3815       3826       3825  
      3694       3695       3706       3705       3815       3816       3827       3826  
      3695       3696       3707       3706       3816       3817       3828       3827  
      3697       3698       3709       3708       3818       3819       3830       3829  
      3698       3699       3710       3709       3819       3820       3831       3830  
      3699       3700       3711       3710       3820       3821       3832       3831  
      3700       3701       3712       3711       3821       3822       3833       3832  
      3701       3702       3713       3712       3822       3823       3834       3833  
      3702       3703       3714       3713       3823       3824       3835       3834  
      3703       3704       3715       3714       3824       3825       3836       3835  
      3704       3705       3716       3715       3825       3826       3837       3836  
      3705       3706       3717       3716       3826       3827       3838       3837  
      3706       3707       3718       3717       3827       3828       3839       3838  
      3708       3709       3720       3719       3829       3830       3841       3840  
      3709       3710       3721       3720       3830       3831       3842       3841  
      3710       3711       3722       3721       3831       3832       3843       3842  
      3711       3712       3723       3722       3832       3833       3844       3843  
      3712       3713       3724       3723       3833       3834       3845       3844  
      3713       3714       3725       3724       3834       3835       3846       3845  
      3714       3715       3726       3725       3835       3836       3847       3846  
      3715       3716       3727       3726       3836       3837       3848       3847  
      3716       3717       3728       3727       3837       3838       3849       3848  
      3717       3718       3729       3728       3838       3839       3850       3849  
      3719       3720       3731       3730       3840       3841       3852       3851  
      3720       3721       3732       3731       3841       3842       3853       3852  
      3721       3722       3733       3732       3842       3843       3854       3853  
      3722       3723       3734       3733       3843       3844       3855       3854  
      3723       3724       3735       3734       3844       3845       3856       3855  
      3724       3725       3736       3735       3845       3846       3857       3856  
      3725       3726       3737       3736       3846       3847       3858       3857  
      3726       3727       3738       3737       3847       3848       3859       3858  
      3727       3728       3739       3738       3848       3849       3860       3859  
      3728       3729       3740       3739       3849       3850       3861       3860  
      3730       3731       3742       3741       3851       3852       3863       3862  
      3731       3732       3743       3742       3852       3853       3864       3863  
      3732       3733       3744       3743       3853       3854       3865       3864  
      3733       3734       3745       3744       3854       3855       3866       3865  
      3734       3735       3746       3745       3855       3856       3867       3866  
      3735       3736       3747       3746       3856       3857       3868       3867  
      3736       3737       3748       3747       3857       3858       3869       3868  
      3737       3738       3749       3748       3858       3859       3870       3869  
      3738       3739       3750       3749       3859       3860       3871       3870  
      3739       3740       3751       3750       3860       3861       3872       3871  
      3752       3753       3764       3763       3873       3874       3885       3884  
      3753       3754       3765       3764       3874       3875       3886       3885  
      3754       3755       3766       3765       3875       3876       3887       3886  
      3755       3756       3767       3766       3876       3877       3888       3887  
      3756       3757       3768       3767       3877       3878       3889       3888  
      3757       3758       3769       3768       3878       3879       3890       3889  
      3758       3759       3770       3769       3879       3880       3891       3890  
      3759       3760       3771       3770       3880       3881       3892       3891  
      3760       3761       3772       3771       3881       3882       3893       3892  
      3761       3762       3773       3772       3882       3883       3894       3893  
      3763       3764       3775       3774       3884       3885       3896       3895  
      3764       3765       3776       3775       3885       3886       3897       3896  
      3765       3766       3777       3776       3886       3887       3898       3897  
      3766       3767       3778       3777       3887       3888       3899       3898  
      3767       3768       3779       3778       3888       3889       3900       3899  
      3768       3769       3780       3779       3889       3890       3901       3900  
      3769       3770       3781       3780       3890       3891       3902       3901  
      3770       3771       3782       3781       3891       3892       3903       3902  
      3771       3772       3783       3782       3892       3893       3904       3903  
      3772       3773       3784       3783       3893       3894       3905       3904  
      3774       3775       3786       3785       3895       3896       3907       3906  
      3775       3776       3787       3786       3896       3897       3908       3907  
      3776       3777       3788       3787       3897       3898       3909       3908  
      3777       3778       3789       3788       3898       3899       3910       3909  
      3778       3779       3790       3789       3899       3900       3911       3910  
      3779       3780       3791       3790       3900       3901       3912       3911  
      3780       3781       3792       3791       3901       3902       3913       3912  
      3781       3782       3793       3792       3902       3903       3914       3913  
      3782       3783       3794       3793       3903       3904       3915       3914  
      3783       3784       3795       3794       3904       3905       3916       3915  
      3785       3786       3797       3796       3906       3907       3918       3917  
      3786       3787       3798       3797       3907       3908       3919       3918  
      3787       3788       3799       3798       3908       3909       3920       3919  
      3788       3789       3800       3799       3909       3910       3921       3920  
      3789       3790       3801       3800       3910       3911       3922       3921  
      3790       3791       3802       3801       3911       3912       3923       3922  
      3791       3792       3803       3802       3912       3913       3924       3923  
      3792       3793       3804       3803       3913       3914       3925       3924  
      3793       3794       3805       3804       3914       3915       3926       3925  
      3794       3795       3806       3805       3915       3916       3927       3926  
      3796       3797       3808       3807       3917       3918       3929       3928  
      3797       3798       3809       3808       3918       3919       3930       3929  
      3798       3799       3810       3809       3919       3920       3931       3930  
      3799       3800       3811       3810       3920       3921       3932       3931  
      3800       3801       3812       3811       3921       3922       3933       3932  
      3801       3802       3813       3812       3922       3923       3934       3933  
      3802       3803       3814       3813       3923       3924       3935       3934  
      3803       3804       3815       3814       3924       3925       3936       3935  
      3804       3805       3816       3815       3925       3926       3937       3936  
      3805       3806       3817       3816       3926       3927       3938       3937  
      3807       3808       3819       3818       3928       3929       3940       3939  
      3808       3809       3820       3819       3929       3930       3941       3940  
      3809       3810       3821       3820       3930       3931       3942       3941  
      3810       3811       3822       3821       3931       3932       3943       3942  
      3811       3812       3823       3822       3932       3933       3944       3943  
      3812       3813       3824       3823       3933       3934       3945       3944  
      3813       3814       3825       3824       3934       3935       3946       3945  
      3814       3815       3826       3825       3935       3936       3947       3946  
      3815       3816       3827       3826       3936       3937       3948       3947  
      3816       3817       3828       3827       3937       3938       3949       3948  
      3818       3819       3830       3829       3939       3940       3951       3950  
      3819       3820       3831       3830       3940       3941       3952       3951  
      3820       3821       3832       3831       3941       3942       3953       3952  
      3821       3822       3833       3832       3942       3943       3954       3953  
      3822       3823       3834       3833       3943       3944       3955       3954  
      3823       3824       3835       3834       3944       3945       3956       3955  
      3824       3825       3836       3835       3945       3946       3957       3956  
      3825       3826       3837       3836       3946       3947       3958       3957  
      3826       3827       3838       3837       3947       3948       3959       3958  
      3827       3828       3839       3838       3948       3949       3960       3959  
      3829       3830       3841       3840       3950       3951       3962       3961  
      3830       3831       3842       3841       3951       3952       3963       3962  
      3831       3832       3843       3842       3952       3953       3964       3963  
      3832       3833       3844       3843       3953       3954       3965       3964  
      3833       3834       3845       3844       3954       3955       3966       3965  
      3834       3835       3846       3845       3955       3956       3967       3966  
      3835       3836       3847       3846       3956       3957       3968       3967  
      3836       3837       3848       3847       3957       3958       3969       3968  
      3837       3838       3849       3848       3958       3959       3970       3969  
      3838       3839       3850       3849       3959       3960       3971       3970  
      3840       3841       3852       3851       3961       3962       3973       3972  
      3841       3842       3853       3852       3962       3963       3974       3973  
      3842       3843       3854       3853       3963       3964       3975       3974  
      3843       3844       3855       3854       3964       3965       3976       3975  
      3844       3845       3856       3855       3965       3966       3977       3976  
      3845       3846       3857       3856       3966       3967       3978       3977  
      3846       3847       3858       3857       3967       3968       3979       3978  
      3847       3848       3859       3858       3968       3969       3980       3979  
      3848       3849       3860       3859       3969       3970       3981       3980  
      3849       3850       3861       3860       3970       3971       3982       3981  
      3851       3852       3863       3862       3972       3973       3984       3983  
      3852       3853       3864       3863       3973       3974       3985       3984  
      3853       3854       3865       3864       3974       3975       3986       3985  
      3854       3855       3866       3865       3975       3976       3987       3986  
      3855       3856       3867       3866       3976       3977       3988       3987  
      3856       3857       3868       3867       3977       3978       3989       3988  
      3857       3858       3869       3868       3978       3979       3990       3989  
      3858       3859       3870       3869       3979       3980       3991       3990  
      3859       3860       3871       3870       3980       3981       3992       3991  
      3860       3861       3872       3871       3981       3982       3993       3992  
      3873       3874       3885       3884       3994       3995       4006       4005  
      3874       3875       3886       3885       3995       3996       4007       4006  
      3875       3876       3887       3886       3996       3997       4008       4007  
      3876       3877       3888       3887       3997       3998       4009       4008  
      3877       3878       3889       3888       3998       3999       4010       4009  
      3878       3879       3890       3889       3999       4000       4011       4010  
      3879       3880       3891       3890       4000       4001       4012       4011  
      3880       3881       3892       3891       4001       4002       4013       4012  
      3881       3882       3893       3892       4002       4003       4014       4013  
      3882       3883       3894       3893       4003       4004       4015       4014  
      3884       3885       3896       3895       4005       4006       4017       4016  
      3885       3886       3897       3896       4006       4007       4018       4017  
      3886       3887       3898       3897       4007       4008       4019       4018  
      3887       3888       3899       3898       4008       4009       4020       4019  
      3888       3889       3900       3899       4009       4010       4021       4020  
      3889       3890       3901       3900       4010       4011       4022       4021  
      3890       3891       3902       3901       4011       4012       4023       4022  
      3891       3892       3903       3902       4012       4013       4024       4023  
      3892       3893       3904       3903       4013       4014       4025       4024  
      3893       3894       3905       3904       4014       4015       4026       4025  
      3895       3896       3907       3906       4016       4017       4028       4027  
      3896       3897       3908       3907       4017       4018       4029       4028  
      3897       3898       3909       3908       4018       4019       4030       4029  
      3898       3899       3910       3909       4019       4020       4031       4030  
      3899       3900       3911       3910       4020       4021       4032       4031  
      3900       3901       3912       3911       4021       4022       4033       4032  
      3901       3902       3913       3912       4022       4023       4034       4033  
      3902       3903       3914       3913       4023       4024       4035       4034  
      3903       3904       3915       3914       4024       4025       4036       4035  
      3904       3905       3916       3915       4025       4026       4037       4036  
      3906       3907       3918       3917       4027       4028       4039       4038  
      3907       3908       3919       3918       4028       4029       4040       4039  
      3908       3909       3920       3919       4029       4030       4041       4040  
      3909       3910       3921       3920       4030       4031       4042       4041  
      3910       3911       3922       3921       4031       4032       4043       4042  
      3911       3912       3923       3922       4032       4033       4044       4043  
      3912       3913       3924       3923       4033       4034       4045       4044  
      3913       3914       3925       3924       4034       4035       4046       4045  
      3914       3915       3926       3925       4035       4036       4047       4046  
      3915       3916       3927       3926       4036       4037       4048       4047  
      3917       3918       3929       3928       4038       4039       4050       4049  
      3918       3919       3930       3929       4039       4040       4051       4050  
      3919       3920       3931       3930       4040       4041       4052       4051  
      3920       3921       3932       3931       4041       4042       4053       4052  
      3921       3922       3933       3932       4042       4043       4054       4053  
      3922       3923       3934       3933       4043       4044       4055       4054  
      3923       3924       3935       3934       4044       4045       4056       4055  
      3924       3925       3936       3935       4045       4046       4057       4056  
      3925       3926       3937       3936       4046       4047       4058       4057  
      3926       3927       3938       3937       4047       4048       4059       4058  
      3928       3929       3940       3939       4049       4050       4061       4060  
      3929       3930       3941       3940       4050       4051       4062       4061  
      3930       3931       3942       3941       4051       4052       4063       4062  
      3931       3932       3943       3942       4052       4053       4064       4063  
      3932       3933       3944       3943       4053       4054       4065       4064  
      3933       3934       3945       3944       4054       4055       4066       4065  
      3934       3935       3946       3945       4055       4056       4067       4066  
      3935       3936       3947       3946       4056       4057       4068       4067  
      3936       3937       3948       3947       4057       4058       4069       4068  
      3937       3938       3949       3948       4058       4059       4070       4069  
      3939       3940       3951       3950       4060       4061       4072       4071  
      3940       3941       3952       3951       4061       4062       4073       4072  
      3941       3942       3953       3952       4062       4063       4074       4073  
      3942       3943       3954       3953       4063       4064       4075       4074  
      3943       3944       3955       3954       4064       4065       4076       4075  
      3944       3945       3956       3955       4065       4066       4077       4076  
      3945       3946       3957       3956       4066       4067       4078       4077  
      3946       3947       3958       3957       4067       4068       4079       4078  
      3947       3948       3959       3958       4068       4069       4080       4079  
      3948       3949       3960       3959       4069       4070       4081       4080  
      3950       3951       3962       3961       4071       4072       4083       4082  
      3951       3952       3963       3962       4072       4073       4084       4083  
      3952       3953       3964       3963       4073       4074       4085       4084  
      3953       3954       3965       3964       4074       4075       4086       4085  
      3954       3955       3966       3965       4075       4076       4087       4086  
      3955       3956       3967       3966       4076       4077       4088       4087  
      3956       3957       3968       3967       4077       4078       4089       4088  
      3957       3958       3969       3968       4078       4079       4090       4089  
      3958       3959       3970       3969       4079       4080       4091       4090  
      3959       3960       3971       3970       4080       4081       4092       4091  
      3961       3962       3973       3972       4082       4083       4094       4093  
      3962       3963       3974       3973       4083       4084       4095       4094  
      3963       3964       3975       3974       4084       4085       4096       4095  
      3964       3965       3976       3975       4085       4086       4097       4096  
      3965       3966       3977       3976       4086       4087       4098       4097  
      3966       3967       3978       3977       4087       4088       4099       4098  
      3967       3968       3979       3978       4088       4089       4100       4099  
      3968       3969       3980       3979       4089       4090       4101       4100  
      3969       3970       3981       3980       4090       4091       4102       4101  
      3970       3971       3982       3981       4091       4092       4103       4102  
      3972       3973       3984       3983       4093       4094       4105       4104  
      3973       3974       3985       3984       4094       4095       4106       4105  
      3974       3975       3986       3985       4095       4096       4107       4106  
      3975       3976       3987       3986       4096       4097       4108       4107  
      3976       3977       3988       3987       4097       4098       4109       4108  
      3977       3978       3989       3988       4098       4099       4110       4109  
      3978       3979       3990       3989       4099       4100       4111       4110  
      3979       3980       3991       3990       4100       4101       4112       4111  
      3980       3981       3992       3991       4101       4102       4113       4112  
      3981       3982       3993       3992       4102       4103       4114       4113  
      3994       3995       4006       4005       4115       4116       4127       4126  
      3995       3996       4007       4006       4116       4117       4128       4127  
      3996       3997       4008       4007       4117       4118       4129       4128  
      3997       3998       4009       4008       4118       4119       4130       4129  
      3998       3999       4010       4009       4119       4120       4131       4130  
      3999       4000       4011       4010       4120       4121       4132       4131  
      4000       4001       4012       4011       4121       4122       4133       4132  
      4001       4002       4013       4012       4122       4123       4134       4133  
      4002       4003       4014       4013       4123       4124       4135       4134  
      4003       4004       4015       4014       4124       4125       4136       4135  
      4005       4006       4017       4016       4126       4127       4138       4137  
      4006       4007       4018       4017       4127       4128       4139       4138  
      4007       4008       4019       4018       4128       4129       4140       4139  
      4008       4009       4020       4019       4129       4130       4141       4140  
      4009       4010       4021       4020       4130       4131       4142       4141  
      4010       4011       4022       4021       4131       4132       4143       4142  
      4011       4012       4023       4022       4132       4133       4144       4143  
      4012       4013       4024       4023       4133       4134       4145       4144  
      4013       4014       4025       4024       4134       4135       4146       4145  
      4014       4015       4026       4025       4135       4136       4147       4146  
      4016       4017       4028       4027       4137       4138       4149       4148  
      4017       4018       4029       4028       4138       4139       4150       4149  
      4018       4019       4030       4029       4139       4140       4151       4150  
      4019       4020       4031       4030       4140       4141       4152       4151  
      4020       4021       4032       4031       4141       4142       4153       4152  
      4021       4022       4033       4032       4142       4143       4154       4153  
      4022       4023       4034       4033       4143       4144       4155       4154  
      4023       4024       4035       4034       4144       4145       4156       4155  
      4024       4025       4036       4035       4145       4146       4157       4156  
      4025       4026       4037       4036       4146       4147       4158       4157  
      4027       4028       4039       4038       4148       4149       4160       4159  
      4028       4029       4040       4039       4149       4150       4161       4160  
      4029       4030       4041       4040       4150       4151       4162       4161  
      4030       4031       4042       4041       4151       4152       4163       4162  
      4031       4032       4043       4042       4152       4153       4164       4163  
      4032       4033       4044       4043       4153       4154       4165       4164  
      4033       4034       4045       4044       4154       4155       4166       4165  
      4034       4035       4046       4045       4155       4156       4167       4166  
      4035       4036       4047       4046       4156       4157       4168       4167  
      4036       4037       4048       4047       4157       4158       4169       4168  
      4038       4039       4050       4049       4159       4160       4171       4170  
      4039       4040       4051       4050       4160       4161       4172       4171  
      4040       4041       4052       4051       4161       4162       4173       4172  
      4041       4042       4053       4052       4162       4163       4174       4173  
      4042       4043       4054       4053       4163       4164       4175       4174  
      4043       4044       4055       4054       4164       4165       4176       4175  
      4044       4045       4056       4055       4165       4166       4177       4176  
      4045       4046       4057       4056       4166       4167       4178       4177  
      4046       4047       4058       4057       4167       4168       4179       4178  
      4047       4048       4059       4058       4168       4169       4180       4179  
      4049       4050       4061       4060       4170       4171       4182       4181  
      4050       4051       4062       4061       4171       4172       4183       4182  
      4051       4052       4063       4062       4172       4173       4184       4183  
      4052       4053       4064       4063       4173       4174       4185       4184  
      4053       4054       4065       4064       4174       4175       4186       4185  
      4054       4055       4066       4065       4175       4176       4187       4186  
      4055       4056       4067       4066       4176       4177       4188       4187  
      4056       4057       4068       4067       4177       4178       4189       4188  
      4057       4058       4069       4068       4178       4179       4190       4189  
      4058       4059       4070       4069       4179       4180       4191       4190  
      4060       4061       4072       4071       4181       4182       4193       4192  
      4061       4062       4073       4072       4182       4183       4194       4193  
      4062       4063       4074       4073       4183       4184       4195       4194  
      4063       4064       4075       4074       4184       4185       4196       4195  
      4064       4065       4076       4075       4185       4186       4197       4196  
      4065       4066       4077       4076       4186       4187       4198       4197  
      4066       4067       4078       4077       4187       4188       4199       4198  
      4067       4068       4079       4078       4188       4189       4200       4199  
      4068       4069       4080       4079       4189       4190       4201       4200  
      4069       4070       4081       4080       4190       4191       4202       4201  
      4071       4072       4083       4082       4192       4193       4204       4203  
      4072       4073       4084       4083       4193       4194       4205       4204  
      4073       4074       4085       4084       4194       4195       4206       4205  
      4074       4075       4086       4085       4195       4196       4207       4206  
      4075       4076       4087       4086       4196       4197       4208       4207  
      4076       4077       4088       4087       4197       4198       4209       4208  
      4077       4078       4089       4088       4198       4199       4210       4209  
      4078       4079       4090       4089       4199       4200       4211       4210  
      4079       4080       4091       4090       4200       4201       4212       4211  
      4080       4081       4092       4091       4201       4202       4213       4212  
      4082       4083       4094       4093       4203       4204       4215       4214  
      4083       4084       4095       4094       4204       4205       4216       4215  
      4084       4085       4096       4095       4205       4206       4217       4216  
      4085       4086       4097       4096       4206       4207       4218       4217  
      4086       4087       4098       4097       4207       4208       4219       4218  
      4087       4088       4099       4098       4208       4209       4220       4219  
      4088       4089       4100       4099       4209       4210       4221       4220  
      4089       4090       4101       4100       4210       4211       4222       4221  
      4090       4091       4102       4101       4211       4212       4223       4222  
      4091       4092       4103       4102       4212       4213       4224       4223  
      4093       4094       4105       4104       4214       4215       4226       4225  
      4094       4095       4106       4105       4215       4216       4227       4226  
      4095       4096       4107       4106       4216       4217       4228       4227  
      4096       4097       4108       4107       4217       4218       4229       4228  
      4097       4098       4109       4108       4218       4219       4230       4229  
      4098       4099       4110       4109       4219       4220       4231       4230  
      4099       4100       4111       4110       4220       4221       4232       4231  
      4100       4101       4112       4111       4221       4222       4233       4232  
      4101       4102       4113       4112       4222       4223       4234       4233  
      4102       4103       4114       4113       4223       4224       4235       4234  
      4115       4116       4127       4126       4236       4237       4248       4247  
      4116       4117       4128       4127       4237       4238       4249       4248  
      4117       4118       4129       4128       4238       4239       4250       4249  
      4118       4119       4130       4129       4239       4240       4251       4250  
      4119       4120       4131       4130       4240       4241       4252       4251  
      4120       4121       4132       4131       4241       4242       4253       4252  
      4121       4122       4133       4132       4242       4243       4254       4253  
      4122       4123       4134       4133       4243       4244       4255       4254  
      4123       4124       4135       4134       4244       4245       4256       4255  
      4124       4125       4136       4135       4245       4246       4257       4256  
      4126       4127       4138       4137       4247       4248       4259       4258  
      4127       4128       4139       4138       4248       4249       4260       4259  
      4128       4129       4140       4139       4249       4250       4261       4260  
      4129       4130       4141       4140       4250       4251       4262       4261  
      4130       4131       4142       4141       4251       4252       4263       4262  
      4131       4132       4143       4142       4252       4253       4264       4263  
      4132       4133       4144       4143       4253       4254       4265       4264  
      4133       4134       4145       4144       4254       4255       4266       4265  
      4134       4135       4146       4145       4255       4256       4267       4266  
      4135       4136       4147       4146       4256       4257       4268       4267  
      4137       4138       4149       4148       4258       4259       4270       4269  
      4138       4139       4150       4149       4259       4260       4271       4270  
      4139       4140       4151       4150       4260       4261       4272       4271  
      4140       4141       4152       4151       4261       4262       4273       4272  
      4141       4142       4153       4152       4262       4263       4274       4273  
      4142       4143       4154       4153       4263       4264       4275       4274  
      4143       4144       4155       4154       4264       4265       4276       4275  
      4144       4145       4156       4155       4265       4266       4277       4276  
      4145       4146       4157       4156       4266       4267       4278       4277  
      4146       4147       4158       4157       4267       4268       4279       4278  
      4148       4149       4160       4159       4269       4270       4281       4280  
      4149       4150       4161       4160       4270       4271       4282       4281  
      4150       4151       4162       4161       4271       4272       4283       4282  
      4151       4152       4163       4162       4272       4273       4284       4283  
      4152       4153       4164       4163       4273       4274       4285       4284  
      4153       4154       4165       4164       4274       4275       4286       4285  
      4154       4155       4166       4165       4275       4276       4287       4286  
      4155       4156       4167       4166       4276       4277       4288       4287  
      4156       4157       4168       4167       4277       4278       4289       4288  
      4157       4158       4169       4168       4278       4279       4290       4289  
      4159       4160       4171       4170       4280       4281       4292       4291  
      4160       4161       4172       4171       4281       4282       4293       4292  
      4161       4162       4173       4172       4282       4283       4294       4293  
      4162       4163       4174       4173       4283       4284       4295       4294  
      4163       4164       4175       4174       4284       4285       4296       4295  
      4164       4165       4176       4175       4285       4286       4297       4296  
      4165       4166       4177       4176       4286       4287       4298       4297  
      4166       4167       4178       4177       4287       4288       4299       4298  
      4167       4168       4179       4178       4288       4289       4300       4299  
      4168       4169       4180       4179       4289       4290       4301       4300  
      4170       4171       4182       4181       4291       4292       4303       4302  
      4171       4172       4183       4182       4292       4293       4304       4303  
      4172       4173       4184       4183       4293       4294       4305       4304  
      4173       4174       4185       4184       4294       4295       4306       4305  
      4174       4175       4186       4185       4295       4296       4307       4306  
      4175       4176       4187       4186       4296       4297       4308       4307  
      4176       4177       4188       4187       4297       4298       4309       4308  
      4177       4178       4189       4188       4298       4299       4310       4309  
      4178       4179       4190       4189       4299       4300       4311       4310  
      4179       4180       4191       4190       4300       4301       4312       4311  
      4181       4182       4193       4192       4302       4303       4314       4313  
      4182       4183       4194       4193       4303       4304       4315       4314  
      4183       4184       4195       4194       4304       4305       4316       4315  
      4184       4185       4196       4195       4305       4306       4317       4316  
      4185       4186       4197       4196       4306       4307       4318       4317  
      4186       4187       4198       4197       4307       4308       4319       4318  
      4187       4188       4199       4198       4308       4309       4320       4319  
      4188       4189       4200       4199       4309       4310       4321       4320  
      4189       4190       4201       4200       4310       4311       4322       4321  
      4190       4191       4202       4201       4311       4312       4323       4322  
      4192       4193       4204       4203       4313       4314       4325       4324  
      4193       4194       4205       4204       4314       4315       4326       4325  
      4194       4195       4206       4205       4315       4316       4327       4326  
      4195       4196       4207       4206       4316       4317       4328       4327  
      4196       4197       4208       4207       4317       4318       4329       4328  
      4197       4198       4209       4208       4318       4319       4330       4329  
      4198       4199       4210       4209       4319       4320       4331       4330  
      4199       4200       4211       4210       4320       4321       4332       4331  
      4200       4201       4212       4211       4321       4322       4333       4332  
      4201       4202       4213       4212       4322       4323       4334       4333  
      4203       4204       4215       4214       4324       4325       4336       4335  
      4204       4205       4216       4215       4325       4326       4337       4336  
      4205       4206       4217       4216       4326       4327       4338       4337  
      4206       4207       4218       4217       4327       4328       4339       4338  
      4207       4208       4219       4218       4328       4329       4340       4339  
      4208       4209       4220       4219       4329       4330       4341       4340  
      4209       4210       4221       4220       4330       4331       4342       4341  
      4210       4211       4222       4221       4331       4332       4343       4342  
      4211       4212       4223       4222       4332       4333       4344       4343  
      4212       4213       4224       4223       4333       4334       4345       4344  
      4214       4215       4226       4225       4335       4336       4347       4346  
      4215       4216       4227       4226       4336       4337       4348       4347  
      4216       4217       4228       4227       4337       4338       4349       4348  
      4217       4218       4229       4228       4338       4339       4350       4349  
      4218       4219       4230       4229       4339       4340       4351       4350  
      4219       4220       4231       4230       4340       4341       4352       4351  
      4220       4221       4232       4231       4341       4342       4353       4352  
      4221       4222       4233       4232       4342       4343       4354       4353  
      4222       4223       4234       4233       4343       4344       4355       4354  
      4223       4224       4235       4234       4344       4345       4356       4355  
      4236       4237       4248       4247       4357       4358       4369       4368  
      4237       4238       4249       4248       4358       4359       4370       4369  
      4238       4239       4250       4249       4359       4360       4371       4370  
      4239       4240       4251       4250       4360       4361       4372       4371  
      4240       4241       4252       4251       4361       4362       4373       4372  
      4241       4242       4253       4252       4362       4363       4374       4373  
      4242       4243       4254       4253       4363       4364       4375       4374  
      4243       4244       4255       4254       4364       4365       4376       4375  
      4244       4245       4256       4255       4365       4366       4377       4376  
      4245       4246       4257       4256       4366       4367       4378       4377  
      4247       4248       4259       4258       4368       4369       4380       4379  
      4248       4249       4260       4259       4369       4370       4381       4380  
      4249       4250       4261       4260       4370       4371       4382       4381  
      4250       4251       4262       4261       4371       4372       4383       4382  
      4251       4252       4263       4262       4372       4373       4384       4383  
      4252       4253       4264       4263       4373       4374       4385       4384  
      4253       4254       4265       4264       4374       4375       4386       4385  
      4254       4255       4266       4265       4375       4376       4387       4386  
      4255       4256       4267       4266       4376       4377       4388       4387  
      4256       4257       4268       4267       4377       4378       4389       4388  
      4258       4259       4270       4269       4379       4380       4391       4390  
      4259       4260       4271       4270       4380       4381       4392       4391  
      4260       4261       4272       4271       4381       4382       4393       4392  
      4261       4262       4273       4272       4382       4383       4394       4393  
      4262       4263       4274       4273       4383       4384       4395       4394  
      4263       4264       4275       4274       4384       4385       4396       4395  
      4264       4265       4276       4275       4385       4386       4397       4396  
      4265       4266       4277       4276       4386       4387       4398       4397  
      4266       4267       4278       4277       4387       4388       4399       4398  
      4267       4268       4279       4278       4388       4389       4400       4399  
      4269       4270       4281       4280       4390       4391       4402       4401  
      4270       4271       4282       4281       4391       4392       4403       4402  
      4271       4272       4283       4282       4392       4393       4404       4403  
      4272       4273       4284       4283       4393       4394       4405       4404  
      4273       4274       4285       4284       4394       4395       4406       4405  
      4274       4275       4286       4285       4395       4396       4407       4406  
      4275       4276       4287       4286       4396       4397       4408       4407  
      4276       4277       4288       4287       4397       4398       4409       4408  
      4277       4278       4289       4288       4398       4399       4410       4409  
      4278       4279       4290       4289       4399       4400       4411       4410  
      4280       4281       4292       4291       4401       4402       4413       4412  
      4281       4282       4293       4292       4402       4403       4414       4413  
      4282       4283       4294       4293       4403       4404       4415       4414  
      4283       4284       4295       4294       4404       4405       4416       4415  
      4284       4285       4296       4295       4405       4406       4417       4416  
      4285       4286       4297       4296       4406       4407       4418       4417  
      4286       4287       4298       4297       4407       4408       4419       4418  
      4287       4288       4299       4298       4408       4409       4420       4419  
      4288       4289       4300       4299       4409       4410       4421       4420  
      4289       4290       4301       4300       4410       4411       4422       4421  
      4291       4292       4303       4302       4412       4413       4424       4423  
      4292       4293       4304       4303       4413       4414       4425       4424  
      4293       4294       4305       4304       4414       4415       4426       4425  
      4294       4295       4306       4305       4415       4416       4427       4426  
      4295       4296       4307       4306       4416       4417       4428       4427  
      4296       4297       4308       4307       4417       4418       4429       4428  
      4297       4298       4309       4308       4418       4419       4430       4429  
      4298       4299       4310       4309       4419       4420       4431       4430  
      4299       4300       4311       4310       4420       4421       4432       4431  
      4300       4301       4312       4311       4421       4422       4433       4432  
      4302       4303       4314       4313       4423       4424       4435       4434  
      4303       4304       4315       4314       4424       4425       4436       4435  
      4304       4305       4316       4315       4425       4426       4437       4436  
      4305       4306       4317       4316       4426       4427       4438       4437  
      4306       4307       4318       4317       4427       4428       4439       4438  
      4307       4308       4319       4318       4428       4429       4440       4439  
      4308       4309       4320       4319       4429       4430       4441       4440  
      4309       4310       4321       4320       4430       4431       4442       4441  
      4310       4311       4322       4321       4431       4432       4443       4442  
      4311       4312       4323       4322       4432       4433       4444       4443  
      4313       4314       4325       4324       4434       4435       4446       4445  
      4314       4315       4326       4325       4435       4436       4447       4446  
      4315       4316       4327       4326       4436       4437       4448       4447  
      4316       4317       4328       4327       4437       4438       4449       4448  
      4317       4318       4329       4328       4438       4439       4450       4449  
      4318       4319       4330       4329       4439       4440       4451       4450  
      4319       4320       4331       4330       4440       4441       4452       4451  
      4320       4321       4332       4331       4441       4442       4453       4452  
      4321       4322       4333       4332       4442       4443       4454       4453  
      4322       4323       4334       4333       4443       4444       4455       4454  
      4324       4325       4336       4335       4445       4446       4457       4456  
      4325       4326       4337       4336       4446       4447       4458       4457  
      4326       4327       4338       4337       4447       4448       4459       4458  
      4327       4328       4339       4338       4448       4449       4460       4459  
      4328       4329       4340       4339       4449       4450       4461       4460  
      4329       4330       4341       4340       4450       4451       4462       4461  
      4330       4331       4342       4341       4451       4452       4463       4462  
      4331       4332       4343       4342       4452       4453       4464       4463  
      4332       4333       4344       4343       4453       4454       4465       4464  
      4333       4334       4345       4344       4454       4455       4466       4465  
      4335       4336       4347       4346       4456       4457       4468       4467  
      4336       4337       4348       4347       4457       4458       4469       4468  
      4337       4338       4349       4348       4458       4459       4470       4469  
      4338       4339       4350       4349       4459       4460       4471       4470  
      4339       4340       4351       4350       4460       4461       4472       4471  
      4340       4341       4352       4351       4461       4462       4473       4472  
      4341       4342       4353       4352       4462       4463       4474       4473  
      4342       4343       4354       4353       4463       4464       4475       4474  
      4343       4344       4355       4354       4464       4465       4476       4475  
      4344       4345       4356       4355       4465       4466       4477       4476  
      4357       4358       4369       4368       4478       4479       4490       4489  
      4358       4359       4370       4369       4479       4480       4491       4490  
      4359       4360       4371       4370       4480       4481       4492       4491  
      4360       4361       4372       4371       4481       4482       4493       4492  
      4361       4362       4373       4372       4482       4483       4494       4493  
      4362       4363       4374       4373       4483       4484       4495       4494  
      4363       4364       4375       4374       4484       4485       4496       4495  
      4364       4365       4376       4375       4485       4486       4497       4496  
      4365       4366       4377       4376       4486       4487       4498       4497  
      4366       4367       4378       4377       4487       4488       4499       4498  
      4368       4369       4380       4379       4489       4490       4501       4500  
      4369       4370       4381       4380       4490       4491       4502       4501  
      4370       4371       4382       4381       4491       4492       4503       4502  
      4371       4372       4383       4382       4492       4493       4504       4503  
      4372       4373       4384       4383       4493       4494       4505       4504  
      4373       4374       4385       4384       4494       4495       4506       4505  
      4374       4375       4386       4385       4495       4496       4507       4506  
      4375       4376       4387       4386       4496       4497       4508       4507  
      4376       4377       4388       4387       4497       4498       4509       4508  
      4377       4378       4389       4388       4498       4499       4510       4509  
      4379       4380       4391       4390       4500       4501       4512       4511  
      4380       4381       4392       4391       4501       4502       4513       4512  
      4381       4382       4393       4392       4502       4503       4514       4513  
      4382       4383       4394       4393       4503       4504       4515       4514  
      4383       4384       4395       4394       4504       4505       4516       4515  
      4384       4385       4396       4395       4505       4506       4517       4516  
      4385       4386       4397       4396       4506       4507       4518       4517  
      4386       4387       4398       4397       4507       4508       4519       4518  
      4387       4388       4399       4398       4508       4509       4520       4519  
      4388       4389       4400       4399       4509       4510       4521       4520  
      4390       4391       4402       4401       4511       4512       4523       4522  
      4391       4392       4403       4402       4512       4513       4524       4523  
      4392       4393       4404       4403       4513       4514       4525       4524  
      4393       4394       4405       4404       4514       4515       4526       4525  
      4394       4395       4406       4405       4515       4516       4527       4526  
      4395       4396       4407       4406       4516       4517       4528       4527  
      4396       4397       4408       4407       4517       4518       4529       4528  
      4397       4398       4409       4408       4518       4519       4530       4529  
      4398       4399       4410       4409       4519       4520       4531       4530  
      4399       4400       4411       4410       4520       4521       4532       4531  
      4401       4402       4413       4412       4522       4523       4534       4533  
      4402       4403       4414       4413       4523       4524       4535       4534  
      4403       4404       4415       4414       4524       4525       4536       4535  
      4404       4405       4416       4415       4525       4526       4537       4536  
      4405       4406       4417       4416       4526       4527       4538       4537  
      4406       4407       4418       4417       4527       4528       4539       4538  
      4407       4408       4419       4418       4528       4529       4540       4539  
      4408       4409       4420       4419       4529       4530       4541       4540  
      4409       4410       4421       4420       4530       4531       4542       4541  
      4410       4411       4422       4421       4531       4532       4543       4542  
      4412       4413       4424       4423       4533       4534       4545       4544  
      4413       4414       4425       4424       4534       4535       4546       4545  
      4414       4415       4426       4425       4535       4536       4547       4546  
      4415       4416       4427       4426       4536       4537       4548       4547  
      4416       4417       4428       4427       4537       4538       4549       4548  
      4417       4418       4429       4428       4538       4539       4550       4549  
      4418       4419       4430       4429       4539       4540       4551       4550  
      4419       4420       4431       4430       4540       4541       4552       4551  
      4420       4421       4432       4431       4541       4542       4553       4552  
      4421       4422       4433       4432       4542       4543       4554       4553  
      4423       4424       4435       4434       4544       4545       4556       4555  
      4424       4425       4436       4435       4545       4546       4557       4556  
      4425       4426       4437       4436       4546       4547       4558       4557  
      4426       4427       4438       4437       4547       4548       4559       4558  
      4427       4428       4439       4438       4548       4549       4560       4559  
      4428       4429       4440       4439       4549       4550       4561       4560  
      4429       4430       4441       4440       4550       4551       4562       4561  
      4430       4431       4442       4441       4551       4552       4563       4562  
      4431       4432       4443       4442       4552       4553       4564       4563  
      4432       4433       4444       4443       4553       4554       4565       4564  
      4434       4435       4446       4445       4555       4556       4567       4566  
      4435       4436       4447       4446       4556       4557       4568       4567  
      4436       4437       4448       4447       4557       4558       4569       4568  
      4437       4438       4449       4448       4558       4559       4570       4569  
      4438       4439       4450       4449       4559       4560       4571       4570  
      4439       4440       4451       4450       4560       4561       4572       4571  
      4440       4441       4452       4451       4561       4562       4573       4572  
      4441       4442       4453       4452       4562       4563       4574       4573  
      4442       4443       4454       4453       4563       4564       4575       4574  
      4443       4444       4455       4454       4564       4565       4576       4575  
      4445       4446       4457       4456       4566       4567       4578       4577  
      4446       4447       4458       4457       4567       4568       4579       4578  
      4447       4448       4459       4458       4568       4569       4580       4579  
      4448       4449       4460       4459       4569       4570       4581       4580  
      4449       4450       4461       4460       4570       4571       4582       4581  
      4450       4451       4462       4461       4571       4572       4583       4582  
      4451       4452       4463       4462       4572       4573       4584       4583  
      4452       4453       4464       4463       4573       4574       4585       4584  
      4453       4454       4465       4464       4574       4575       4586       4585  
      4454       4455       4466       4465       4575       4576       4587       4586  
      4456       4457       4468       4467       4577       4578       4589       4588  
      4457       4458       4469       4468       4578       4579       4590       4589  
      4458       4459       4470       4469       4579       4580       4591       4590  
      4459       4460       4471       4470       4580       4581       4592       4591  
      4460       4461       4472       4471       4581       4582       4593       4592  
      4461       4462       4473       4472       4582       4583       4594       4593  
      4462       4463       4474       4473       4583       4584       4595       4594  
      4463       4464       4475       4474       4584       4585       4596       4595  
      4464       4465       4476       4475       4585       4586       4597       4596  
      4465       4466       4477       4476       4586       4587       4598       4597  
      4478       4479       4490       4489       4599       4600       4611       4610  
      4479       4480       4491       4490       4600       4601       4612       4611  
      4480       4481       4492       4491       4601       4602       4613       4612  
      4481       4482       4493       4492       4602       4603       4614       4613  
      4482       4483       4494       4493       4603       4604       4615       4614  
      4483       4484       4495       4494       4604       4605       4616       4615  
      4484       4485       4496       4495       4605       4606       4617       4616  
      4485       4486       4497       4496       4606       4607       4618       4617  
      4486       4487       4498       4497       4607       4608       4619       4618  
      4487       4488       4499       4498       4608       4609       4620       4619  
      4489       4490       4501       4500       4610       4611       4622       4621  
      4490       4491       4502       4501       4611       4612       4623       4622  
      4491       4492       4503       4502       4612       4613       4624       4623  
      4492       4493       4504       4503       4613       4614       4625       4624  
      4493       4494       4505       4504       4614       4615       4626       4625  
      4494       4495       4506       4505       4615       4616       4627       4626  
      4495       4496       4507       4506       4616       4617       4628       4627  
      4496       4497       4508       4507       4617       4618       4629       4628  
      4497       4498       4509       4508       4618       4619       4630       4629  
      4498       4499       4510       4509       4619       4620       4631       4630  
      4500       4501       4512       4511       4621       4622       4633       4632  
      4501       4502       4513       4512       4622       4623       4634       4633  
      4502       4503       4514       4513       4623       4624       4635       4634  
      4503       4504       4515       4514       4624       4625       4636       4635  
      4504       4505       4516       4515       4625       4626       4637       4636  
      4505       4506       4517       4516       4626       4627       4638       4637  
      4506       4507       4518       4517       4627       4628       4639       4638  
      4507       4508       4519       4518       4628       4629       4640       4639  
      4508       4509       4520       4519       4629       4630       4641       4640  
      4509       4510       4521       4520       4630       4631       4642       4641  
      4511       4512       4523       4522       4632       4633       4644       4643  
      4512       4513       4524       4523       4633       4634       4645       4644  
      4513       4514       4525       4524       4634       4635       4646       4645  
      4514       4515       4526       4525       4635       4636       4647       4646  
      4515       4516       4527       4526       4636       4637       4648       4647  
      4516       4517       4528       4527       4637       4638       4649       4648  
      4517       4518       4529       4528       4638       4639       4650       4649  
      4518       4519       4530       4529       4639       4640       4651       4650  
      4519       4520       4531       4530       4640       4641       4652       4651  
      4520       4521       4532       4531       4641       4642       4653       4652  
      4522       4523       4534       4533       4643       4644       4655       4654  
      4523       4524       4535       4534       4644       4645       4656       4655  
      4524       4525       4536       4535       4645       4646       4657       4656  
      4525       4526       4537       4536       4646       4647       4658       4657  
      4526       4527       4538       4537       4647       4648       4659       4658  
      4527       4528       4539       4538       4648       4649       4660       4659  
      4528       4529       4540       4539       4649       4650       4661       4660  
      4529       4530       4541       4540       4650       4651       4662       4661  
      4530       4531       4542       4541       4651       4652       4663       4662  
      4531       4532       4543       4542       4652       4653       4664       4663  
      4533       4534       4545       4544       4654       4655       4666       4665  
      4534       4535       4546       4545       4655       4656       4667       4666  
      4535       4536       4547       4546       4656       4657       4668       4667  
      4536       4537       4548       4547       4657       4658       4669       4668  
      4537       4538       4549       4548       4658       4659       4670       4669  
      4538       4539       4550       4549       4659       4660       4671       4670  
      4539       4540       4551       4550       4660       4661       4672       4671  
      4540       4541       4552       4551       4661       4662       4673       4672  
      4541       4542       4553       4552       4662       4663       4674       4673  
      4542       4543       4554       4553       4663       4664       4675       4674  
      4544       4545       4556       4555       4665       4666       4677       4676  
      4545       4546       4557       4556       4666       4667       4678       4677  
      4546       4547       4558       4557       4667       4668       4679       4678  
      4547       4548       4559       4558       4668       4669       4680       4679  
      4548       4549       4560       4559       4669       4670       4681       4680  
      4549       4550       4561       4560       4670       4671       4682       4681  
      4550       4551       4562       4561       4671       4672       4683       4682  
      4551       4552       4563       4562       4672       4673       4684       4683  
      4552       4553       4564       4563       4673       4674       4685       4684  
      4553       4554       4565       4564       4674       4675       4686       4685  
      4555       4556       4567       4566       4676       4677       4688       4687  
      4556       4557       4568       4567       4677       4678       4689       4688  
      4557       4558       4569       4568       4678       4679       4690       4689  
      4558       4559       4570       4569       4679       4680       4691       4690  
      4559       4560       4571       4570       4680       4681       4692       4691  
      4560       4561       4572       4571       4681       4682       4693       4692  
      4561       4562       4573       4572       4682       4683       4694       4693  
      4562       4563       4574       4573       4683       4684       4695       4694  
      4563       4564       4575       4574       4684       4685       4696       4695  
      4564       4565       4576       4575       4685       4686       4697       4696  
      4566       4567       4578       4577       4687       4688       4699       4698  
      4567       4568       4579       4578       4688       4689       4700       4699  
      4568       4569       4580       4579       4689       4690       4701       4700  
      4569       4570       4581       4580       4690       4691       4702       4701  
      4570       4571       4582       4581       4691       4692       4703       4702  
      4571       4572       4583       4582       4692       4693       4704       4703  
      4572       4573       4584       4583       4693       4694       4705       4704  
      4573       4574       4585       4584       4694       4695       4706       4705  
      4574       4575       4586       4585       4695       4696       4707       4706  
      4575       4576       4587       4586       4696       4697       4708       4707  
      4577       4578       4589       4588       4698       4699       4710       4709  
      4578       4579       4590       4589       4699       4700       4711       4710  
      4579       4580       4591       4590       4700       4701       4712       4711  
      4580       4581       4592       4591       4701       4702       4713       4712  
      4581       4582       4593       4592       4702       4703       4714       4713  
      4582       4583       4594       4593       4703       4704       4715       4714  
      4583       4584       4595       4594       4704       4705       4716       4715  
      4584       4585       4596       4595       4705       4706       4717       4716  
      4585       4586       4597       4596       4706       4707       4718       4717  
      4586       4587       4598       4597       4707       4708       4719       4718  
      4599       4600       4611       4610       4720       4721       4732       4731  
      4600       4601       4612       4611       4721       4722       4733       4732  
      4601       4602       4613       4612       4722       4723       4734       4733  
      4602       4603       4614       4613       4723       4724       4735       4734  
      4603       4604       4615       4614       4724       4725       4736       4735  
      4604       4605       4616       4615       4725       4726       4737       4736  
      4605       4606       4617       4616       4726       4727       4738       4737  
      4606       4607       4618       4617       4727       4728       4739       4738  
      4607       4608       4619       4618       4728       4729       4740       4739  
      4608       4609       4620       4619       4729       4730       4741       4740  
      4610       4611       4622       4621       4731       4732       4743       4742  
      4611       4612       4623       4622       4732       4733       4744       4743  
      4612       4613       4624       4623       4733       4734       4745       4744  
      4613       4614       4625       4624       4734       4735       4746       4745  
      4614       4615       4626       4625       4735       4736       4747       4746  
      4615       4616       4627       4626       4736       4737       4748       4747  
      4616       4617       4628       4627       4737       4738       4749       4748  
      4617       4618       4629       4628       4738       4739       4750       4749  
      4618       4619       4630       4629       4739       4740       4751       4750  
      4619       4620       4631       4630       4740       4741       4752       4751  
      4621       4622       4633       4632       4742       4743       4754       4753  
      4622       4623       4634       4633       4743       4744       4755       4754  
      4623       4624       4635       4634       4744       4745       4756       4755  
      4624       4625       4636       4635       4745       4746       4757       4756  
      4625       4626       4637       4636       4746       4747       4758       4757  
      4626       4627       4638       4637       4747       4748       4759       4758  
      4627       4628       4639       4638       4748       4749       4760       4759  
      4628       4629       4640       4639       4749       4750       4761       4760  
      4629       4630       4641       4640       4750       4751       4762       4761  
      4630       4631       4642       4641       4751       4752       4763       4762  
      4632       4633       4644       4643       4753       4754       4765       4764  
      4633       4634       4645       4644       4754       4755       4766       4765  
      4634       4635       4646       4645       4755       4756       4767       4766  
      4635       4636       4647       4646       4756       4757       4768       4767  
      4636       4637       4648       4647       4757       4758       4769       4768  
      4637       4638       4649       4648       4758       4759       4770       4769  
      4638       4639       4650       4649       4759       4760       4771       4770  
      4639       4640       4651       4650       4760       4761       4772       4771  
      4640       4641       4652       4651       4761       4762       4773       4772  
      4641       4642       4653       4652       4762       4763       4774       4773  
      4643       4644       4655       4654       4764       4765       4776       4775  
      4644       4645       4656       4655       4765       4766       4777       4776  
      4645       4646       4657       4656       4766       4767       4778       4777  
      4646       4647       4658       4657       4767       4768       4779       4778  
      4647       4648       4659       4658       4768       4769       4780       4779  
      4648       4649       4660       4659       4769       4770       4781       4780  
      4649       4650       4661       4660       4770       4771       4782       4781  
      4650       4651       4662       4661       4771       4772       4783       4782  
      4651       4652       4663       4662       4772       4773       4784       4783  
      4652       4653       4664       4663       4773       4774       4785       4784  
      4654       4655       4666       4665       4775       4776       4787       4786  
      4655       4656       4667       4666       4776       4777       4788       4787  
      4656       4657       4668       4667       4777       4778       4789       4788  
      4657       4658       4669       4668       4778       4779       4790       4789  
      4658       4659       4670       4669       4779       4780       4791       4790  
      4659       4660       4671       4670       4780       4781       4792       4791  
      4660       4661       4672       4671       4781       4782       4793       4792  
      4661       4662       4673       4672       4782       4783       4794       4793  
      4662       4663       4674       4673       4783       4784       4795       4794  
      4663       4664       4675       4674       4784       4785       4796       4795  
      4665       4666       4677       4676       4786       4787       4798       4797  
      4666       4667       4678       4677       4787       4788       4799       4798  
      4667       4668       4679       4678       4788       4789       4800       4799  
      4668       4669       4680       4679       4789       4790       4801       4800  
      4669       4670       4681       4680       4790       4791       4802       4801  
      4670       4671       4682       4681       4791       4792       4803       4802  
      4671       4672       4683       4682       4792       4793       4804       4803  
      4672       4673       4684       4683       4793       4794       4805       4804  
      4673       4674       4685       4684       4794       4795       4806       4805  
      4674       4675       4686       4685       4795       4796       4807       4806  
      4676       4677       4688       4687       4797       4798       4809       4808  
      4677       4678       4689       4688       4798       4799       4810       4809  
      4678       4679       4690       4689       4799       4800       4811       4810  
      4679       4680       4691       4690       4800       4801       4812       4811  
      4680       4681       4692       4691       4801       4802       4813       4812  
      4681       4682       4693       4692       4802       4803       4814       4813  
      4682       4683       4694       4693       4803       4804       4815       4814  
      4683       4684       4695       4694       4804       4805       4816       4815  
      4684       4685       4696       4695       4805       4806       4817       4816  
      4685       4686       4697       4696       4806       4807       4818       4817  
      4687       4688       4699       4698       4808       4809       4820       4819  
      4688       4689       4700       4699       4809       4810       4821       4820  
      4689       4690       4701       4700       4810       4811       4822       4821  
      4690       4691       4702       4701       4811       4812       4823       4822  
      4691       4692       4703       4702       4812       4813       4824       4823  
      4692       4693       4704       4703       4813       4814       4825       4824  
      4693       4694       4705       4704       4814       4815       4826       4825  
      4694       4695       4706       4705       4815       4816       4827       4826  
      4695       4696       4707       4706       4816       4817       4828       4827  
      4696       4697       4708       4707       4817       4818       4829       4828  
      4698       4699       4710       4709       4819       4820       4831       4830  
      4699       4700       4711       4710       4820       4821       4832       4831  
      4700       4701       4712       4711       4821       4822       4833       4832  
      4701       4702       4713       4712       4822       4823       4834       4833  
      4702       4703       4714       4713       4823       4824       4835       4834  
      4703       4704       4715       4714       4824       4825       4836       4835  
      4704       4705       4716       4715       4825       4826       4837       4836  
      4705       4706       4717       4716       4826       4827       4838       4837  
      4706       4707       4718       4717       4827       4828       4839       4838  
      4707       4708       4719       4718       4828       4829       4840       4839  
      4720       4721       4732       4731       4841       4842       4853       4852  
      4721       4722       4733       4732       4842       4843       4854       4853  
      4722       4723       4734       4733       4843       4844       4855       4854  
      4723       4724       4735       4734       4844       4845       4856       4855  
      4724       4725       4736       4735       4845       4846       4857       4856  
      4725       4726       4737       4736       4846       4847       4858       4857  
      4726       4727       4738       4737       4847       4848       4859       4858  
      4727       4728       4739       4738       4848       4849       4860       4859  
      4728       4729       4740       4739       4849       4850       4861       4860  
      4729       4730       4741       4740       4850       4851       4862       4861  
      4731       4732       4743       4742       4852       4853       4864       4863  
      4732       4733       4744       4743       4853       4854       4865       4864  
      4733       4734       4745       4744       4854       4855       4866       4865  
      4734       4735       4746       4745       4855       4856       4867       4866  
      4735       4736       4747       4746       4856       4857       4868       4867  
      4736       4737       4748       4747       4857       4858       4869       4868  
      4737       4738       4749       4748       4858       4859       4870       4869  
      4738       4739       4750       4749       4859       4860       4871       4870  
      4739       4740       4751       4750       4860       4861       4872       4871  
      4740       4741       4752       4751       4861       4862       4873       4872  
      4742       4743       4754       4753       4863       4864       4875       4874  
      4743       4744       4755       4754       4864       4865       4876       4875  
      4744       4745       4756       4755       4865       4866       4877       4876  
      4745       4746       4757       4756       4866       4867       4878       4877  
      4746       4747       4758       4757       4867       4868       4879       4878  
      4747       4748       4759       4758       4868       4869       4880       4879  
      4748       4749       4760       4759       4869       4870       4881       4880  
      4749       4750       4761       4760       4870       4871       4882       4881  
      4750       4751       4762       4761       4871       4872       4883       4882  
      4751       4752       4763       4762       4872       4873       4884       4883  
      4753       4754       4765       4764       4874       4875       4886       4885  
      4754       4755       4766       4765       4875       4876       4887       4886  
      4755       4756       4767       4766       4876       4877       4888       4887  
      4756       4757       4768       4767       4877       4878       4889       4888  
      4757       4758       4769       4768       4878       4879       4890       4889  
      4758       4759       4770       4769       4879       4880       4891       4890  
      4759       4760       4771       4770       4880       4881       4892       4891  
      4760       4761       4772       4771       4881       4882       4893       4892  
      4761       4762       4773       4772       4882       4883       4894       4893  
      4762       4763       4774       4773       4883       4884       4895       4894  
      4764       4765       4776       4775       4885       4886       4897       4896  
      4765       4766       4777       4776       4886       4887       4898       4897  
      4766       4767       4778       4777       4887       4888       4899       4898  
      4767       4768       4779       4778       4888       4889       4900       4899  
      4768       4769       4780       4779       4889       4890       4901       4900  
      4769       4770       4781       4780       4890       4891       4902       4901  
      4770       4771       4782       4781       4891       4892       4903       4902  
      4771       4772       4783       4782       4892       4893       4904       4903  
      4772       4773       4784       4783       4893       4894       4905       4904  
      4773       4774       4785       4784       4894       4895       4906       4905  
      4775       4776       4787       4786       4896       4897       4908       4907  
      4776       4777       4788       4787       4897       4898       4909       4908  
      4777       4778       4789       4788       4898       4899       4910       4909  
      4778       4779       4790       4789       4899       4900       4911       4910  
      4779       4780       4791       4790       4900       4901       4912       4911  
      4780       4781       4792       4791       4901       4902       4913       4912  
      4781       4782       4793       4792       4902       4903       4914       4913  
      4782       4783       4794       4793       4903       4904       4915       4914  
      4783       4784       4795       4794       4904       4905       4916       4915  
      4784       4785       4796       4795       4905       4906       4917       4916  
      4786       4787       4798       4797       4907       4908       4919       4918  
      4787       4788       4799       4798       4908       4909       4920       4919  
      4788       4789       4800       4799       4909       4910       4921       4920  
      4789       4790       4801       4800       4910       4911       4922       4921  
      4790       4791       4802       4801       4911       4912       4923       4922  
      4791       4792       4803       4802       4912       4913       4924       4923  
      4792       4793       4804       4803       4913       4914       4925       4924  
      4793       4794       4805       4804       4914       4915       4926       4925  
      4794       4795       4806       4805       4915       4916       4927       4926  
      4795       4796       4807       4806       4916       4917       4928       4927  
      4797       4798       4809       4808       4918       4919       4930       4929  
      4798       4799       4810       4809       4919       4920       4931       4930  
      4799       4800       4811       4810       4920       4921       4932       4931  
      4800       4801       4812       4811       4921       4922       4933       4932  
      4801       4802       4813       4812       4922       4923       4934       4933  
      4802       4803       4814       4813       4923       4924       4935       4934  
      4803       4804       4815       4814       4924       4925       4936       4935  
      4804       4805       4816       4815       4925       4926       4937       4936  
      4805       4806       4817       4816       4926       4927       4938       4937  
      4806       4807       4818       4817       4927       4928       4939       4938  
      4808       4809       4820       4819       4929       4930       4941       4940  
      4809       4810       4821       4820       4930       4931       4942       4941  
      4810       4811       4822       4821       4931       4932       4943       4942  
      4811       4812       4823       4822       4932       4933       4944       4943  
      4812       4813       4824       4823       4933       4934       4945       4944  
      4813       4814       4825       4824       4934       4935       4946       4945  
      4814       4815       4826       4825       4935       4936       4947       4946  
      4815       4816       4827       4826       4936       4937       4948       4947  
      4816       4817       4828       4827       4937       4938       4949       4948  
      4817       4818       4829       4828       4938       4939       4950       4949  
      4819       4820       4831       4830       4940       4941       4952       4951  
      4820       4821       4832       4831       4941       4942       4953       4952  
      4821       4822       4833       4832       4942       4943       4954       4953  
      4822       4823       4834       4833       4943       4944       4955       4954  
      4823       4824       4835       4834       4944       4945       4956       4955  
      4824       4825       4836       4835       4945       4946       4957       4956  
      4825       4826       4837       4836       4946       4947       4958       4957  
      4826       4827       4838       4837       4947       4948       4959       4958  
      4827       4828       4839       4838       4948       4949       4960       4959  
      4828       4829       4840       4839       4949       4950       4961       4960  
      4841       4842       4853       4852       4962       4963       4974       4973  
      4842       4843       4854       4853       4963       4964       4975       4974  
      4843       4844       4855       4854       4964       4965       4976       4975  
      4844       4845       4856       4855       4965       4966       4977       4976  
      4845       4846       4857       4856       4966       4967       4978       4977  
      4846       4847       4858       4857       4967       4968       4979       4978  
      4847       4848       4859       4858       4968       4969       4980       4979  
      4848       4849       4860       4859       4969       4970       4981       4980  
      4849       4850       4861       4860       4970       4971       4982       4981  
      4850       4851       4862       4861       4971       4972       4983       4982  
      4852       4853       4864       4863       4973       4974       4985       4984  
      4853       4854       4865       4864       4974       4975       4986       4985  
      4854       4855       4866       4865       4975       4976       4987       4986  
      4855       4856       4867       4866       4976       4977       4988       4987  
      4856       4857       4868       4867       4977       4978       4989       4988  
      4857       4858       4869       4868       4978       4979       4990       4989  
      4858       4859       4870       4869       4979       4980       4991       4990  
      4859       4860       4871       4870       4980       4981       4992       4991  
      4860       4861       4872       4871       4981       4982       4993       4992  
      4861       4862       4873       4872       4982       4983       4994       4993  
      4863       4864       4875       4874       4984       4985       4996       4995  
      4864       4865       4876       4875       4985       4986       4997       4996  
      4865       4866       4877       4876       4986       4987       4998       4997  
      4866       4867       4878       4877       4987       4988       4999       4998  
      4867       4868       4879       4878       4988       4989       5000       4999  
      4868       4869       4880       4879       4989       4990       5001       5000  
      4869       4870       4881       4880       4990       4991       5002       5001  
      4870       4871       4882       4881       4991       4992       5003       5002  
      4871       4872       4883       4882       4992       4993       5004       5003  
      4872       4873       4884       4883       4993       4994       5005       5004  
      4874       4875       4886       4885       4995       4996       5007       5006  
      4875       4876       4887       4886       4996       4997       5008       5007  
      4876       4877       4888       4887       4997       4998       5009       5008  
      4877       4878       4889       4888       4998       4999       5010       5009  
      4878       4879       4890       4889       4999       5000       5011       5010  
      4879       4880       4891       4890       5000       5001       5012       5011  
      4880       4881       4892       4891       5001       5002       5013       5012  
      4881       4882       4893       4892       5002       5003       5014       5013  
      4882       4883       4894       4893       5003       5004       5015       5014  
      4883       4884       4895       4894       5004       5005       5016       5015  
      4885       4886       4897       4896       5006       5007       5018       5017  
      4886       4887       4898       4897       5007       5008       5019       5018  
      4887       4888       4899       4898       5008       5009       5020       5019  
      4888       4889       4900       4899       5009       5010       5021       5020  
      4889       4890       4901       4900       5010       5011       5022       5021  
      4890       4891       4902       4901       5011       5012       5023       5022  
      4891       4892       4903       4902       5012       5013       5024       5023  
      4892       4893       4904       4903       5013       5014       5025       5024  
      4893       4894       4905       4904       5014       5015       5026       5025  
      4894       4895       4906       4905       5015       5016       5027       5026  
      4896       4897       4908       4907       5017       5018       5029       5028  
      4897       4898       4909       4908       5018       5019       5030       5029  
      4898       4899       4910       4909       5019       5020       5031       5030  
      4899       4900       4911       4910       5020       5021       5032       5031  
      4900       4901       4912       4911       5021       5022       5033       5032  
      4901       4902       4913       4912       5022       5023       5034       5033  
      4902       4903       4914       4913       5023       5024       5035       5034  
      4903       4904       4915       4914       5024       5025       5036       5035  
      4904       4905       4916       4915       5025       5026       5037       5036  
      4905       4906       4917       4916       5026       5027       5038       5037  
      4907       4908       4919       4918       5028       5029       5040       5039  
      4908       4909       4920       4919       5029       5030       5041       5040  
      4909       4910       4921       4920       5030       5031       5042       5041  
      4910       4911       4922       4921       5031       5032       5043       5042  
      4911       4912       4923       4922       5032       5033       5044       5043  
      4912       4913       4924       4923       5033       5034       5045       5044  
      4913       4914       4925       4924       5034       5035       5046       5045  
      4914       4915       4926       4925       5035       5036       5047       5046  
      4915       4916       4927       4926       5036       5037       5048       5047  
      4916       4917       4928       4927       5037       5038       5049       5048  
      4918       4919       4930       4929       5039       5040       5051       5050  
      4919       4920       4931       4930       5040       5041       5052       5051  
      4920       4921       4932       4931       5041       5042       5053       5052  
      4921       4922       4933       4932       5042       5043       5054       5053  
      4922       4923       4934       4933       5043       5044       5055       5054  
      4923       4924       4935       4934       5044       5045       5056       5055  
      4924       4925       4936       4935       5045       5046       5057       5056  
      4925       4926       4937       4936       5046       5047       5058       5057  
      4926       4927       4938       4937       5047       5048       5059       5058  
      4927       4928       4939       4938       5048       5049       5060       5059  
      4929       4930       4941       4940       5050       5051       5062       5061  
      4930       4931       4942       4941       5051       5052       5063       5062  
      4931       4932       4943       4942       5052       5053       5064       5063  
      4932       4933       4944       4943       5053       5054       5065       5064  
      4933       4934       4945       4944       5054       5055       5066       5065  
      4934       4935       4946       4945       5055       5056       5067       5066  
      4935       4936       4947       4946       5056       5057       5068       5067  
      4936       4937       4948       4947       5057       5058       5069       5068  
      4937       4938       4949       4948       5058       5059       5070       5069  
      4938       4939       4950       4949       5059       5060       5071       5070  
      4940       4941       4952       4951       5061       5062       5073       5072  
      4941       4942       4953       4952       5062       5063       5074       5073  
      4942       4943       4954       4953       5063       5064       5075       5074  
      4943       4944       4955       4954       5064       5065       5076       5075  
      4944       4945       4956       4955       5065       5066       5077       5076  
      4945       4946       4957       4956       5066       5067       5078       5077  
      4946       4947       4958       4957       5067       5068       5079       5078  
      4947       4948       4959       4958       5068       5069       5080       5079  
      4948       4949       4960       4959       5069       5070       5081       5080  
      4949       4950       4961       4960       5070       5071       5082       5081  
      4962       4963       4974       4973       5083       5084       5095       5094  
      4963       4964       4975       4974       5084       5085       5096       5095  
      4964       4965       4976       4975       5085       5086       5097       5096  
      4965       4966       4977       4976       5086       5087       5098       5097  
      4966       4967       4978       4977       5087       5088       5099       5098  
      4967       4968       4979       4978       5088       5089       5100       5099  
      4968       4969       4980       4979       5089       5090       5101       5100  
      4969       4970       4981       4980       5090       5091       5102       5101  
      4970       4971       4982       4981       5091       5092       5103       5102  
      4971       4972       4983       4982       5092       5093       5104       5103  
      4973       4974       4985       4984       5094       5095       5106       5105  
      4974       4975       4986       4985       5095       5096       5107       5106  
      4975       4976       4987       4986       5096       5097       5108       5107  
      4976       4977       4988       4987       5097       5098       5109       5108  
      4977       4978       4989       4988       5098       5099       5110       5109  
      4978       4979       4990       4989       5099       5100       5111       5110  
      4979       4980       4991       4990       5100       5101       5112       5111  
      4980       4981       4992       4991       5101       5102       5113       5112  
      4981       4982       4993       4992       5102       5103       5114       5113  
      4982       4983       4994       4993       5103       5104       5115       5114  
      4984       4985       4996       4995       5105       5106       5117       5116  
      4985       4986       4997       4996       5106       5107       5118       5117  
      4986       4987       4998       4997       5107       5108       5119       5118  
      4987       4988       4999       4998       5108       5109       5120       5119  
      4988       4989       5000       4999       5109       5110       5121       5120  
      4989       4990       5001       5000       5110       5111       5122       5121  
      4990       4991       5002       5001       5111       5112       5123       5122  
      4991       4992       5003       5002       5112       5113       5124       5123  
      4992       4993       5004       5003       5113       5114       5125       5124  
      4993       4994       5005       5004       5114       5115       5126       5125  
      4995       4996       5007       5006       5116       5117       5128       5127  
      4996       4997       5008       5007       5117       5118       5129       5128  
      4997       4998       5009       5008       5118       5119       5130       5129  
      4998       4999       5010       5009       5119       5120       5131       5130  
      4999       5000       5011       5010       5120       5121       5132       5131  
      5000       5001       5012       5011       5121       5122       5133       5132  
      5001       5002       5013       5012       5122       5123       5134       5133  
      5002       5003       5014       5013       5123       5124       5135       5134  
      5003       5004       5015       5014       5124       5125       5136       5135  
      5004       5005       5016       5015       5125       5126       5137       5136  
      5006       5007       5018       5017       5127       5128       5139       5138  
      5007       5008       5019       5018       5128       5129       5140       5139  
      5008       5009       5020       5019       5129       5130       5141       5140  
      5009       5010       5021       5020       5130       5131       5142       5141  
      5010       5011       5022       5021       5131       5132       5143       5142  
      5011       5012       5023       5022       5132       5133       5144       5143  
      5012       5013       5024       5023       5133       5134       5145       5144  
      5013       5014       5025       5024       5134       5135       5146       5145  
      5014       5015       5026       5025       5135       5136       5147       5146  
      5015       5016       5027       5026       5136       5137       5148       5147  
      5017       5018       5029       5028       5138       5139       5150       5149  
      5018       5019       5030       5029       5139       5140       5151       5150  
      5019       5020       5031       5030       5140       5141       5152       5151  
      5020       5021       5032       5031       5141       5142       5153       5152  
      5021       5022       5033       5032       5142       5143       5154       5153  
      5022       5023       5034       5033       5143       5144       5155       5154  
      5023       5024       5035       5034       5144       5145       5156       5155  
      5024       5025       5036       5035       5145       5146       5157       5156  
      5025       5026       5037       5036       5146       5147       5158       5157  
      5026       5027       5038       5037       5147       5148       5159       5158  
      5028       5029       5040       5039       5149       5150       5161       5160  
      5029       5030       5041       5040       5150       5151       5162       5161  
      5030       5031       5042       5041       5151       5152       5163       5162  
      5031       5032       5043       5042       5152       5153       5164       5163  
      5032       5033       5044       5043       5153       5154       5165       5164  
      5033       5034       5045       5044       5154       5155       5166       5165  
      5034       5035       5046       5045       5155       5156       5167       5166  
      5035       5036       5047       5046       5156       5157       5168       5167  
      5036       5037       5048       5047       5157       5158       5169       5168  
      5037       5038       5049       5048       5158       5159       5170       5169  
      5039       5040       5051       5050       5160       5161       5172       5171  
      5040       5041       5052       5051       5161       5162       5173       5172  
      5041       5042       5053       5052       5162       5163       5174       5173  
      5042       5043       5054       5053       5163       5164       5175       5174  
      5043       5044       5055       5054       5164       5165       5176       5175  
      5044       5045       5056       5055       5165       5166       5177       5176  
      5045       5046       5057       5056       5166       5167       5178       5177  
      5046       5047       5058       5057       5167       5168       5179       5178  
      5047       5048       5059       5058       5168       5169       5180       5179  
      5048       5049       5060       5059       5169       5170       5181       5180  
      5050       5051       5062       5061       5171       5172       5183       5182  
      5051       5052       5063       5062       5172       5173       5184       5183  
      5052       5053       5064       5063       5173       5174       5185       5184  
      5053       5054       5065       5064       5174       5175       5186       5185  
      5054       5055       5066       5065       5175       5176       5187       5186  
      5055       5056       5067       5066       5176       5177       5188       5187  
      5056       5057       5068       5067       5177       5178       5189       5188  
      5057       5058       5069       5068       5178       5179       5190       5189  
      5058       5059       5070       5069       5179       5180       5191       5190  
      5059       5060       5071       5070       5180       5181       5192       5191  
      5061       5062       5073       5072       5182       5183       5194       5193  
      5062       5063       5074       5073       5183       5184       5195       5194  
      5063       5064       5075       5074       5184       5185       5196       5195  
      5064       5065       5076       5075       5185       5186       5197       5196  
      5065       5066       5077       5076       5186       5187       5198       5197  
      5066       5067       5078       5077       5187       5188       5199       5198  
      5067       5068       5079       5078       5188       5189       5200       5199  
      5068       5069       5080       5079       5189       5190       5201       5200  
      5069       5070       5081       5080       5190       5191       5202       5201  
      5070       5071       5082       5081       5191       5192       5203       5202  
      5083       5084       5095       5094       5204       5205       5216       5215  
      5084       5085       5096       5095       5205       5206       5217       5216  
      5085       5086       5097       5096       5206       5207       5218       5217  
      5086       5087       5098       5097       5207       5208       5219       5218  
      5087       5088       5099       5098       5208       5209       5220       5219  
      5088       5089       5100       5099       5209       5210       5221       5220  
      5089       5090       5101       5100       5210       5211       5222       5221  
      5090       5091       5102       5101       5211       5212       5223       5222  
      5091       5092       5103       5102       5212       5213       5224       5223  
      5092       5093       5104       5103       5213       5214       5225       5224  
      5094       5095       5106       5105       5215       5216       5227       5226  
      5095       5096       5107       5106       5216       5217       5228       5227  
      5096       5097       5108       5107       5217       5218       5229       5228  
      5097       5098       5109       5108       5218       5219       5230       5229  
      5098       5099       5110       5109       5219       5220       5231       5230  
      5099       5100       5111       5110       5220       5221       5232       5231  
      5100       5101       5112       5111       5221       5222       5233       5232  
      5101       5102       5113       5112       5222       5223       5234       5233  
      5102       5103       5114       5113       5223       5224       5235       5234  
      5103       5104       5115       5114       5224       5225       5236       5235  
      5105       5106       5117       5116       5226       5227       5238       5237  
      5106       5107       5118       5117       5227       5228       5239       5238  
      5107       5108       5119       5118       5228       5229       5240       5239  
      5108       5109       5120       5119       5229       5230       5241       5240  
      5109       5110       5121       5120       5230       5231       5242       5241  
      5110       5111       5122       5121       5231       5232       5243       5242  
      5111       5112       5123       5122       5232       5233       5244       5243  
      5112       5113       5124       5123       5233       5234       5245       5244  
      5113       5114       5125       5124       5234       5235       5246       5245  
      5114       5115       5126       5125       5235       5236       5247       5246  
      5116       5117       5128       5127       5237       5238       5249       5248  
      5117       5118       5129       5128       5238       5239       5250       5249  
      5118       5119       5130       5129       5239       5240       5251       5250  
      5119       5120       5131       5130       5240       5241       5252       5251  
      5120       5121       5132       5131       5241       5242       5253       5252  
      5121       5122       5133       5132       5242       5243       5254       5253  
      5122       5123       5134       5133       5243       5244       5255       5254  
      5123       5124       5135       5134       5244       5245       5256       5255  
      5124       5125       5136       5135       5245       5246       5257       5256  
      5125       5126       5137       5136       5246       5247       5258       5257  
      5127       5128       5139       5138       5248       5249       5260       5259  
      5128       5129       5140       5139       5249       5250       5261       5260  
      5129       5130       5141       5140       5250       5251       5262       5261  
      5130       5131       5142       5141       5251       5252       5263       5262  
      5131       5132       5143       5142       5252       5253       5264       5263  
      5132       5133       5144       5143       5253       5254       5265       5264  
      5133       5134       5145       5144       5254       5255       5266       5265  
      5134       5135       5146       5145       5255       5256       5267       5266  
      5135       5136       5147       5146       5256       5257       5268       5267  
      5136       5137       5148       5147       5257       5258       5269       5268  
      5138       5139       5150       5149       5259       5260       5271       5270  
      5139       5140       5151       5150       5260       5261       5272       5271  
      5140       5141       5152       5151       5261       5262       5273       5272  
      5141       5142       5153       5152       5262       5263       5274       5273  
      5142       5143       5154       5153       5263       5264       5275       5274  
      5143       5144       5155       5154       5264       5265       5276       5275  
      5144       5145       5156       5155       5265       5266       5277       5276  
      5145       5146       5157       5156       5266       5267       5278       5277  
      5146       5147       5158       5157       5267       5268       5279       5278  
      5147       5148       5159       5158       5268       5269       5280       5279  
      5149       5150       5161       5160       5270       5271       5282       5281  
      5150       5151       5162       5161       5271       5272       5283       5282  
      5151       5152       5163       5162       5272       5273       5284       5283  
      5152       5153       5164       5163       5273       5274       5285       5284  
      5153       5154       5165       5164       5274       5275       5286       5285  
      5154       5155       5166       5165       5275       5276       5287       5286  
      5155       5156       5167       5166       5276       5277       5288       5287  
      5156       5157       5168       5167       5277       5278       5289       5288  
      5157       5158       5169       5168       5278       5279       5290       5289  
      5158       5159       5170       5169       5279       5280       5291       5290  
      5160       5161       5172       5171       5281       5282       5293       5292  
      5161       5162       5173       5172       5282       5283       5294       5293  
      5162       5163       5174       5173       5283       5284       5295       5294  
      5163       5164       5175       5174       5284       5285       5296       5295  
      5164       5165       5176       5175       5285       5286       5297       5296  
      5165       5166       5177       5176       5286       5287       5298       5297  
      5166       5167       5178       5177       5287       5288       5299       5298  
      5167       5168       5179       5178       5288       5289       5300       5299  
      5168       5169       5180       5179       5289       5290       5301       5300  
      5169       5170       5181       5180       5290       5291       5302       5301  
      5171       5172       5183       5182       5292       5293       5304       5303  
      5172       5173       5184       5183       5293       5294       5305       5304  
      5173       5174       5185       5184       5294       5295       5306       5305  
      5174       5175       5186       5185       5295       5296       5307       5306  
      5175       5176       5187       5186       5296       5297       5308       5307  
      5176       5177       5188       5187       5297       5298       5309       5308  
      5177       5178       5189       5188       5298       5299       5310       5309  
      5178       5179       5190       5189       5299       5300       5311       5310  
      5179       5180       5191       5190       5300       5301       5312       5311  
      5180       5181       5192       5191       5301       5302       5313       5312  
      5182       5183       5194       5193       5303       5304       5315       5314  
      5183       5184       5195       5194       5304       5305       5316       5315  
      5184       5185       5196       5195       5305       5306       5317       5316  
      5185       5186       5197       5196       5306       5307       5318       5317  
      5186       5187       5198       5197       5307       5308       5319       5318  
      5187       5188       5199       5198       5308       5309       5320       5319  
      5188       5189       5200       5199       5309       5310       5321       5320  
      5189       5190       5201       5200       5310       5311       5322       5321  
      5190       5191       5202       5201       5311       5312       5323       5322  
      5191       5192       5203       5202       5312       5313       5324       5323  
      5204       5205       5216       5215       5325       5326       5337       5336  
      5205       5206       5217       5216       5326       5327       5338       5337  
      5206       5207       5218       5217       5327       5328       5339       5338  
      5207       5208       5219       5218       5328       5329       5340       5339  
      5208       5209       5220       5219       5329       5330       5341       5340  
      5209       5210       5221       5220       5330       5331       5342       5341  
      5210       5211       5222       5221       5331       5332       5343       5342  
      5211       5212       5223       5222       5332       5333       5344       5343  
      5212       5213       5224       5223       5333       5334       5345       5344  
      5213       5214       5225       5224       5334       5335       5346       5345  
      5215       5216       5227       5226       5336       5337       5348       5347  
      5216       5217       5228       5227       5337       5338       5349       5348  
      5217       5218       5229       5228       5338       5339       5350       5349  
      5218       5219       5230       5229       5339       5340       5351       5350  
      5219       5220       5231       5230       5340       5341       5352       5351  
      5220       5221       5232       5231       5341       5342       5353       5352  
      5221       5222       5233       5232       5342       5343       5354       5353  
      5222       5223       5234       5233       5343       5344       5355       5354  
      5223       5224       5235       5234       5344       5345       5356       5355  
      5224       5225       5236       5235       5345       5346       5357       5356  
      5226       5227       5238       5237       5347       5348       5359       5358  
      5227       5228       5239       5238       5348       5349       5360       5359  
      5228       5229       5240       5239       5349       5350       5361       5360  
      5229       5230       5241       5240       5350       5351       5362       5361  
      5230       5231       5242       5241       5351       5352       5363       5362  
      5231       5232       5243       5242       5352       5353       5364       5363  
      5232       5233       5244       5243       5353       5354       5365       5364  
      5233       5234       5245       5244       5354       5355       5366       5365  
      5234       5235       5246       5245       5355       5356       5367       5366  
      5235       5236       5247       5246       5356       5357       5368       5367  
      5237       5238       5249       5248       5358       5359       5370       5369  
      5238       5239       5250       5249       5359       5360       5371       5370  
      5239       5240       5251       5250       5360       5361       5372       5371  
      5240       5241       5252       5251       5361       5362       5373       5372  
      5241       5242       5253       5252       5362       5363       5374       5373  
      5242       5243       5254       5253       5363       5364       5375       5374  
      5243       5244       5255       5254       5364       5365       5376       5375  
      5244       5245       5256       5255       5365       5366       5377       5376  
      5245       5246       5257       5256       5366       5367       5378       5377  
      5246       5247       5258       5257       5367       5368       5379       5378  
      5248       5249       5260       5259       5369       5370       5381       5380  
      5249       5250       5261       5260       5370       5371       5382       5381  
      5250       5251       5262       5261       5371       5372       5383       5382  
      5251       5252       5263       5262       5372       5373       5384       5383  
      5252       5253       5264       5263       5373       5374       5385       5384  
      5253       5254       5265       5264       5374       5375       5386       5385  
      5254       5255       5266       5265       5375       5376       5387       5386  
      5255       5256       5267       5266       5376       5377       5388       5387  
      5256       5257       5268       5267       5377       5378       5389       5388  
      5257       5258       5269       5268       5378       5379       5390       5389  
      5259       5260       5271       5270       5380       5381       5392       5391  
      5260       5261       5272       5271       5381       5382       5393       5392  
      5261       5262       5273       5272       5382       5383       5394       5393  
      5262       5263       5274       5273       5383       5384       5395       5394  
      5263       5264       5275       5274       5384       5385       5396       5395  
      5264       5265       5276       5275       5385       5386       5397       5396  
      5265       5266       5277       5276       5386       5387       5398       5397  
      5266       5267       5278       5277       5387       5388       5399       5398  
      5267       5268       5279       5278       5388       5389       5400       5399  
      5268       5269       5280       5279       5389       5390       5401       5400  
      5270       5271       5282       5281       5391       5392       5403       5402  
      5271       5272       5283       5282       5392       5393       5404       5403  
      5272       5273       5284       5283       5393       5394       5405       5404  
      5273       5274       5285       5284       5394       5395       5406       5405  
      5274       5275       5286       5285       5395       5396       5407       5406  
      5275       5276       5287       5286       5396       5397       5408       5407  
      5276       5277       5288       5287       5397       5398       5409       5408  
      5277       5278       5289       5288       5398       5399       5410       5409  
      5278       5279       5290       5289       5399       5400       5411       5410  
      5279       5280       5291       5290       5400       5401       5412       5411  
      5281       5282       5293       5292       5402       5403       5414       5413  
      5282       5283       5294       5293       5403       5404       5415       5414  
      5283       5284       5295       5294       5404       5405       5416       5415  
      5284       5285       5296       5295       5405       5406       5417       5416  
      5285       5286       5297       5296       5406       5407       5418       5417  
      5286       5287       5298       5297       5407       5408       5419       5418  
      5287       5288       5299       5298       5408       5409       5420       5419  
      5288       5289       5300       5299       5409       5410       5421       5420  
      5289       5290       5301       5300       5410       5411       5422       5421  
      5290       5291       5302       5301       5411       5412       5423       5422  
      5292       5293       5304       5303       5413       5414       5425       5424  
      5293       5294       5305       5304       5414       5415       5426       5425  
      5294       5295       5306       5305       5415       5416       5427       5426  
      5295       5296       5307       5306       5416       5417       5428       5427  
      5296       5297       5308       5307       5417       5418       5429       5428  
      5297       5298       5309       5308       5418       5419       5430       5429  
      5298       5299       5310       5309       5419       5420       5431       5430  
      5299       5300       5311       5310       5420       5421       5432       5431  
      5300       5301       5312       5311       5421       5422       5433       5432  
      5301       5302       5313       5312       5422       5423       5434       5433  
      5303       5304       5315       5314       5424       5425       5436       5435  
      5304       5305       5316       5315       5425       5426       5437       5436  
      5305       5306       5317       5316       5426       5427       5438       5437  
      5306       5307       5318       5317       5427       5428       5439       5438  
      5307       5308       5319       5318       5428       5429       5440       5439  
      5308       5309       5320       5319       5429       5430       5441       5440  
      5309       5310       5321       5320       5430       5431       5442       5441  
      5310       5311       5322       5321       5431       5432       5443       5442  
      5311       5312       5323       5322       5432       5433       5444       5443  
      5312       5313       5324       5323       5433       5434       5445       5444  
      5325       5326       5337       5336       5446       5447       5458       5457  
      5326       5327       5338       5337       5447       5448       5459       5458  
      5327       5328       5339       5338       5448       5449       5460       5459  
      5328       5329       5340       5339       5449       5450       5461       5460  
      5329       5330       5341       5340       5450       5451       5462       5461  
      5330       5331       5342       5341       5451       5452       5463       5462  
      5331       5332       5343       5342       5452       5453       5464       5463  
      5332       5333       5344       5343       5453       5454       5465       5464  
      5333       5334       5345       5344       5454       5455       5466       5465  
      5334       5335       5346       5345       5455       5456       5467       5466  
      5336       5337       5348       5347       5457       5458       5469       5468  
      5337       5338       5349       5348       5458       5459       5470       5469  
      5338       5339       5350       5349       5459       5460       5471       5470  
      5339       5340       5351       5350       5460       5461       5472       5471  
      5340       5341       5352       5351       5461       5462       5473       5472  
      5341       5342       5353       5352       5462       5463       5474       5473  
      5342       5343       5354       5353       5463       5464       5475       5474  
      5343       5344       5355       5354       5464       5465       5476       5475  
      5344       5345       5356       5355       5465       5466       5477       5476  
      5345       5346       5357       5356       5466       5467       5478       5477  
      5347       5348       5359       5358       5468       5469       5480       5479  
      5348       5349       5360       5359       5469       5470       5481       5480  
      5349       5350       5361       5360       5470       5471       5482       5481  
      5350       5351       5362       5361       5471       5472       5483       5482  
      5351       5352       5363       5362       5472       5473       5484       5483  
      5352       5353       5364       5363       5473       5474       5485       5484  
      5353       5354       5365       5364       5474       5475       5486       5485  
      5354       5355       5366       5365       5475       5476       5487       5486  
      5355       5356       5367       5366       5476       5477       5488       5487  
      5356       5357       5368       5367       5477       5478       5489       5488  
      5358       5359       5370       5369       5479       5480       5491       5490  
      5359       5360       5371       5370       5480       5481       5492       5491  
      5360       5361       5372       5371       5481       5482       5493       5492  
      5361       5362       5373       5372       5482       5483       5494       5493  
      5362       5363       5374       5373       5483       5484       5495       5494  
      5363       5364       5375       5374       5484       5485       5496       5495  
      5364       5365       5376       5375       5485       5486       5497       5496  
      5365       5366       5377       5376       5486       5487       5498       5497  
      5366       5367       5378       5377       5487       5488       5499       5498  
      5367       5368       5379       5378       5488       5489       5500       5499  
      5369       5370       5381       5380       5490       5491       5502       5501  
      5370       5371       5382       5381       5491       5492       5503       5502  
      5371       5372       5383       5382       5492       5493       5504       5503  
      5372       5373       5384       5383       5493       5494       5505       5504  
      5373       5374       5385       5384       5494       5495       5506       5505  
      5374       5375       5386       5385       5495       5496       5507       5506  
      5375       5376       5387       5386       5496       5497       5508       5507  
      5376       5377       5388       5387       5497       5498       5509       5508  
      5377       5378       5389       5388       5498       5499       5510       5509  
      5378       5379       5390       5389       5499       5500       5511       5510  
      5380       5381       5392       5391       5501       5502       5513       5512  
      5381       5382       5393       5392       5502       5503       5514       5513  
      5382       5383       5394       5393       5503       5504       5515       5514  
      5383       5384       5395       5394       5504       5505       5516       5515  
      5384       5385       5396       5395       5505       5506       5517       5516  
      5385       5386       5397       5396       5506       5507       5518       5517  
      5386       5387       5398       5397       5507       5508       5519       5518  
      5387       5388       5399       5398       5508       5509       5520       5519  
      5388       5389       5400       5399       5509       5510       5521       5520  
      5389       5390       5401       5400       5510       5511       5522       5521  
      5391       5392       5403       5402       5512       5513       5524       5523  
      5392       5393       5404       5403       5513       5514       5525       5524  
      5393       5394       5405       5404       5514       5515       5526       5525  
      5394       5395       5406       5405       5515       5516       5527       5526  
      5395       5396       5407       5406       5516       5517       5528       5527  
      5396       5397       5408       5407       5517       5518       5529       5528  
      5397       5398       5409       5408       5518       5519       5530       5529  
      5398       5399       5410       5409       5519       5520       5531       5530  
      5399       5400       5411       5410       5520       5521       5532       5531  
      5400       5401       5412       5411       5521       5522       5533       5532  
      5402       5403       5414       5413       5523       5524       5535       5534  
      5403       5404       5415       5414       5524       5525       5536       5535  
      5404       5405       5416       5415       5525       5526       5537       5536  
      5405       5406       5417       5416       5526       5527       5538       5537  
      5406       5407       5418       5417       5527       5528       5539       5538  
      5407       5408       5419       5418       5528       5529       5540       5539  
      5408       5409       5420       5419       5529       5530       5541       5540  
      5409       5410       5421       5420       5530       5531       5542       5541  
      5410       5411       5422       5421       5531       5532       5543       5542  
      5411       5412       5423       5422       5532       5533       5544       5543  
      5413       5414       5425       5424       5534       5535       5546       5545  
      5414       5415       5426       5425       5535       5536       5547       5546  
      5415       5416       5427       5426       5536       5537       5548       5547  
      5416       5417       5428       5427       5537       5538       5549       5548  
      5417       5418       5429       5428       5538       5539       5550       5549  
      5418       5419       5430       5429       5539       5540       5551       5550  
      5419       5420       5431       5430       5540       5541       5552       5551  
      5420       5421       5432       5431       5541       5542       5553       5552  
      5421       5422       5433       5432       5542       5543       5554       5553  
      5422       5423       5434       5433       5543       5544       5555       5554  
      5424       5425       5436       5435       5545       5546       5557       5556  
      5425       5426       5437       5436       5546       5547       5558       5557  
      5426       5427       5438       5437       5547       5548       5559       5558  
      5427       5428       5439       5438       5548       5549       5560       5559  
      5428       5429       5440       5439       5549       5550       5561       5560  
      5429       5430       5441       5440       5550       5551       5562       5561  
      5430       5431       5442       5441       5551       5552       5563       5562  
      5431       5432       5443       5442       5552       5553       5564       5563  
      5432       5433       5444       5443       5553       5554       5565       5564  
      5433       5434       5445       5444       5554       5555       5566       5565  
      5446       5447       5458       5457       5567       5568       5579       5578  
      5447       5448       5459       5458       5568       5569       5580       5579  
      5448       5449       5460       5459       5569       5570       5581       5580  
      5449       5450       5461       5460       5570       5571       5582       5581  
      5450       5451       5462       5461       5571       5572       5583       5582  
      5451       5452       5463       5462       5572       5573       5584       5583  
      5452       5453       5464       5463       5573       5574       5585       5584  
      5453       5454       5465       5464       5574       5575       5586       5585  
      5454       5455       5466       5465       5575       5576       5587       5586  
      5455       5456       5467       5466       5576       5577       5588       5587  
      5457       5458       5469       5468       5578       5579       5590       5589  
      5458       5459       5470       5469       5579       5580       5591       5590  
      5459       5460       5471       5470       5580       5581       5592       5591  
      5460       5461       5472       5471       5581       5582       5593       5592  
      5461       5462       5473       5472       5582       5583       5594       5593  
      5462       5463       5474       5473       5583       5584       5595       5594  
      5463       5464       5475       5474       5584       5585       5596       5595  
      5464       5465       5476       5475       5585       5586       5597       5596  
      5465       5466       5477       5476       5586       5587       5598       5597  
      5466       5467       5478       5477       5587       5588       5599       5598  
      5468       5469       5480       5479       5589       5590       5601       5600  
      5469       5470       5481       5480       5590       5591       5602       5601  
      5470       5471       5482       5481       5591       5592       5603       5602  
      5471       5472       5483       5482       5592       5593       5604       5603  
      5472       5473       5484       5483       5593       5594       5605       5604  
      5473       5474       5485       5484       5594       5595       5606       5605  
      5474       5475       5486       5485       5595       5596       5607       5606  
      5475       5476       5487       5486       5596       5597       5608       5607  
      5476       5477       5488       5487       5597       5598       5609       5608  
      5477       5478       5489       5488       5598       5599       5610       5609  
      5479       5480       5491       5490       5600       5601       5612       5611  
      5480       5481       5492       5491       5601       5602       5613       5612  
      5481       5482       5493       5492       5602       5603       5614       5613  
      5482       5483       5494       5493       5603       5604       5615       5614  
      5483       5484       5495       5494       5604       5605       5616       5615  
      5484       5485       5496       5495       5605       5606       5617       5616  
      5485       5486       5497       5496       5606       5607       5618       5617  
      5486       5487       5498       5497       5607       5608       5619       5618  
      5487       5488       5499       5498       5608       5609       5620       5619  
      5488       5489       5500       5499       5609       5610       5621       5620  
      5490       5491       5502       5501       5611       5612       5623       5622  
      5491       5492       5503       5502       5612       5613       5624       5623  
      5492       5493       5504       5503       5613       5614       5625       5624  
      5493       5494       5505       5504       5614       5615       5626       5625  
      5494       5495       5506       5505       5615       5616       5627       5626  
      5495       5496       5507       5506       5616       5617       5628       5627  
      5496       5497       5508       5507       5617       5618       5629       5628  
      5497       5498       5509       5508       5618       5619       5630       5629  
      5498       5499       5510       5509       5619       5620       5631       5630  
      5499       5500       5511       5510       5620       5621       5632       5631  
      5501       5502       5513       5512       5622       5623       5634       5633  
      5502       5503       5514       5513       5623       5624       5635       5634  
      5503       5504       5515       5514       5624       5625       5636       5635  
      5504       5505       5516       5515       5625       5626       5637       5636  
      5505       5506       5517       5516       5626       5627       5638       5637  
      5506       5507       5518       5517       5627       5628       5639       5638  
      5507       5508       5519       5518       5628       5629       5640       5639  
      5508       5509       5520       5519       5629       5630       5641       5640  
      5509       5510       5521       5520       5630       5631       5642       5641  
      5510       5511       5522       5521       5631       5632       5643       5642  
      5512       5513       5524       5523       5633       5634       5645       5644  
      5513       5514       5525       5524       5634       5635       5646       5645  
      5514       5515       5526       5525       5635       5636       5647       5646  
      5515       5516       5527       5526       5636       5637       5648       5647  
      5516       5517       5528       5527       5637       5638       5649       5648  
      5517       5518       5529       5528       5638       5639       5650       5649  
      5518       5519       5530       5529       5639       5640       5651       5650  
      5519       5520       5531       5530       5640       5641       5652       5651  
      5520       5521       5532       5531       5641       5642       5653       5652  
      5521       5522       5533       5532       5642       5643       5654       5653  
      5523       5524       5535       5534       5644       5645       5656       5655  
      5524       5525       5536       5535       5645       5646       5657       5656  
      5525       5526       5537       5536       5646       5647       5658       5657  
      5526       5527       5538       5537       5647       5648       5659       5658  
      5527       5528       5539       5538       5648       5649       5660       5659  
      5528       5529       5540       5539       5649       5650       5661       5660  
      5529       5530       5541       5540       5650       5651       5662       5661  
      5530       5531       5542       5541       5651       5652       5663       5662  
      5531       5532       5543       5542       5652       5653       5664       5663  
      5532       5533       5544       5543       5653       5654       5665       5664  
      5534       5535       5546       5545       5655       5656       5667       5666  
      5535       5536       5547       5546       5656       5657       5668       5667  
      5536       5537       5548       5547       5657       5658       5669       5668  
      5537       5538       5549       5548       5658       5659       5670       5669  
      5538       5539       5550       5549       5659       5660       5671       5670  
      5539       5540       5551       5550       5660       5661       5672       5671  
      5540       5541       5552       5551       5661       5662       5673       5672  
      5541       5542       5553       5552       5662       5663       5674       5673  
      5542       5543       5554       5553       5663       5664       5675       5674  
      5543       5544       5555       5554       5664       5665       5676       5675  
      5545       5546       5557       5556       5666       5667       5678       5677  
      5546       5547       5558       5557       5667       5668       5679       5678  
      5547       5548       5559       5558       5668       5669       5680       5679  
      5548       5549       5560       5559       5669       5670       5681       5680  
      5549       5550       5561       5560       5670       5671       5682       5681  
      5550       5551       5562       5561       5671       5672       5683       5682  
      5551       5552       5563       5562       5672       5673       5684       5683  
      5552       5553       5564       5563       5673       5674       5685       5684  
      5553       5554       5565       5564       5674       5675       5686       5685  
      5554       5555       5566       5565       5675       5676       5687       5686  
      5567       5568       5579       5578       5688       5689       5700       5699  
      5568       5569       5580       5579       5689       5690       5701       5700  
      5569       5570       5581       5580       5690       5691       5702       5701  
      5570       5571       5582       5581       5691       5692       5703       5702  
      5571       5572       5583       5582       5692       5693       5704       5703  
      5572       5573       5584       5583       5693       5694       5705       5704  
      5573       5574       5585       5584       5694       5695       5706       5705  
      5574       5575       5586       5585       5695       5696       5707       5706  
      5575       5576       5587       5586       5696       5697       5708       5707  
      5576       5577       5588       5587       5697       5698       5709       5708  
      5578       5579       5590       5589       5699       5700       5711       5710  
      5579       5580       5591       5590       5700       5701       5712       5711  
      5580       5581       5592       5591       5701       5702       5713       5712  
      5581       5582       5593       5592       5702       5703       5714       5713  
      5582       5583       5594       5593       5703       5704       5715       5714  
      5583       5584       5595       5594       5704       5705       5716       5715  
      5584       5585       5596       5595       5705       5706       5717       5716  
      5585       5586       5597       5596       5706       5707       5718       5717  
      5586       5587       5598       5597       5707       5708       5719       5718  
      5587       5588       5599       5598       5708       5709       5720       5719  
      5589       5590       5601       5600       5710       5711       5722       5721  
      5590       5591       5602       5601       5711       5712       5723       5722  
      5591       5592       5603       5602       5712       5713       5724       5723  
      5592       5593       5604       5603       5713       5714       5725       5724  
      5593       5594       5605       5604       5714       5715       5726       5725  
      5594       5595       5606       5605       5715       5716       5727       5726  
      5595       5596       5607       5606       5716       5717       5728       5727  
      5596       5597       5608       5607       5717       5718       5729       5728  
      5597       5598       5609       5608       5718       5719       5730       5729  
      5598       5599       5610       5609       5719       5720       5731       5730  
      5600       5601       5612       5611       5721       5722       5733       5732  
      5601       5602       5613       5612       5722       5723       5734       5733  
      5602       5603       5614       5613       5723       5724       5735       5734  
      5603       5604       5615       5614       5724       5725       5736       5735  
      5604       5605       5616       5615       5725       5726       5737       5736  
      5605       5606       5617       5616       5726       5727       5738       5737  
      5606       5607       5618       5617       5727       5728       5739       5738  
      5607       5608       5619       5618       5728       5729       5740       5739  
      5608       5609       5620       5619       5729       5730       5741       5740  
      5609       5610       5621       5620       5730       5731       5742       5741  
      5611       5612       5623       5622       5732       5733       5744       5743  
      5612       5613       5624       5623       5733       5734       5745       5744  
      5613       5614       5625       5624       5734       5735       5746       5745  
      5614       5615       5626       5625       5735       5736       5747       5746  
      5615       5616       5627       5626       5736       5737       5748       5747  
      5616       5617       5628       5627       5737       5738       5749       5748  
      5617       5618       5629       5628       5738       5739       5750       5749  
      5618       5619       5630       5629       5739       5740       5751       5750  
      5619       5620       5631       5630       5740       5741       5752       5751  
      5620       5621       5632       5631       5741       5742       5753       5752  
      5622       5623       5634       5633       5743       5744       5755       5754  
      5623       5624       5635       5634       5744       5745       5756       5755  
      5624       5625       5636       5635       5745       5746       5757       5756  
      5625       5626       5637       5636       5746       5747       5758       5757  
      5626       5627       5638       5637       5747       5748       5759       5758  
      5627       5628       5639       5638       5748       5749       5760       5759  
      5628       5629       5640       5639       5749       5750       5761       5760  
      5629       5630       5641       5640       5750       5751       5762       5761  
      5630       5631       5642       5641       5751       5752       5763       5762  
      5631       5632       5643       5642       5752       5753       5764       5763  
      5633       5634       5645       5644       5754       5755       5766       5765  
      5634       5635       5646       5645       5755       5756       5767       5766  
      5635       5636       5647       5646       5756       5757       5768       5767  
      5636       5637       5648       5647       5757       5758       5769       5768  
      5637       5638       5649       5648       5758       5759       5770       5769  
      5638       5639       5650       5649       5759       5760       5771       5770  
      5639       5640       5651       5650       5760       5761       5772       5771  
      5640       5641       5652       5651       5761       5762       5773       5772  
      5641       5642       5653       5652       5762       5763       5774       5773  
      5642       5643       5654       5653       5763       5764       5775       5774  
      5644       5645       5656       5655       5765       5766       5777       5776  
      5645       5646       5657       5656       5766       5767       5778       5777  
      5646       5647       5658       5657       5767       5768       5779       5778  
      5647       5648       5659       5658       5768       5769       5780       5779  
      5648       5649       5660       5659       5769       5770       5781       5780  
      5649       5650       5661       5660       5770       5771       5782       5781  
      5650       5651       5662       5661       5771       5772       5783       5782  
      5651       5652       5663       5662       5772       5773       5784       5783  
      5652       5653       5664       5663       5773       5774       5785       5784  
      5653       5654       5665       5664       5774       5775       5786       5785  
      5655       5656       5667       5666       5776       5777       5788       5787  
      5656       5657       5668       5667       5777       5778       5789       5788  
      5657       5658       5669       5668       5778       5779       5790       5789  
      5658       5659       5670       5669       5779       5780       5791       5790  
      5659       5660       5671       5670       5780       5781       5792       5791  
      5660       5661       5672       5671       5781       5782       5793       5792  
      5661       5662       5673       5672       5782       5783       5794       5793  
      5662       5663       5674       5673       5783       5784       5795       5794  
      5663       5664       5675       5674       5784       5785       5796       5795  
      5664       5665       5676       5675       5785       5786       5797       5796  
      5666       5667       5678       5677       5787       5788       5799       5798  
      5667       5668       5679       5678       5788       5789       5800       5799  
      5668       5669       5680       5679       5789       5790       5801       5800  
      5669       5670       5681       5680       5790       5791       5802       5801  
      5670       5671       5682       5681       5791       5792       5803       5802  
      5671       5672       5683       5682       5792       5793       5804       5803  
      5672       5673       5684       5683       5793       5794       5805       5804  
      5673       5674       5685       5684       5794       5795       5806       5805  
      5674       5675       5686       5685       5795       5796       5807       5806  
      5675       5676       5687       5686       5796       5797       5808       5807  
      5688       5689       5700       5699       5809       5810       5821       5820  
      5689       5690       5701       5700       5810       5811       5822       5821  
      5690       5691       5702       5701       5811       5812       5823       5822  
      5691       5692       5703       5702       5812       5813       5824       5823  
      5692       5693       5704       5703       5813       5814       5825       5824  
      5693       5694       5705       5704       5814       5815       5826       5825  
      5694       5695       5706       5705       5815       5816       5827       5826  
      5695       5696       5707       5706       5816       5817       5828       5827  
      5696       5697       5708       5707       5817       5818       5829       5828  
      5697       5698       5709       5708       5818       5819       5830       5829  
      5699       5700       5711       5710       5820       5821       5832       5831  
      5700       5701       5712       5711       5821       5822       5833       5832  
      5701       5702       5713       5712       5822       5823       5834       5833  
      5702       5703       5714       5713       5823       5824       5835       5834  
      5703       5704       5715       5714       5824       5825       5836       5835  
      5704       5705       5716       5715       5825       5826       5837       5836  
      5705       5706       5717       5716       5826       5827       5838       5837  
      5706       5707       5718       5717       5827       5828       5839       5838  
      5707       5708       5719       5718       5828       5829       5840       5839  
      5708       5709       5720       5719       5829       5830       5841       5840  
      5710       5711       5722       5721       5831       5832       5843       5842  
      5711       5712       5723       5722       5832       5833       5844       5843  
      5712       5713       5724       5723       5833       5834       5845       5844  
      5713       5714       5725       5724       5834       5835       5846       5845  
      5714       5715       5726       5725       5835       5836       5847       5846  
      5715       5716       5727       5726       5836       5837       5848       5847  
      5716       5717       5728       5727       5837       5838       5849       5848  
      5717       5718       5729       5728       5838       5839       5850       5849  
      5718       5719       5730       5729       5839       5840       5851       5850  
      5719       5720       5731       5730       5840       5841       5852       5851  
      5721       5722       5733       5732       5842       5843       5854       5853  
      5722       5723       5734       5733       5843       5844       5855       5854  
      5723       5724       5735       5734       5844       5845       5856       5855  
      5724       5725       5736       5735       5845       5846       5857       5856  
      5725       5726       5737       5736       5846       5847       5858       5857  
      5726       5727       5738       5737       5847       5848       5859       5858  
      5727       5728       5739       5738       5848       5849       5860       5859  
      5728       5729       5740       5739       5849       5850       5861       5860  
      5729       5730       5741       5740       5850       5851       5862       5861  
      5730       5731       5742       5741       5851       5852       5863       5862  
      5732       5733       5744       5743       5853       5854       5865       5864  
      5733       5734       5745       5744       5854       5855       5866       5865  
      5734       5735       5746       5745       5855       5856       5867       5866  
      5735       5736       5747       5746       5856       5857       5868       5867  
      5736       5737       5748       5747       5857       5858       5869       5868  
      5737       5738       5749       5748       5858       5859       5870       5869  
      5738       5739       5750       5749       5859       5860       5871       5870  
      5739       5740       5751       5750       5860       5861       5872       5871  
      5740       5741       5752       5751       5861       5862       5873       5872  
      5741       5742       5753       5752       5862       5863       5874       5873  
      5743       5744       5755       5754       5864       5865       5876       5875  
      5744       5745       5756       5755       5865       5866       5877       5876  
      5745       5746       5757       5756       5866       5867       5878       5877  
      5746       5747       5758       5757       5867       5868       5879       5878  
      5747       5748       5759       5758       5868       5869       5880       5879  
      5748       5749       5760       5759       5869       5870       5881       5880  
      5749       5750       5761       5760       5870       5871       5882       5881  
      5750       5751       5762       5761       5871       5872       5883       5882  
      5751       5752       5763       5762       5872       5873       5884       5883  
      5752       5753       5764       5763       5873       5874       5885       5884  
      5754       5755       5766       5765       5875       5876       5887       5886  
      5755       5756       5767       5766       5876       5877       5888       5887  
      5756       5757       5768       5767       5877       5878       5889       5888  
      5757       5758       5769       5768       5878       5879       5890       5889  
      5758       5759       5770       5769       5879       5880       5891       5890  
      5759       5760       5771       5770       5880       5881       5892       5891  
      5760       5761       5772       5771       5881       5882       5893       5892  
      5761       5762       5773       5772       5882       5883       5894       5893  
      5762       5763       5774       5773       5883       5884       5895       5894  
      5763       5764       5775       5774       5884       5885       5896       5895  
      5765       5766       5777       5776       5886       5887       5898       5897  
      5766       5767       5778       5777       5887       5888       5899       5898  
      5767       5768       5779       5778       5888       5889       5900       5899  
      5768       5769       5780       5779       5889       5890       5901       5900  
      5769       5770       5781       5780       5890       5891       5902       5901  
      5770       5771       5782       5781       5891       5892       5903       5902  
      5771       5772       5783       5782       5892       5893       5904       5903  
      5772       5773       5784       5783       5893       5894       5905       5904  
      5773       5774       5785       5784       5894       5895       5906       5905  
      5774       5775       5786       5785       5895       5896       5907       5906  
      5776       5777       5788       5787       5897       5898       5909       5908  
      5777       5778       5789       5788       5898       5899       5910       5909  
      5778       5779       5790       5789       5899       5900       5911       5910  
      5779       5780       5791       5790       5900       5901       5912       5911  
      5780       5781       5792       5791       5901       5902       5913       5912  
      5781       5782       5793       5792       5902       5903       5914       5913  
      5782       5783       5794       5793       5903       5904       5915       5914  
      5783       5784       5795       5794       5904       5905       5916       5915  
      5784       5785       5796       5795       5905       5906       5917       5916  
      5785       5786       5797       5796       5906       5907       5918       5917  
      5787       5788       5799       5798       5908       5909       5920       5919  
      5788       5789       5800       5799       5909       5910       5921       5920  
      5789       5790       5801       5800       5910       5911       5922       5921  
      5790       5791       5802       5801       5911       5912       5923       5922  
      5791       5792       5803       5802       5912       5913       5924       5923  
      5792       5793       5804       5803       5913       5914       5925       5924  
      5793       5794       5805       5804       5914       5915       5926       5925  
      5794       5795       5806       5805       5915       5916       5927       5926  
      5795       5796       5807       5806       5916       5917       5928       5927  
      5796       5797       5808       5807       5917       5918       5929       5928  
      5809       5810       5821       5820       5930       5931       5942       5941  
      5810       5811       5822       5821       5931       5932       5943       5942  
      5811       5812       5823       5822       5932       5933       5944       5943  
      5812       5813       5824       5823       5933       5934       5945       5944  
      5813       5814       5825       5824       5934       5935       5946       5945  
      5814       5815       5826       5825       5935       5936       5947       5946  
      5815       5816       5827       5826       5936       5937       5948       5947  
      5816       5817       5828       5827       5937       5938       5949       5948  
      5817       5818       5829       5828       5938       5939       5950       5949  
      5818       5819       5830       5829       5939       5940       5951       5950  
      5820       5821       5832       5831       5941       5942       5953       5952  
      5821       5822       5833       5832       5942       5943       5954       5953  
      5822       5823       5834       5833       5943       5944       5955       5954  
      5823       5824       5835       5834       5944       5945       5956       5955  
      5824       5825       5836       5835       5945       5946       5957       5956  
      5825       5826       5837       5836       5946       5947       5958       5957  
      5826       5827       5838       5837       5947       5948       5959       5958  
      5827       5828       5839       5838       5948       5949       5960       5959  
      5828       5829       5840       5839       5949       5950       5961       5960  
      5829       5830       5841       5840       5950       5951       5962       5961  
      5831       5832       5843       5842       5952       5953       5964       5963  
      5832       5833       5844       5843       5953       5954       5965       5964  
      5833       5834       5845       5844       5954       5955       5966       5965  
      5834       5835       5846       5845       5955       5956       5967       5966  
      5835       5836       5847       5846       5956       5957       5968       5967  
      5836       5837       5848       5847       5957       5958       5969       5968  
      5837       5838       5849       5848       5958       5959       5970       5969  
      5838       5839       5850       5849       5959       5960       5971       5970  
      5839       5840       5851       5850       5960       5961       5972       5971  
      5840       5841       5852       5851       5961       5962       5973       5972  
      5842       5843       5854       5853       5963       5964       5975       5974  
      5843       5844       5855       5854       5964       5965       5976       5975  
      5844       5845       5856       5855       5965       5966       5977       5976  
      5845       5846       5857       5856       5966       5967       5978       5977  
      5846       5847       5858       5857       5967       5968       5979       5978  
      5847       5848       5859       5858       5968       5969       5980       5979  
      5848       5849       5860       5859       5969       5970       5981       5980  
      5849       5850       5861       5860       5970       5971       5982       5981  
      5850       5851       5862       5861       5971       5972       5983       5982  
      5851       5852       5863       5862       5972       5973       5984       5983  
      5853       5854       5865       5864       5974       5975       5986       5985  
      5854       5855       5866       5865       5975       5976       5987       5986  
      5855       5856       5867       5866       5976       5977       5988       5987  
      5856       5857       5868       5867       5977       5978       5989       5988  
      5857       5858       5869       5868       5978       5979       5990       5989  
      5858       5859       5870       5869       5979       5980       5991       5990  
      5859       5860       5871       5870       5980       5981       5992       5991  
      5860       5861       5872       5871       5981       5982       5993       5992  
      5861       5862       5873       5872       5982       5983       5994       5993  
      5862       5863       5874       5873       5983       5984       5995       5994  
      5864       5865       5876       5875       5985       5986       5997       5996  
      5865       5866       5877       5876       5986       5987       5998       5997  
      5866       5867       5878       5877       5987       5988       5999       5998  
      5867       5868       5879       5878       5988       5989       6000       5999  
      5868       5869       5880       5879       5989       5990       6001       6000  
      5869       5870       5881       5880       5990       5991       6002       6001  
      5870       5871       5882       5881       5991       5992       6003       6002  
      5871       5872       5883       5882       5992       5993       6004       6003  
      5872       5873       5884       5883       5993       5994       6005       6004  
      5873       5874       5885       5884       5994       5995       6006       6005  
      5875       5876       5887       5886       5996       5997       6008       6007  
      5876       5877       5888       5887       5997       5998       6009       6008  
      5877       5878       5889       5888       5998       5999       6010       6009  
      5878       5879       5890       5889       5999       6000       6011       6010  
      5879       5880       5891       5890       6000       6001       6012       6011  
      5880       5881       5892       5891       6001       6002       6013       6012  
      5881       5882       5893       5892       6002       6003       6014       6013  
      5882       5883       5894       5893       6003       6004       6015       6014  
      5883       5884       5895       5894       6004       6005       6016       6015  
      5884       5885       5896       5895       6005       6006       6017       6016  
      5886       5887       5898       5897       6007       6008       6019       6018  
      5887       5888       5899       5898       6008       6009       6020       6019  
      5888       5889       5900       5899       6009       6010       6021       6020  
      5889       5890       5901       5900       6010       6011       6022       6021  
      5890       5891       5902       5901       6011       6012       6023       6022  
      5891       5892       5903       5902       6012       6013       6024       6023  
      5892       5893       5904       5903       6013       6014       6025       6024  
      5893       5894       5905       5904       6014       6015       6026       6025  
      5894       5895       5906       5905       6015       6016       6027       6026  
      5895       5896       5907       5906       6016       6017       6028       6027  
      5897       5898       5909       5908       6018       6019       6030       6029  
      5898       5899       5910       5909       6019       6020       6031       6030  
      5899       5900       5911       5910       6020       6021       6032       6031  
      5900       5901       5912       5911       6021       6022       6033       6032  
      5901       5902       5913       5912       6022       6023       6034       6033  
      5902       5903       5914       5913       6023       6024       6035       6034  
      5903       5904       5915       5914       6024       6025       6036       6035  
      5904       5905       5916       5915       6025       6026       6037       6036  
      5905       5906       5917       5916       6026       6027       6038       6037  
      5906       5907       5918       5917       6027       6028       6039       6038  
      5908       5909       5920       5919       6029       6030       6041       6040  
      5909       5910       5921       5920       6030       6031       6042       6041  
      5910       5911       5922       5921       6031       6032       6043       6042  
      5911       5912       5923       5922       6032       6033       6044       6043  
      5912       5913       5924       5923       6033       6034       6045       6044  
      5913       5914       5925       5924       6034       6035       6046       6045  
      5914       5915       5926       5925       6035       6036       6047       6046  
      5915       5916       5927       5926       6036       6037       6048       6047  
      5916       5917       5928       5927       6037       6038       6049       6048  
      5917       5918       5929       5928       6038       6039       6050       6049  
      5930       5931       5942       5941       6051       6052       6063       6062  
      5931       5932       5943       5942       6052       6053       6064       6063  
      5932       5933       5944       5943       6053       6054       6065       6064  
      5933       5934       5945       5944       6054       6055       6066       6065  
      5934       5935       5946       5945       6055       6056       6067       6066  
      5935       5936       5947       5946       6056       6057       6068       6067  
      5936       5937       5948       5947       6057       6058       6069       6068  
      5937       5938       5949       5948       6058       6059       6070       6069  
      5938       5939       5950       5949       6059       6060       6071       6070  
      5939       5940       5951       5950       6060       6061       6072       6071  
      5941       5942       5953       5952       6062       6063       6074       6073  
      5942       5943       5954       5953       6063       6064       6075       6074  
      5943       5944       5955       5954       6064       6065       6076       6075  
      5944       5945       5956       5955       6065       6066       6077       6076  
      5945       5946       5957       5956       6066       6067       6078       6077  
      5946       5947       5958       5957       6067       6068       6079       6078  
      5947       5948       5959       5958       6068       6069       6080       6079  
      5948       5949       5960       5959       6069       6070       6081       6080  
      5949       5950       5961       5960       6070       6071       6082       6081  
      5950       5951       5962       5961       6071       6072       6083       6082  
      5952       5953       5964       5963       6073       6074       6085       6084  
      5953       5954       5965       5964       6074       6075       6086       6085  
      5954       5955       5966       5965       6075       6076       6087       6086  
      5955       5956       5967       5966       6076       6077       6088       6087  
      5956       5957       5968       5967       6077       6078       6089       6088  
      5957       5958       5969       5968       6078       6079       6090       6089  
      5958       5959       5970       5969       6079       6080       6091       6090  
      5959       5960       5971       5970       6080       6081       6092       6091  
      5960       5961       5972       5971       6081       6082       6093       6092  
      5961       5962       5973       5972       6082       6083       6094       6093  
      5963       5964       5975       5974       6084       6085       6096       6095  
      5964       5965       5976       5975       6085       6086       6097       6096  
      5965       5966       5977       5976       6086       6087       6098       6097  
      5966       5967       5978       5977       6087       6088       6099       6098  
      5967       5968       5979       5978       6088       6089       6100       6099  
      5968       5969       5980       5979       6089       6090       6101       6100  
      5969       5970       5981       5980       6090       6091       6102       6101  
      5970       5971       5982       5981       6091       6092       6103       6102  
      5971       5972       5983       5982       6092       6093       6104       6103  
      5972       5973       5984       5983       6093       6094       6105       6104  
      5974       5975       5986       5985       6095       6096       6107       6106  
      5975       5976       5987       5986       6096       6097       6108       6107  
      5976       5977       5988       5987       6097       6098       6109       6108  
      5977       5978       5989       5988       6098       6099       6110       6109  
      5978       5979       5990       5989       6099       6100       6111       6110  
      5979       5980       5991       5990       6100       6101       6112       6111  
      5980       5981       5992       5991       6101       6102       6113       6112  
      5981       5982       5993       5992       6102       6103       6114       6113  
      5982       5983       5994       5993       6103       6104       6115       6114  
      5983       5984       5995       5994       6104       6105       6116       6115  
      5985       5986       5997       5996       6106       6107       6118       6117  
      5986       5987       5998       5997       6107       6108       6119       6118  
      5987       5988       5999       5998       6108       6109       6120       6119  
      5988       5989       6000       5999       6109       6110       6121       6120  
      5989       5990       6001       6000       6110       6111       6122       6121  
      5990       5991       6002       6001       6111       6112       6123       6122  
      5991       5992       6003       6002       6112       6113       6124       6123  
      5992       5993       6004       6003       6113       6114       6125       6124  
      5993       5994       6005       6004       6114       6115       6126       6125  
      5994       5995       6006       6005       6115       6116       6127       6126  
      5996       5997       6008       6007       6117       6118       6129       6128  
      5997       5998       6009       6008       6118       6119       6130       6129  
      5998       5999       6010       6009       6119       6120       6131       6130  
      5999       6000       6011       6010       6120       6121       6132       6131  
      6000       6001       6012       6011       6121       6122       6133       6132  
      6001       6002       6013       6012       6122       6123       6134       6133  
      6002       6003       6014       6013       6123       6124       6135       6134  
      6003       6004       6015       6014       6124       6125       6136       6135  
      6004       6005       6016       6015       6125       6126       6137       6136  
      6005       6006       6017       6016       6126       6127       6138       6137  
      6007       6008       6019       6018       6128       6129       6140       6139  
      6008       6009       6020       6019       6129       6130       6141       6140  
      6009       6010       6021       6020       6130       6131       6142       6141  
      6010       6011       6022       6021       6131       6132       6143       6142  
      6011       6012       6023       6022       6132       6133       6144       6143  
      6012       6013       6024       6023       6133       6134       6145       6144  
      6013       6014       6025       6024       6134       6135       6146       6145  
      6014       6015       6026       6025       6135       6136       6147       6146  
      6015       6016       6027       6026       6136       6137       6148       6147  
      6016       6017       6028       6027       6137       6138       6149       6148  
      6018       6019       6030       6029       6139       6140       6151       6150  
      6019       6020       6031       6030       6140       6141       6152       6151  
      6020       6021       6032       6031       6141       6142       6153       6152  
      6021       6022       6033       6032       6142       6143       6154       6153  
      6022       6023       6034       6033       6143       6144       6155       6154  
      6023       6024       6035       6034       6144       6145       6156       6155  
      6024       6025       6036       6035       6145       6146       6157       6156  
      6025       6026       6037       6036       6146       6147       6158       6157  
      6026       6027       6038       6037       6147       6148       6159       6158  
      6027       6028       6039       6038       6148       6149       6160       6159  
      6029       6030       6041       6040       6150       6151       6162       6161  
      6030       6031       6042       6041       6151       6152       6163       6162  
      6031       6032       6043       6042       6152       6153       6164       6163  
      6032       6033       6044       6043       6153       6154       6165       6164  
      6033       6034       6045       6044       6154       6155       6166       6165  
      6034       6035       6046       6045       6155       6156       6167       6166  
      6035       6036       6047       6046       6156       6157       6168       6167  
      6036       6037       6048       6047       6157       6158       6169       6168  
      6037       6038       6049       6048       6158       6159       6170       6169  
      6038       6039       6050       6049       6159       6160       6171       6170  
      6051       6052       6063       6062       6172       6173       6184       6183  
      6052       6053       6064       6063       6173       6174       6185       6184  
      6053       6054       6065       6064       6174       6175       6186       6185  
      6054       6055       6066       6065       6175       6176       6187       6186  
      6055       6056       6067       6066       6176       6177       6188       6187  
      6056       6057       6068       6067       6177       6178       6189       6188  
      6057       6058       6069       6068       6178       6179       6190       6189  
      6058       6059       6070       6069       6179       6180       6191       6190  
      6059       6060       6071       6070       6180       6181       6192       6191  
      6060       6061       6072       6071       6181       6182       6193       6192  
      6062       6063       6074       6073       6183       6184       6195       6194  
      6063       6064       6075       6074       6184       6185       6196       6195  
      6064       6065       6076       6075       6185       6186       6197       6196  
      6065       6066       6077       6076       6186       6187       6198       6197  
      6066       6067       6078       6077       6187       6188       6199       6198  
      6067       6068       6079       6078       6188       6189       6200       6199  
      6068       6069       6080       6079       6189       6190       6201       6200  
      6069       6070       6081       6080       6190       6191       6202       6201  
      6070       6071       6082       6081       6191       6192       6203       6202  
      6071       6072       6083       6082       6192       6193       6204       6203  
      6073       6074       6085       6084       6194       6195       6206       6205  
      6074       6075       6086       6085       6195       6196       6207       6206  
      6075       6076       6087       6086       6196       6197       6208       6207  
      6076       6077       6088       6087       6197       6198       6209       6208  
      6077       6078       6089       6088       6198       6199       6210       6209  
      6078       6079       6090       6089       6199       6200       6211       6210  
      6079       6080       6091       6090       6200       6201       6212       6211  
      6080       6081       6092       6091       6201       6202       6213       6212  
      6081       6082       6093       6092       6202       6203       6214       6213  
      6082       6083       6094       6093       6203       6204       6215       6214  
      6084       6085       6096       6095       6205       6206       6217       6216  
      6085       6086       6097       6096       6206       6207       6218       6217  
      6086       6087       6098       6097       6207       6208       6219       6218  
      6087       6088       6099       6098       6208       6209       6220       6219  
      6088       6089       6100       6099       6209       6210       6221       6220  
      6089       6090       6101       6100       6210       6211       6222       6221  
      6090       6091       6102       6101       6211       6212       6223       6222  
      6091       6092       6103       6102       6212       6213       6224       6223  
      6092       6093       6104       6103       6213       6214       6225       6224  
      6093       6094       6105       6104       6214       6215       6226       6225  
      6095       6096       6107       6106       6216       6217       6228       6227  
      6096       6097       6108       6107       6217       6218       6229       6228  
      6097       6098       6109       6108       6218       6219       6230       6229  
      6098       6099       6110       6109       6219       6220       6231       6230  
      6099       6100       6111       6110       6220       6221       6232       6231  
      6100       6101       6112       6111       6221       6222       6233       6232  
      6101       6102       6113       6112       6222       6223       6234       6233  
      6102       6103       6114       6113       6223       6224       6235       6234  
      6103       6104       6115       6114       6224       6225       6236       6235  
      6104       6105       6116       6115       6225       6226       6237       6236  
      6106       6107       6118       6117       6227       6228       6239       6238  
      6107       6108       6119       6118       6228       6229       6240       6239  
      6108       6109       6120       6119       6229       6230       6241       6240  
      6109       6110       6121       6120       6230       6231       6242       6241  
      6110       6111       6122       6121       6231       6232       6243       6242  
      6111       6112       6123       6122       6232       6233       6244       6243  
      6112       6113       6124       6123       6233       6234       6245       6244  
      6113       6114       6125       6124       6234       6235       6246       6245  
      6114       6115       6126       6125       6235       6236       6247       6246  
      6115       6116       6127       6126       6236       6237       6248       6247  
      6117       6118       6129       6128       6238       6239       6250       6249  
      6118       6119       6130       6129       6239       6240       6251       6250  
      6119       6120       6131       6130       6240       6241       6252       6251  
      6120       6121       6132       6131       6241       6242       6253       6252  
      6121       6122       6133       6132       6242       6243       6254       6253  
      6122       6123       6134       6133       6243       6244       6255       6254  
      6123       6124       6135       6134       6244       6245       6256       6255  
      6124       6125       6136       6135       6245       6246       6257       6256  
      6125       6126       6137       6136       6246       6247       6258       6257  
      6126       6127       6138       6137       6247       6248       6259       6258  
      6128       6129       6140       6139       6249       6250       6261       6260  
      6129       6130       6141       6140       6250       6251       6262       6261  
      6130       6131       6142       6141       6251       6252       6263       6262  
      6131       6132       6143       6142       6252       6253       6264       6263  
      6132       6133       6144       6143       6253       6254       6265       6264  
      6133       6134       6145       6144       6254       6255       6266       6265  
      6134       6135       6146       6145       6255       6256       6267       6266  
      6135       6136       6147       6146       6256       6257       6268       6267  
      6136       6137       6148       6147       6257       6258       6269       6268  
      6137       6138       6149       6148       6258       6259       6270       6269  
      6139       6140       6151       6150       6260       6261       6272       6271  
      6140       6141       6152       6151       6261       6262       6273       6272  
      6141       6142       6153       6152       6262       6263       6274       6273  
      6142       6143       6154       6153       6263       6264       6275       6274  
      6143       6144       6155       6154       6264       6265       6276       6275  
      6144       6145       6156       6155       6265       6266       6277       6276  
      6145       6146       6157       6156       6266       6267       6278       6277  
      6146       6147       6158       6157       6267       6268       6279       6278  
      6147       6148       6159       6158       6268       6269       6280       6279  
      6148       6149       6160       6159       6269       6270       6281       6280  
      6150       6151       6162       6161       6271       6272       6283       6282  
      6151       6152       6163       6162       6272       6273       6284       6283  
      6152       6153       6164       6163       6273       6274       6285       6284  
      6153       6154       6165       6164       6274       6275       6286       6285  
      6154       6155       6166       6165       6275       6276       6287       6286  
      6155       6156       6167       6166       6276       6277       6288       6287  
      6156       6157       6168       6167       6277       6278       6289       6288  
      6157       6158       6169       6168       6278       6279       6290       6289  
      6158       6159       6170       6169       6279       6280       6291       6290  
      6159       6160       6171       6170       6280       6281       6292       6291  
      6172       6173       6184       6183       6293       6294       6305       6304  
      6173       6174       6185       6184       6294       6295       6306       6305  
      6174       6175       6186       6185       6295       6296       6307       6306  
      6175       6176       6187       6186       6296       6297       6308       6307  
      6176       6177       6188       6187       6297       6298       6309       6308  
      6177       6178       6189       6188       6298       6299       6310       6309  
      6178       6179       6190       6189       6299       6300       6311       6310  
      6179       6180       6191       6190       6300       6301       6312       6311  
      6180       6181       6192       6191       6301       6302       6313       6312  
      6181       6182       6193       6192       6302       6303       6314       6313  
      6183       6184       6195       6194       6304       6305       6316       6315  
      6184       6185       6196       6195       6305       6306       6317       6316  
      6185       6186       6197       6196       6306       6307       6318       6317  
      6186       6187       6198       6197       6307       6308       6319       6318  
      6187       6188       6199       6198       6308       6309       6320       6319  
      6188       6189       6200       6199       6309       6310       6321       6320  
      6189       6190       6201       6200       6310       6311       6322       6321  
      6190       6191       6202       6201       6311       6312       6323       6322  
      6191       6192       6203       6202       6312       6313       6324       6323  
      6192       6193       6204       6203       6313       6314       6325       6324  
      6194       6195       6206       6205       6315       6316       6327       6326  
      6195       6196       6207       6206       6316       6317       6328       6327  
      6196       6197       6208       6207       6317       6318       6329       6328  
      6197       6198       6209       6208       6318       6319       6330       6329  
      6198       6199       6210       6209       6319       6320       6331       6330  
      6199       6200       6211       6210       6320       6321       6332       6331  
      6200       6201       6212       6211       6321       6322       6333       6332  
      6201       6202       6213       6212       6322       6323       6334       6333  
      6202       6203       6214       6213       6323       6324       6335       6334  
      6203       6204       6215       6214       6324       6325       6336       6335  
      6205       6206       6217       6216       6326       6327       6338       6337  
      6206       6207       6218       6217       6327       6328       6339       6338  
      6207       6208       6219       6218       6328       6329       6340       6339  
      6208       6209       6220       6219       6329       6330       6341       6340  
      6209       6210       6221       6220       6330       6331       6342       6341  
      6210       6211       6222       6221       6331       6332       6343       6342  
      6211       6212       6223       6222       6332       6333       6344       6343  
      6212       6213       6224       6223       6333       6334       6345       6344  
      6213       6214       6225       6224       6334       6335       6346       6345  
      6214       6215       6226       6225       6335       6336       6347       6346  
      6216       6217       6228       6227       6337       6338       6349       6348  
      6217       6218       6229       6228       6338       6339       6350       6349  
      6218       6219       6230       6229       6339       6340       6351       6350  
      6219       6220       6231       6230       6340       6341       6352       6351  
      6220       6221       6232       6231       6341       6342       6353       6352  
      6221       6222       6233       6232       6342       6343       6354       6353  
      6222       6223       6234       6233       6343       6344       6355       6354  
      6223       6224       6235       6234       6344       6345       6356       6355  
      6224       6225       6236       6235       6345       6346       6357       6356  
      6225       6226       6237       6236       6346       6347       6358       6357  
      6227       6228       6239       6238       6348       6349       6360       6359  
      6228       6229       6240       6239       6349       6350       6361       6360  
      6229       6230       6241       6240       6350       6351       6362       6361  
      6230       6231       6242       6241       6351       6352       6363       6362  
      6231       6232       6243       6242       6352       6353       6364       6363  
      6232       6233       6244       6243       6353       6354       6365       6364  
      6233       6234       6245       6244       6354       6355       6366       6365  
      6234       6235       6246       6245       6355       6356       6367       6366  
      6235       6236       6247       6246       6356       6357       6368       6367  
      6236       6237       6248       6247       6357       6358       6369       6368  
      6238       6239       6250       6249       6359       6360       6371       6370  
      6239       6240       6251       6250       6360       6361       6372       6371  
      6240       6241       6252       6251       6361       6362       6373       6372  
      6241       6242       6253       6252       6362       6363       6374       6373  
      6242       6243       6254       6253       6363       6364       6375       6374  
      6243       6244       6255       6254       6364       6365       6376       6375  
      6244       6245       6256       6255       6365       6366       6377       6376  
      6245       6246       6257       6256       6366       6367       6378       6377  
      6246       6247       6258       6257       6367       6368       6379       6378  
      6247       6248       6259       6258       6368       6369       6380       6379  
      6249       6250       6261       6260       6370       6371       6382       6381  
      6250       6251       6262       6261       6371       6372       6383       6382  
      6251       6252       6263       6262       6372       6373       6384       6383  
      6252       6253       6264       6263       6373       6374       6385       6384  
      6253       6254       6265       6264       6374       6375       6386       6385  
      6254       6255       6266       6265       6375       6376       6387       6386  
      6255       6256       6267       6266       6376       6377       6388       6387  
      6256       6257       6268       6267       6377       6378       6389       6388  
      6257       6258       6269       6268       6378       6379       6390       6389  
      6258       6259       6270       6269       6379       6380       6391       6390  
      6260       6261       6272       6271       6381       6382       6393       6392  
      6261       6262       6273       6272       6382       6383       6394       6393  
      6262       6263       6274       6273       6383       6384       6395       6394  
      6263       6264       6275       6274       6384       6385       6396       6395  
      6264       6265       6276       6275       6385       6386       6397       6396  
      6265       6266       6277       6276       6386       6387       6398       6397  
      6266       6267       6278       6277       6387       6388       6399       6398  
      6267       6268       6279       6278       6388       6389       6400       6399  
      6268       6269       6280       6279       6389       6390       6401       6400  
      6269       6270       6281       6280       6390       6391       6402       6401  
      6271       6272       6283       6282       6392       6393       6404       6403  
      6272       6273       6284       6283       6393       6394       6405       6404  
      6273       6274       6285       6284       6394       6395       6406       6405  
      6274       6275       6286       6285       6395       6396       6407       6406  
      6275       6276       6287       6286       6396       6397       6408       6407  
      6276       6277       6288       6287       6397       6398       6409       6408  
      6277       6278       6289       6288       6398       6399       6410       6409  
      6278       6279       6290       6289       6399       6400       6411       6410  
      6279       6280       6291       6290       6400       6401       6412       6411  
      6280       6281       6292       6291       6401       6402       6413       6412  
      6293       6294       6305       6304       6414       6415       6426       6425  
      6294       6295       6306       6305       6415       6416       6427       6426  
      6295       6296       6307       6306       6416       6417       6428       6427  
      6296       6297       6308       6307       6417       6418       6429       6428  
      6297       6298       6309       6308       6418       6419       6430       6429  
      6298       6299       6310       6309       6419       6420       6431       6430  
      6299       6300       6311       6310       6420       6421       6432       6431  
      6300       6301       6312       6311       6421       6422       6433       6432  
      6301       6302       6313       6312       6422       6423       6434       6433  
      6302       6303       6314       6313       6423       6424       6435       6434  
      6304       6305       6316       6315       6425       6426       6437       6436  
      6305       6306       6317       6316       6426       6427       6438       6437  
      6306       6307       6318       6317       6427       6428       6439       6438  
      6307       6308       6319       6318       6428       6429       6440       6439  
      6308       6309       6320       6319       6429       6430       6441       6440  
      6309       6310       6321       6320       6430       6431       6442       6441  
      6310       6311       6322       6321       6431       6432       6443       6442  
      6311       6312       6323       6322       6432       6433       6444       6443  
      6312       6313       6324       6323       6433       6434       6445       6444  
      6313       6314       6325       6324       6434       6435       6446       6445  
      6315       6316       6327       6326       6436       6437       6448       6447  
      6316       6317       6328       6327       6437       6438       6449       6448  
      6317       6318       6329       6328       6438       6439       6450       6449  
      6318       6319       6330       6329       6439       6440       6451       6450  
      6319       6320       6331       6330       6440       6441       6452       6451  
      6320       6321       6332       6331       6441       6442       6453       6452  
      6321       6322       6333       6332       6442       6443       6454       6453  
      6322       6323       6334       6333       6443       6444       6455       6454  
      6323       6324       6335       6334       6444       6445       6456       6455  
      6324       6325       6336       6335       6445       6446       6457       6456  
      6326       6327       6338       6337       6447       6448       6459       6458  
      6327       6328       6339       6338       6448       6449       6460       6459  
      6328       6329       6340       6339       6449       6450       6461       6460  
      6329       6330       6341       6340       6450       6451       6462       6461  
      6330       6331       6342       6341       6451       6452       6463       6462  
      6331       6332       6343       6342       6452       6453       6464       6463  
      6332       6333       6344       6343       6453       6454       6465       6464  
      6333       6334       6345       6344       6454       6455       6466       6465  
      6334       6335       6346       6345       6455       6456       6467       6466  
      6335       6336       6347       6346       6456       6457       6468       6467  
      6337       6338       6349       6348       6458       6459       6470       6469  
      6338       6339       6350       6349       6459       6460       6471       6470  
      6339       6340       6351       6350       6460       6461       6472       6471  
      6340       6341       6352       6351       6461       6462       6473       6472  
      6341       6342       6353       6352       6462       6463       6474       6473  
      6342       6343       6354       6353       6463       6464       6475       6474  
      6343       6344       6355       6354       6464       6465       6476       6475  
      6344       6345       6356       6355       6465       6466       6477       6476  
      6345       6346       6357       6356       6466       6467       6478       6477  
      6346       6347       6358       6357       6467       6468       6479       6478  
      6348       6349       6360       6359       6469       6470       6481       6480  
      6349       6350       6361       6360       6470       6471       6482       6481  
      6350       6351       6362       6361       6471       6472       6483       6482  
      6351       6352       6363       6362       6472       6473       6484       6483  
      6352       6353       6364       6363       6473       6474       6485       6484  
      6353       6354       6365       6364       6474       6475       6486       6485  
      6354       6355       6366       6365       6475       6476       6487       6486  
      6355       6356       6367       6366       6476       6477       6488       6487  
      6356       6357       6368       6367       6477       6478       6489       6488  
      6357       6358       6369       6368       6478       6479       6490       6489  
      6359       6360       6371       6370       6480       6481       6492       6491  
      6360       6361       6372       6371       6481       6482       6493       6492  
      6361       6362       6373       6372       6482       6483       6494       6493  
      6362       6363       6374       6373       6483       6484       6495       6494  
      6363       6364       6375       6374       6484       6485       6496       6495  
      6364       6365       6376       6375       6485       6486       6497       6496  
      6365       6366       6377       6376       6486       6487       6498       6497  
      6366       6367       6378       6377       6487       6488       6499       6498  
      6367       6368       6379       6378       6488       6489       6500       6499  
      6368       6369       6380       6379       6489       6490       6501       6500  
      6370       6371       6382       6381       6491       6492       6503       6502  
      6371       6372       6383       6382       6492       6493       6504       6503  
      6372       6373       6384       6383       6493       6494       6505       6504  
      6373       6374       6385       6384       6494       6495       6506       6505  
      6374       6375       6386       6385       6495       6496       6507       6506  
      6375       6376       6387       6386       6496       6497       6508       6507  
      6376       6377       6388       6387       6497       6498       6509       6508  
      6377       6378       6389       6388       6498       6499       6510       6509  
      6378       6379       6390       6389       6499       6500       6511       6510  
      6379       6380       6391       6390       6500       6501       6512       6511  
      6381       6382       6393       6392       6502       6503       6514       6513  
      6382       6383       6394       6393       6503       6504       6515       6514  
      6383       6384       6395       6394       6504       6505       6516       6515  
      6384       6385       6396       6395       6505       6506       6517       6516  
      6385       6386       6397       6396       6506       6507       6518       6517  
      6386       6387       6398       6397       6507       6508       6519       6518  
      6387       6388       6399       6398       6508       6509       6520       6519  
      6388       6389       6400       6399       6509       6510       6521       6520  
      6389       6390       6401       6400       6510       6511       6522       6521  
      6390       6391       6402       6401       6511       6512       6523       6522  
      6392       6393       6404       6403       6513       6514       6525       6524  
      6393       6394       6405       6404       6514       6515       6526       6525  
      6394       6395       6406       6405       6515       6516       6527       6526  
      6395       6396       6407       6406       6516       6517       6528       6527  
      6396       6397       6408       6407       6517       6518       6529       6528  
      6397       6398       6409       6408       6518       6519       6530       6529  
      6398       6399       6410       6409       6519       6520       6531       6530  
      6399       6400       6411       6410       6520       6521       6532       6531  
      6400       6401       6412       6411       6521       6522       6533       6532  
      6401       6402       6413       6412       6522       6523       6534       6533  
      6414       6415       6426       6425       6535       6536       6547       6546  
      6415       6416       6427       6426       6536       6537       6548       6547  
      6416       6417       6428       6427       6537       6538       6549       6548  
      6417       6418       6429       6428       6538       6539       6550       6549  
      6418       6419       6430       6429       6539       6540       6551       6550  
      6419       6420       6431       6430       6540       6541       6552       6551  
      6420       6421       6432       6431       6541       6542       6553       6552  
      6421       6422       6433       6432       6542       6543       6554       6553  
      6422       6423       6434       6433       6543       6544       6555       6554  
      6423       6424       6435       6434       6544       6545       6556       6555  
      6425       6426       6437       6436       6546       6547       6558       6557  
      6426       6427       6438       6437       6547       6548       6559       6558  
      6427       6428       6439       6438       6548       6549       6560       6559  
      6428       6429       6440       6439       6549       6550       6561       6560  
      6429       6430       6441       6440       6550       6551       6562       6561  
      6430       6431       6442       6441       6551       6552       6563       6562  
      6431       6432       6443       6442       6552       6553       6564       6563  
      6432       6433       6444       6443       6553       6554       6565       6564  
      6433       6434       6445       6444       6554       6555       6566       6565  
      6434       6435       6446       6445       6555       6556       6567       6566  
      6436       6437       6448       6447       6557       6558       6569       6568  
      6437       6438       6449       6448       6558       6559       6570       6569  
      6438       6439       6450       6449       6559       6560       6571       6570  
      6439       6440       6451       6450       6560       6561       6572       6571  
      6440       6441       6452       6451       6561       6562       6573       6572  
      6441       6442       6453       6452       6562       6563       6574       6573  
      6442       6443       6454       6453       6563       6564       6575       6574  
      6443       6444       6455       6454       6564       6565       6576       6575  
      6444       6445       6456       6455       6565       6566       6577       6576  
      6445       6446       6457       6456       6566       6567       6578       6577  
      6447       6448       6459       6458       6568       6569       6580       6579  
      6448       6449       6460       6459       6569       6570       6581       6580  
      6449       6450       6461       6460       6570       6571       6582       6581  
      6450       6451       6462       6461       6571       6572       6583       6582  
      6451       6452       6463       6462       6572       6573       6584       6583  
      6452       6453       6464       6463       6573       6574       6585       6584  
      6453       6454       6465       6464       6574       6575       6586       6585  
      6454       6455       6466       6465       6575       6576       6587       6586  
      6455       6456       6467       6466       6576       6577       6588       6587  
      6456       6457       6468       6467       6577       6578       6589       6588  
      6458       6459       6470       6469       6579       6580       6591       6590  
      6459       6460       6471       6470       6580       6581       6592       6591  
      6460       6461       6472       6471       6581       6582       6593       6592  
      6461       6462       6473       6472       6582       6583       6594       6593  
      6462       6463       6474       6473       6583       6584       6595       6594  
      6463       6464       6475       6474       6584       6585       6596       6595  
      6464       6465       6476       6475       6585       6586       6597       6596  
      6465       6466       6477       6476       6586       6587       6598       6597  
      6466       6467       6478       6477       6587       6588       6599       6598  
      6467       6468       6479       6478       6588       6589       6600       6599  
      6469       6470       6481       6480       6590       6591       6602       6601  
      6470       6471       6482       6481       6591       6592       6603       6602  
      6471       6472       6483       6482       6592       6593       6604       6603  
      6472       6473       6484       6483       6593       6594       6605       6604  
      6473       6474       6485       6484       6594       6595       6606       6605  
      6474       6475       6486       6485       6595       6596       6607       6606  
      6475       6476       6487       6486       6596       6597       6608       6607  
      6476       6477       6488       6487       6597       6598       6609       6608  
      6477       6478       6489       6488       6598       6599       6610       6609  
      6478       6479       6490       6489       6599       6600       6611       6610  
      6480       6481       6492       6491       6601       6602       6613       6612  
      6481       6482       6493       6492       6602       6603       6614       6613  
      6482       6483       6494       6493       6603       6604       6615       6614  
      6483       6484       6495       6494       6604       6605       6616       6615  
      6484       6485       6496       6495       6605       6606       6617       6616  
      6485       6486       6497       6496       6606       6607       6618       6617  
      6486       6487       6498       6497       6607       6608       6619       6618  
      6487       6488       6499       6498       6608       6609       6620       6619  
      6488       6489       6500       6499       6609       6610       6621       6620  
      6489       6490       6501       6500       6610       6611       6622       6621  
      6491       6492       6503       6502       6612       6613       6624       6623  
      6492       6493       6504       6503       6613       6614       6625       6624  
      6493       6494       6505       6504       6614       6615       6626       6625  
      6494       6495       6506       6505       6615       6616       6627       6626  
      6495       6496       6507       6506       6616       6617       6628       6627  
      6496       6497       6508       6507       6617       6618       6629       6628  
      6497       6498       6509       6508       6618       6619       6630       6629  
      6498       6499       6510       6509       6619       6620       6631       6630  
      6499       6500       6511       6510       6620       6621       6632       6631  
      6500       6501       6512       6511       6621       6622       6633       6632  
      6502       6503       6514       6513       6623       6624       6635       6634  
      6503       6504       6515       6514       6624       6625       6636       6635  
      6504       6505       6516       6515       6625       6626       6637       6636  
      6505       6506       6517       6516       6626       6627       6638       6637  
      6506       6507       6518       6517       6627       6628       6639       6638  
      6507       6508       6519       6518       6628       6629       6640       6639  
      6508       6509       6520       6519       6629       6630       6641       6640  
      6509       6510       6521       6520       6630       6631       6642       6641  
      6510       6511       6522       6521       6631       6632       6643       6642  
      6511       6512       6523       6522       6632       6633       6644       6643  
      6513       6514       6525       6524       6634       6635       6646       6645  
      6514       6515       6526       6525       6635       6636       6647       6646  
      6515       6516       6527       6526       6636       6637       6648       6647  
      6516       6517       6528       6527       6637       6638       6649       6648  
      6517       6518       6529       6528       6638       6639       6650       6649  
      6518       6519       6530       6529       6639       6640       6651       6650  
      6519       6520       6531       6530       6640       6641       6652       6651  
      6520       6521       6532       6531       6641       6642       6653       6652  
      6521       6522       6533       6532       6642       6643       6654       6653  
      6522       6523       6534       6533       6643       6644       6655       6654  
      6535       6536       6547       6546       6656       6657       6668       6667  
      6536       6537       6548       6547       6657       6658       6669       6668  
      6537       6538       6549       6548       6658       6659       6670       6669  
      6538       6539       6550       6549       6659       6660       6671       6670  
      6539       6540       6551       6550       6660       6661       6672       6671  
      6540       6541       6552       6551       6661       6662       6673       6672  
      6541       6542       6553       6552       6662       6663       6674       6673  
      6542       6543       6554       6553       6663       6664       6675       6674  
      6543       6544       6555       6554       6664       6665       6676       6675  
      6544       6545       6556       6555       6665       6666       6677       6676  
      6546       6547       6558       6557       6667       6668       6679       6678  
      6547       6548       6559       6558       6668       6669       6680       6679  
      6548       6549       6560       6559       6669       6670       6681       6680  
      6549       6550       6561       6560       6670       6671       6682       6681  
      6550       6551       6562       6561       6671       6672       6683       6682  
      6551       6552       6563       6562       6672       6673       6684       6683  
      6552       6553       6564       6563       6673       6674       6685       6684  
      6553       6554       6565       6564       6674       6675       6686       6685  
      6554       6555       6566       6565       6675       6676       6687       6686  
      6555       6556       6567       6566       6676       6677       6688       6687  
      6557       6558       6569       6568       6678       6679       6690       6689  
      6558       6559       6570       6569       6679       6680       6691       6690  
      6559       6560       6571       6570       6680       6681       6692       6691  
      6560       6561       6572       6571       6681       6682       6693       6692  
      6561       6562       6573       6572       6682       6683       6694       6693  
      6562       6563       6574       6573       6683       6684       6695       6694  
      6563       6564       6575       6574       6684       6685       6696       6695  
      6564       6565       6576       6575       6685       6686       6697       6696  
      6565       6566       6577       6576       6686       6687       6698       6697  
      6566       6567       6578       6577       6687       6688       6699       6698  
      6568       6569       6580       6579       6689       6690       6701       6700  
      6569       6570       6581       6580       6690       6691       6702       6701  
      6570       6571       6582       6581       6691       6692       6703       6702  
      6571       6572       6583       6582       6692       6693       6704       6703  
      6572       6573       6584       6583       6693       6694       6705       6704  
      6573       6574       6585       6584       6694       6695       6706       6705  
      6574       6575       6586       6585       6695       6696       6707       6706  
      6575       6576       6587       6586       6696       6697       6708       6707  
      6576       6577       6588       6587       6697       6698       6709       6708  
      6577       6578       6589       6588       6698       6699       6710       6709  
      6579       6580       6591       6590       6700       6701       6712       6711  
      6580       6581       6592       6591       6701       6702       6713       6712  
      6581       6582       6593       6592       6702       6703       6714       6713  
      6582       6583       6594       6593       6703       6704       6715       6714  
      6583       6584       6595       6594       6704       6705       6716       6715  
      6584       6585       6596       6595       6705       6706       6717       6716  
      6585       6586       6597       6596       6706       6707       6718       6717  
      6586       6587       6598       6597       6707       6708       6719       6718  
      6587       6588       6599       6598       6708       6709       6720       6719  
      6588       6589       6600       6599       6709       6710       6721       6720  
      6590       6591       6602       6601       6711       6712       6723       6722  
      6591       6592       6603       6602       6712       6713       6724       6723  
      6592       6593       6604       6603       6713       6714       6725       6724  
      6593       6594       6605       6604       6714       6715       6726       6725  
      6594       6595       6606       6605       6715       6716       6727       6726  
      6595       6596       6607       6606       6716       6717       6728       6727  
      6596       6597       6608       6607       6717       6718       6729       6728  
      6597       6598       6609       6608       6718       6719       6730       6729  
      6598       6599       6610       6609       6719       6720       6731       6730  
      6599       6600       6611       6610       6720       6721       6732       6731  
      6601       6602       6613       6612       6722       6723       6734       6733  
      6602       6603       6614       6613       6723       6724       6735       6734  
      6603       6604       6615       6614       6724       6725       6736       6735  
      6604       6605       6616       6615       6725       6726       6737       6736  
      6605       6606       6617       6616       6726       6727       6738       6737  
      6606       6607       6618       6617       6727       6728       6739       6738  
      6607       6608       6619       6618       6728       6729       6740       6739  
      6608       6609       6620       6619       6729       6730       6741       6740  
      6609       6610       6621       6620       6730       6731       6742       6741  
      6610       6611       6622       6621       6731       6732       6743       6742  
      6612       6613       6624       6623       6733       6734       6745       6744  
      6613       6614       6625       6624       6734       6735       6746       6745  
      6614       6615       6626       6625       6735       6736       6747       6746  
      6615       6616       6627       6626       6736       6737       6748       6747  
      6616       6617       6628       6627       6737       6738       6749       6748  
      6617       6618       6629       6628       6738       6739       6750       6749  
      6618       6619       6630       6629       6739       6740       6751       6750  
      6619       6620       6631       6630       6740       6741       6752       6751  
      6620       6621       6632       6631       6741       6742       6753       6752  
      6621       6622       6633       6632       6742       6743       6754       6753  
      6623       6624       6635       6634       6744       6745       6756       6755  
      6624       6625       6636       6635       6745       6746       6757       6756  
      6625       6626       6637       6636       6746       6747       6758       6757  
      6626       6627       6638       6637       6747       6748       6759       6758  
      6627       6628       6639       6638       6748       6749       6760       6759  
      6628       6629       6640       6639       6749       6750       6761       6760  
      6629       6630       6641       6640       6750       6751       6762       6761  
      6630       6631       6642       6641       6751       6752       6763       6762  
      6631       6632       6643       6642       6752       6753       6764       6763  
      6632       6633       6644       6643       6753       6754       6765       6764  
      6634       6635       6646       6645       6755       6756       6767       6766  
      6635       6636       6647       6646       6756       6757       6768       6767  
      6636       6637       6648       6647       6757       6758       6769       6768  
      6637       6638       6649       6648       6758       6759       6770       6769  
      6638       6639       6650       6649       6759       6760       6771       6770  
      6639       6640       6651       6650       6760       6761       6772       6771  
      6640       6641       6652       6651       6761       6762       6773       6772  
      6641       6642       6653       6652       6762       6763       6774       6773  
      6642       6643       6654       6653       6763       6764       6775       6774  
      6643       6644       6655       6654       6764       6765       6776       6775  
      6656       6657       6668       6667       6777       6778       6789       6788  
      6657       6658       6669       6668       6778       6779       6790       6789  
      6658       6659       6670       6669       6779       6780       6791       6790  
      6659       6660       6671       6670       6780       6781       6792       6791  
      6660       6661       6672       6671       6781       6782       6793       6792  
      6661       6662       6673       6672       6782       6783       6794       6793  
      6662       6663       6674       6673       6783       6784       6795       6794  
      6663       6664       6675       6674       6784       6785       6796       6795  
      6664       6665       6676       6675       6785       6786       6797       6796  
      6665       6666       6677       6676       6786       6787       6798       6797  
      6667       6668       6679       6678       6788       6789       6800       6799  
      6668       6669       6680       6679       6789       6790       6801       6800  
      6669       6670       6681       6680       6790       6791       6802       6801  
      6670       6671       6682       6681       6791       6792       6803       6802  
      6671       6672       6683       6682       6792       6793       6804       6803  
      6672       6673       6684       6683       6793       6794       6805       6804  
      6673       6674       6685       6684       6794       6795       6806       6805  
      6674       6675       6686       6685       6795       6796       6807       6806  
      6675       6676       6687       6686       6796       6797       6808       6807  
      6676       6677       6688       6687       6797       6798       6809       6808  
      6678       6679       6690       6689       6799       6800       6811       6810  
      6679       6680       6691       6690       6800       6801       6812       6811  
      6680       6681       6692       6691       6801       6802       6813       6812  
      6681       6682       6693       6692       6802       6803       6814       6813  
      6682       6683       6694       6693       6803       6804       6815       6814  
      6683       6684       6695       6694       6804       6805       6816       6815  
      6684       6685       6696       6695       6805       6806       6817       6816  
      6685       6686       6697       6696       6806       6807       6818       6817  
      6686       6687       6698       6697       6807       6808       6819       6818  
      6687       6688       6699       6698       6808       6809       6820       6819  
      6689       6690       6701       6700       6810       6811       6822       6821  
      6690       6691       6702       6701       6811       6812       6823       6822  
      6691       6692       6703       6702       6812       6813       6824       6823  
      6692       6693       6704       6703       6813       6814       6825       6824  
      6693       6694       6705       6704       6814       6815       6826       6825  
      6694       6695       6706       6705       6815       6816       6827       6826  
      6695       6696       6707       6706       6816       6817       6828       6827  
      6696       6697       6708       6707       6817       6818       6829       6828  
      6697       6698       6709       6708       6818       6819       6830       6829  
      6698       6699       6710       6709       6819       6820       6831       6830  
      6700       6701       6712       6711       6821       6822       6833       6832  
      6701       6702       6713       6712       6822       6823       6834       6833  
      6702       6703       6714       6713       6823       6824       6835       6834  
      6703       6704       6715       6714       6824       6825       6836       6835  
      6704       6705       6716       6715       6825       6826       6837       6836  
      6705       6706       6717       6716       6826       6827       6838       6837  
      6706       6707       6718       6717       6827       6828       6839       6838  
      6707       6708       6719       6718       6828       6829       6840       6839  
      6708       6709       6720       6719       6829       6830       6841       6840  
      6709       6710       6721       6720       6830       6831       6842       6841  
      6711       6712       6723       6722       6832       6833       6844       6843  
      6712       6713       6724       6723       6833       6834       6845       6844  
      6713       6714       6725       6724       6834       6835       6846       6845  
      6714       6715       6726       6725       6835       6836       6847       6846  
      6715       6716       6727       6726       6836       6837       6848       6847  
      6716       6717       6728       6727       6837       6838       6849       6848  
      6717       6718       6729       6728       6838       6839       6850       6849  
      6718       6719       6730       6729       6839       6840       6851       6850  
      6719       6720       6731       6730       6840       6841       6852       6851  
      6720       6721       6732       6731       6841       6842       6853       6852  
      6722       6723       6734       6733       6843       6844       6855       6854  
      6723       6724       6735       6734       6844       6845       6856       6855  
      6724       6725       6736       6735       6845       6846       6857       6856  
      6725       6726       6737       6736       6846       6847       6858       6857  
      6726       6727       6738       6737       6847       6848       6859       6858  
      6727       6728       6739       6738       6848       6849       6860       6859  
      6728       6729       6740       6739       6849       6850       6861       6860  
      6729       6730       6741       6740       6850       6851       6862       6861  
      6730       6731       6742       6741       6851       6852       6863       6862  
      6731       6732       6743       6742       6852       6853       6864       6863  
      6733       6734       6745       6744       6854       6855       6866       6865  
      6734       6735       6746       6745       6855       6856       6867       6866  
      6735       6736       6747       6746       6856       6857       6868       6867  
      6736       6737       6748       6747       6857       6858       6869       6868  
      6737       6738       6749       6748       6858       6859       6870       6869  
      6738       6739       6750       6749       6859       6860       6871       6870  
      6739       6740       6751       6750       6860       6861       6872       6871  
      6740       6741       6752       6751       6861       6862       6873       6872  
      6741       6742       6753       6752       6862       6863       6874       6873  
      6742       6743       6754       6753       6863       6864       6875       6874  
      6744       6745       6756       6755       6865       6866       6877       6876  
      6745       6746       6757       6756       6866       6867       6878       6877  
      6746       6747       6758       6757       6867       6868       6879       6878  
      6747       6748       6759       6758       6868       6869       6880       6879  
      6748       6749       6760       6759       6869       6870       6881       6880  
      6749       6750       6761       6760       6870       6871       6882       6881  
      6750       6751       6762       6761       6871       6872       6883       6882  
      6751       6752       6763       6762       6872       6873       6884       6883  
      6752       6753       6764       6763       6873       6874       6885       6884  
      6753       6754       6765       6764       6874       6875       6886       6885  
      6755       6756       6767       6766       6876       6877       6888       6887  
      6756       6757       6768       6767       6877       6878       6889       6888  
      6757       6758       6769       6768       6878       6879       6890       6889  
      6758       6759       6770       6769       6879       6880       6891       6890  
      6759       6760       6771       6770       6880       6881       6892       6891  
      6760       6761       6772       6771       6881       6882       6893       6892  
      6761       6762       6773       6772       6882       6883       6894       6893  
      6762       6763       6774       6773       6883       6884       6895       6894  
      6763       6764       6775       6774       6884       6885       6896       6895  
      6764       6765       6776       6775       6885       6886       6897       6896  
      6777       6778       6789       6788       6898       6899       6910       6909  
      6778       6779       6790       6789       6899       6900       6911       6910  
      6779       6780       6791       6790       6900       6901       6912       6911  
      6780       6781       6792       6791       6901       6902       6913       6912  
      6781       6782       6793       6792       6902       6903       6914       6913  
      6782       6783       6794       6793       6903       6904       6915       6914  
      6783       6784       6795       6794       6904       6905       6916       6915  
      6784       6785       6796       6795       6905       6906       6917       6916  
      6785       6786       6797       6796       6906       6907       6918       6917  
      6786       6787       6798       6797       6907       6908       6919       6918  
      6788       6789       6800       6799       6909       6910       6921       6920  
      6789       6790       6801       6800       6910       6911       6922       6921  
      6790       6791       6802       6801       6911       6912       6923       6922  
      6791       6792       6803       6802       6912       6913       6924       6923  
      6792       6793       6804       6803       6913       6914       6925       6924  
      6793       6794       6805       6804       6914       6915       6926       6925  
      6794       6795       6806       6805       6915       6916       6927       6926  
      6795       6796       6807       6806       6916       6917       6928       6927  
      6796       6797       6808       6807       6917       6918       6929       6928  
      6797       6798       6809       6808       6918       6919       6930       6929  
      6799       6800       6811       6810       6920       6921       6932       6931  
      6800       6801       6812       6811       6921       6922       6933       6932  
      6801       6802       6813       6812       6922       6923       6934       6933  
      6802       6803       6814       6813       6923       6924       6935       6934  
      6803       6804       6815       6814       6924       6925       6936       6935  
      6804       6805       6816       6815       6925       6926       6937       6936  
      6805       6806       6817       6816       6926       6927       6938       6937  
      6806       6807       6818       6817       6927       6928       6939       6938  
      6807       6808       6819       6818       6928       6929       6940       6939  
      6808       6809       6820       6819       6929       6930       6941       6940  
      6810       6811       6822       6821       6931       6932       6943       6942  
      6811       6812       6823       6822       6932       6933       6944       6943  
      6812       6813       6824       6823       6933       6934       6945       6944  
      6813       6814       6825       6824       6934       6935       6946       6945  
      6814       6815       6826       6825       6935       6936       6947       6946  
      6815       6816       6827       6826       6936       6937       6948       6947  
      6816       6817       6828       6827       6937       6938       6949       6948  
      6817       6818       6829       6828       6938       6939       6950       6949  
      6818       6819       6830       6829       6939       6940       6951       6950  
      6819       6820       6831       6830       6940       6941       6952       6951  
      6821       6822       6833       6832       6942       6943       6954       6953  
      6822       6823       6834       6833       6943       6944       6955       6954  
      6823       6824       6835       6834       6944       6945       6956       6955  
      6824       6825       6836       6835       6945       6946       6957       6956  
      6825       6826       6837       6836       6946       6947       6958       6957  
      6826       6827       6838       6837       6947       6948       6959       6958  
      6827       6828       6839       6838       6948       6949       6960       6959  
      6828       6829       6840       6839       6949       6950       6961       6960  
      6829       6830       6841       6840       6950       6951       6962       6961  
      6830       6831       6842       6841       6951       6952       6963       6962  
      6832       6833       6844       6843       6953       6954       6965       6964  
      6833       6834       6845       6844       6954       6955       6966       6965  
      6834       6835       6846       6845       6955       6956       6967       6966  
      6835       6836       6847       6846       6956       6957       6968       6967  
      6836       6837       6848       6847       6957       6958       6969       6968  
      6837       6838       6849       6848       6958       6959       6970       6969  
      6838       6839       6850       6849       6959       6960       6971       6970  
      6839       6840       6851       6850       6960       6961       6972       6971  
      6840       6841       6852       6851       6961       6962       6973       6972  
      6841       6842       6853       6852       6962       6963       6974       6973  
      6843       6844       6855       6854       6964       6965       6976       6975  
      6844       6845       6856       6855       6965       6966       6977       6976  
      6845       6846       6857       6856       6966       6967       6978       6977  
      6846       6847       6858       6857       6967       6968       6979       6978  
      6847       6848       6859       6858       6968       6969       6980       6979  
      6848       6849       6860       6859       6969       6970       6981       6980  
      6849       6850       6861       6860       6970       6971       6982       6981  
      6850       6851       6862       6861       6971       6972       6983       6982  
      6851       6852       6863       6862       6972       6973       6984       6983  
      6852       6853       6864       6863       6973       6974       6985       6984  
      6854       6855       6866       6865       6975       6976       6987       6986  
      6855       6856       6867       6866       6976       6977       6988       6987  
      6856       6857       6868       6867       6977       6978       6989       6988  
      6857       6858       6869       6868       6978       6979       6990       6989  
      6858       6859       6870       6869       6979       6980       6991       6990  
      6859       6860       6871       6870       6980       6981       6992       6991  
      6860       6861       6872       6871       6981       6982       6993       6992  
      6861       6862       6873       6872       6982       6983       6994       6993  
      6862       6863       6874       6873       6983       6984       6995       6994  
      6863       6864       6875       6874       6984       6985       6996       6995  
      6865       6866       6877       6876       6986       6987       6998       6997  
      6866       6867       6878       6877       6987       6988       6999       6998  
      6867       6868       6879       6878       6988       6989       7000       6999  
      6868       6869       6880       6879       6989       6990       7001       7000  
      6869       6870       6881       6880       6990       6991       7002       7001  
      6870       6871       6882       6881       6991       6992       7003       7002  
      6871       6872       6883       6882       6992       6993       7004       7003  
      6872       6873       6884       6883       6993       6994       7005       7004  
      6873       6874       6885       6884       6994       6995       7006       7005  
      6874       6875       6886       6885       6995       6996       7007       7006  
      6876       6877       6888       6887       6997       6998       7009       7008  
      6877       6878       6889       6888       6998       6999       7010       7009  
      6878       6879       6890       6889       6999       7000       7011       7010  
      6879       6880       6891       6890       7000       7001       7012       7011  
      6880       6881       6892       6891       7001       7002       7013       7012  
      6881       6882       6893       6892       7002       7003       7014       7013  
      6882       6883       6894       6893       7003       7004       7015       7014  
      6883       6884       6895       6894       7004       7005       7016       7015  
      6884       6885       6896       6895       7005       7006       7017       7016  
      6885       6886       6897       6896       7006       7007       7018       7017  
      6898       6899       6910       6909       7019       7020       7031       7030  
      6899       6900       6911       6910       7020       7021       7032       7031  
      6900       6901       6912       6911       7021       7022       7033       7032  
      6901       6902       6913       6912       7022       7023       7034       7033  
      6902       6903       6914       6913       7023       7024       7035       7034  
      6903       6904       6915       6914       7024       7025       7036       7035  
      6904       6905       6916       6915       7025       7026       7037       7036  
      6905       6906       6917       6916       7026       7027       7038       7037  
      6906       6907       6918       6917       7027       7028       7039       7038  
      6907       6908       6919       6918       7028       7029       7040       7039  
      6909       6910       6921       6920       7030       7031       7042       7041  
      6910       6911       6922       6921       7031       7032       7043       7042  
      6911       6912       6923       6922       7032       7033       7044       7043  
      6912       6913       6924       6923       7033       7034       7045       7044  
      6913       6914       6925       6924       7034       7035       7046       7045  
      6914       6915       6926       6925       7035       7036       7047       7046  
      6915       6916       6927       6926       7036       7037       7048       7047  
      6916       6917       6928       6927       7037       7038       7049       7048  
      6917       6918       6929       6928       7038       7039       7050       7049  
      6918       6919       6930       6929       7039       7040       7051       7050  
      6920       6921       6932       6931       7041       7042       7053       7052  
      6921       6922       6933       6932       7042       7043       7054       7053  
      6922       6923       6934       6933       7043       7044       7055       7054  
      6923       6924       6935       6934       7044       7045       7056       7055  
      6924       6925       6936       6935       7045       7046       7057       7056  
      6925       6926       6937       6936       7046       7047       7058       7057  
      6926       6927       6938       6937       7047       7048       7059       7058  
      6927       6928       6939       6938       7048       7049       7060       7059  
      6928       6929       6940       6939       7049       7050       7061       7060  
      6929       6930       6941       6940       7050       7051       7062       7061  
      6931       6932       6943       6942       7052       7053       7064       7063  
      6932       6933       6944       6943       7053       7054       7065       7064  
      6933       6934       6945       6944       7054       7055       7066       7065  
      6934       6935       6946       6945       7055       7056       7067       7066  
      6935       6936       6947       6946       7056       7057       7068       7067  
      6936       6937       6948       6947       7057       7058       7069       7068  
      6937       6938       6949       6948       7058       7059       7070       7069  
      6938       6939       6950       6949       7059       7060       7071       7070  
      6939       6940       6951       6950       7060       7061       7072       7071  
      6940       6941       6952       6951       7061       7062       7073       7072  
      6942       6943       6954       6953       7063       7064       7075       7074  
      6943       6944       6955       6954       7064       7065       7076       7075  
      6944       6945       6956       6955       7065       7066       7077       7076  
      6945       6946       6957       6956       7066       7067       7078       7077  
      6946       6947       6958       6957       7067       7068       7079       7078  
      6947       6948       6959       6958       7068       7069       7080       7079  
      6948       6949       6960       6959       7069       7070       7081       7080  
      6949       6950       6961       6960       7070       7071       7082       7081  
      6950       6951       6962       6961       7071       7072       7083       7082  
      6951       6952       6963       6962       7072       7073       7084       7083  
      6953       6954       6965       6964       7074       7075       7086       7085  
      6954       6955       6966       6965       7075       7076       7087       7086  
      6955       6956       6967       6966       7076       7077       7088       7087  
      6956       6957       6968       6967       7077       7078       7089       7088  
      6957       6958       6969       6968       7078       7079       7090       7089  
      6958       6959       6970       6969       7079       7080       7091       7090  
      6959       6960       6971       6970       7080       7081       7092       7091  
      6960       6961       6972       6971       7081       7082       7093       7092  
      6961       6962       6973       6972       7082       7083       7094       7093  
      6962       6963       6974       6973       7083       7084       7095       7094  
      6964       6965       6976       6975       7085       7086       7097       7096  
      6965       6966       6977       6976       7086       7087       7098       7097  
      6966       6967       6978       6977       7087       7088       7099       7098  
      6967       6968       6979       6978       7088       7089       7100       7099  
      6968       6969       6980       6979       7089       7090       7101       7100  
      6969       6970       6981       6980       7090       7091       7102       7101  
      6970       6971       6982       6981       7091       7092       7103       7102  
      6971       6972       6983       6982       7092       7093       7104       7103  
      6972       6973       6984       6983       7093       7094       7105       7104  
      6973       6974       6985       6984       7094       7095       7106       7105  
      6975       6976       6987       6986       7096       7097       7108       7107  
      6976       6977       6988       6987       7097       7098       7109       7108  
      6977       6978       6989       6988       7098       7099       7110       7109  
      6978       6979       6990       6989       7099       7100       7111       7110  
      6979       6980       6991       6990       7100       7101       7112       7111  
      6980       6981       6992       6991       7101       7102       7113       7112  
      6981       6982       6993       6992       7102       7103       7114       7113  
      6982       6983       6994       6993       7103       7104       7115       7114  
      6983       6984       6995       6994       7104       7105       7116       7115  
      6984       6985       6996       6995       7105       7106       7117       7116  
      6986       6987       6998       6997       7107       7108       7119       7118  
      6987       6988       6999       6998       7108       7109       7120       7119  
      6988       6989       7000       6999       7109       7110       7121       7120  
      6989       6990       7001       7000       7110       7111       7122       7121  
      6990       6991       7002       7001       7111       7112       7123       7122  
      6991       6992       7003       7002       7112       7113       7124       7123  
      6992       6993       7004       7003       7113       7114       7125       7124  
      6993       6994       7005       7004       7114       7115       7126       7125  
      6994       6995       7006       7005       7115       7116       7127       7126  
      6995       6996       7007       7006       7116       7117       7128       7127  
      6997       6998       7009       7008       7118       7119       7130       7129  
      6998       6999       7010       7009       7119       7120       7131       7130  
      6999       7000       7011       7010       7120       7121       7132       7131  
      7000       7001       7012       7011       7121       7122       7133       7132  
      7001       7002       7013       7012       7122       7123       7134       7133  
      7002       7003       7014       7013       7123       7124       7135       7134  
      7003       7004       7015       7014       7124       7125       7136       7135  
      7004       7005       7016       7015       7125       7126       7137       7136  
      7005       7006       7017       7016       7126       7127       7138       7137  
      7006       7007       7018       7017       7127       7128       7139       7138  
      7019       7020       7031       7030       7140       7141       7152       7151  
      7020       7021       7032       7031       7141       7142       7153       7152  
      7021       7022       7033       7032       7142       7143       7154       7153  
      7022       7023       7034       7033       7143       7144       7155       7154  
      7023       7024       7035       7034       7144       7145       7156       7155  
      7024       7025       7036       7035       7145       7146       7157       7156  
      7025       7026       7037       7036       7146       7147       7158       7157  
      7026       7027       7038       7037       7147       7148       7159       7158  
      7027       7028       7039       7038       7148       7149       7160       7159  
      7028       7029       7040       7039       7149       7150       7161       7160  
      7030       7031       7042       7041       7151       7152       7163       7162  
      7031       7032       7043       7042       7152       7153       7164       7163  
      7032       7033       7044       7043       7153       7154       7165       7164  
      7033       7034       7045       7044       7154       7155       7166       7165  
      7034       7035       7046       7045       7155       7156       7167       7166  
      7035       7036       7047       7046       7156       7157       7168       7167  
      7036       7037       7048       7047       7157       7158       7169       7168  
      7037       7038       7049       7048       7158       7159       7170       7169  
      7038       7039       7050       7049       7159       7160       7171       7170  
      7039       7040       7051       7050       7160       7161       7172       7171  
      7041       7042       7053       7052       7162       7163       7174       7173  
      7042       7043       7054       7053       7163       7164       7175       7174  
      7043       7044       7055       7054       7164       7165       7176       7175  
      7044       7045       7056       7055       7165       7166       7177       7176  
      7045       7046       7057       7056       7166       7167       7178       7177  
      7046       7047       7058       7057       7167       7168       7179       7178  
      7047       7048       7059       7058       7168       7169       7180       7179  
      7048       7049       7060       7059       7169       7170       7181       7180  
      7049       7050       7061       7060       7170       7171       7182       7181  
      7050       7051       7062       7061       7171       7172       7183       7182  
      7052       7053       7064       7063       7173       7174       7185       7184  
      7053       7054       7065       7064       7174       7175       7186       7185  
      7054       7055       7066       7065       7175       7176       7187       7186  
      7055       7056       7067       7066       7176       7177       7188       7187  
      7056       7057       7068       7067       7177       7178       7189       7188  
      7057       7058       7069       7068       7178       7179       7190       7189  
      7058       7059       7070       7069       7179       7180       7191       7190  
      7059       7060       7071       7070       7180       7181       7192       7191  
      7060       7061       7072       7071       7181       7182       7193       7192  
      7061       7062       7073       7072       7182       7183       7194       7193  
      7063       7064       7075       7074       7184       7185       7196       7195  
      7064       7065       7076       7075       7185       7186       7197       7196  
      7065       7066       7077       7076       7186       7187       7198       7197  
      7066       7067       7078       7077       7187       7188       7199       7198  
      7067       7068       7079       7078       7188       7189       7200       7199  
      7068       7069       7080       7079       7189       7190       7201       7200  
      7069       7070       7081       7080       7190       7191       7202       7201  
      7070       7071       7082       7081       7191       7192       7203       7202  
      7071       7072       7083       7082       7192       7193       7204       7203  
      7072       7073       7084       7083       7193       7194       7205       7204  
      7074       7075       7086       7085       7195       7196       7207       7206  
      7075       7076       7087       7086       7196       7197       7208       7207  
      7076       7077       7088       7087       7197       7198       7209       7208  
      7077       7078       7089       7088       7198       7199       7210       7209  
      7078       7079       7090       7089       7199       7200       7211       7210  
      7079       7080       7091       7090       7200       7201       7212       7211  
      7080       7081       7092       7091       7201       7202       7213       7212  
      7081       7082       7093       7092       7202       7203       7214       7213  
      7082       7083       7094       7093       7203       7204       7215       7214  
      7083       7084       7095       7094       7204       7205       7216       7215  
      7085       7086       7097       7096       7206       7207       7218       7217  
      7086       7087       7098       7097       7207       7208       7219       7218  
      7087       7088       7099       7098       7208       7209       7220       7219  
      7088       7089       7100       7099       7209       7210       7221       7220  
      7089       7090       7101       7100       7210       7211       7222       7221  
      7090       7091       7102       7101       7211       7212       7223       7222  
      7091       7092       7103       7102       7212       7213       7224       7223  
      7092       7093       7104       7103       7213       7214       7225       7224  
      7093       7094       7105       7104       7214       7215       7226       7225  
      7094       7095       7106       7105       7215       7216       7227       7226  
      7096       7097       7108       7107       7217       7218       7229       7228  
      7097       7098       7109       7108       7218       7219       7230       7229  
      7098       7099       7110       7109       7219       7220       7231       7230  
      7099       7100       7111       7110       7220       7221       7232       7231  
      7100       7101       7112       7111       7221       7222       7233       7232  
      7101       7102       7113       7112       7222       7223       7234       7233  
      7102       7103       7114       7113       7223       7224       7235       7234  
      7103       7104       7115       7114       7224       7225       7236       7235  
      7104       7105       7116       7115       7225       7226       7237       7236  
      7105       7106       7117       7116       7226       7227       7238       7237  
      7107       7108       7119       7118       7228       7229       7240       7239  
      7108       7109       7120       7119       7229       7230       7241       7240  
      7109       7110       7121       7120       7230       7231       7242       7241  
      7110       7111       7122       7121       7231       7232       7243       7242  
      7111       7112       7123       7122       7232       7233       7244       7243  
      7112       7113       7124       7123       7233       7234       7245       7244  
      7113       7114       7125       7124       7234       7235       7246       7245  
      7114       7115       7126       7125       7235       7236       7247       7246  
      7115       7116       7127       7126       7236       7237       7248       7247  
      7116       7117       7128       7127       7237       7238       7249       7248  
      7118       7119       7130       7129       7239       7240       7251       7250  
      7119       7120       7131       7130       7240       7241       7252       7251  
      7120       7121       7132       7131       7241       7242       7253       7252  
      7121       7122       7133       7132       7242       7243       7254       7253  
      7122       7123       7134       7133       7243       7244       7255       7254  
      7123       7124       7135       7134       7244       7245       7256       7255  
      7124       7125       7136       7135       7245       7246       7257       7256  
      7125       7126       7137       7136       7246       7247       7258       7257  
      7126       7127       7138       7137       7247       7248       7259       7258  
      7127       7128       7139       7138       7248       7249       7260       7259  
      7140       7141       7152       7151       7261       7262       7273       7272  
      7141       7142       7153       7152       7262       7263       7274       7273  
      7142       7143       7154       7153       7263       7264       7275       7274  
      7143       7144       7155       7154       7264       7265       7276       7275  
      7144       7145       7156       7155       7265       7266       7277       7276  
      7145       7146       7157       7156       7266       7267       7278       7277  
      7146       7147       7158       7157       7267       7268       7279       7278  
      7147       7148       7159       7158       7268       7269       7280       7279  
      7148       7149       7160       7159       7269       7270       7281       7280  
      7149       7150       7161       7160       7270       7271       7282       7281  
      7151       7152       7163       7162       7272       7273       7284       7283  
      7152       7153       7164       7163       7273       7274       7285       7284  
      7153       7154       7165       7164       7274       7275       7286       7285  
      7154       7155       7166       7165       7275       7276       7287       7286  
      7155       7156       7167       7166       7276       7277       7288       7287  
      7156       7157       7168       7167       7277       7278       7289       7288  
      7157       7158       7169       7168       7278       7279       7290       7289  
      7158       7159       7170       7169       7279       7280       7291       7290  
      7159       7160       7171       7170       7280       7281       7292       7291  
      7160       7161       7172       7171       7281       7282       7293       7292  
      7162       7163       7174       7173       7283       7284       7295       7294  
      7163       7164       7175       7174       7284       7285       7296       7295  
      7164       7165       7176       7175       7285       7286       7297       7296  
      7165       7166       7177       7176       7286       7287       7298       7297  
      7166       7167       7178       7177       7287       7288       7299       7298  
      7167       7168       7179       7178       7288       7289       7300       7299  
      7168       7169       7180       7179       7289       7290       7301       7300  
      7169       7170       7181       7180       7290       7291       7302       7301  
      7170       7171       7182       7181       7291       7292       7303       7302  
      7171       7172       7183       7182       7292       7293       7304       7303  
      7173       7174       7185       7184       7294       7295       7306       7305  
      7174       7175       7186       7185       7295       7296       7307       7306  
      7175       7176       7187       7186       7296       7297       7308       7307  
      7176       7177       7188       7187       7297       7298       7309       7308  
      7177       7178       7189       7188       7298       7299       7310       7309  
      7178       7179       7190       7189       7299       7300       7311       7310  
      7179       7180       7191       7190       7300       7301       7312       7311  
      7180       7181       7192       7191       7301       7302       7313       7312  
      7181       7182       7193       7192       7302       7303       7314       7313  
      7182       7183       7194       7193       7303       7304       7315       7314  
      7184       7185       7196       7195       7305       7306       7317       7316  
      7185       7186       7197       7196       7306       7307       7318       7317  
      7186       7187       7198       7197       7307       7308       7319       7318  
      7187       7188       7199       7198       7308       7309       7320       7319  
      7188       7189       7200       7199       7309       7310       7321       7320  
      7189       7190       7201       7200       7310       7311       7322       7321  
      7190       7191       7202       7201       7311       7312       7323       7322  
      7191       7192       7203       7202       7312       7313       7324       7323  
      7192       7193       7204       7203       7313       7314       7325       7324  
      7193       7194       7205       7204       7314       7315       7326       7325  
      7195       7196       7207       7206       7316       7317       7328       7327  
      7196       7197       7208       7207       7317       7318       7329       7328  
      7197       7198       7209       7208       7318       7319       7330       7329  
      7198       7199       7210       7209       7319       7320       7331       7330  
      7199       7200       7211       7210       7320       7321       7332       7331  
      7200       7201       7212       7211       7321       7322       7333       7332  
      7201       7202       7213       7212       7322       7323       7334       7333  
      7202       7203       7214       7213       7323       7324       7335       7334  
      7203       7204       7215       7214       7324       7325       7336       7335  
      7204       7205       7216       7215       7325       7326       7337       7336  
      7206       7207       7218       7217       7327       7328       7339       7338  
      7207       7208       7219       7218       7328       7329       7340       7339  
      7208       7209       7220       7219       7329       7330       7341       7340  
      7209       7210       7221       7220       7330       7331       7342       7341  
      7210       7211       7222       7221       7331       7332       7343       7342  
      7211       7212       7223       7222       7332       7333       7344       7343  
      7212       7213       7224       7223       7333       7334       7345       7344  
      7213       7214       7225       7224       7334       7335       7346       7345  
      7214       7215       7226       7225       7335       7336       7347       7346  
      7215       7216       7227       7226       7336       7337       7348       7347  
      7217       7218       7229       7228       7338       7339       7350       7349  
      7218       7219       7230       7229       7339       7340       7351       7350  
      7219       7220       7231       7230       7340       7341       7352       7351  
      7220       7221       7232       7231       7341       7342       7353       7352  
      7221       7222       7233       7232       7342       7343       7354       7353  
      7222       7223       7234       7233       7343       7344       7355       7354  
      7223       7224       7235       7234       7344       7345       7356       7355  
      7224       7225       7236       7235       7345       7346       7357       7356  
      7225       7226       7237       7236       7346       7347       7358       7357  
      7226       7227       7238       7237       7347       7348       7359       7358  
      7228       7229       7240       7239       7349       7350       7361       7360  
      7229       7230       7241       7240       7350       7351       7362       7361  
      7230       7231       7242       7241       7351       7352       7363       7362  
      7231       7232       7243       7242       7352       7353       7364       7363  
      7232       7233       7244       7243       7353       7354       7365       7364  
      7233       7234       7245       7244       7354       7355       7366       7365  
      7234       7235       7246       7245       7355       7356       7367       7366  
      7235       7236       7247       7246       7356       7357       7368       7367  
      7236       7237       7248       7247       7357       7358       7369       7368  
      7237       7238       7249       7248       7358       7359       7370       7369  
      7239       7240       7251       7250       7360       7361       7372       7371  
      7240       7241       7252       7251       7361       7362       7373       7372  
      7241       7242       7253       7252       7362       7363       7374       7373  
      7242       7243       7254       7253       7363       7364       7375       7374  
      7243       7244       7255       7254       7364       7365       7376       7375  
      7244       7245       7256       7255       7365       7366       7377       7376  
      7245       7246       7257       7256       7366       7367       7378       7377  
      7246       7247       7258       7257       7367       7368       7379       7378  
      7247       7248       7259       7258       7368       7369       7380       7379  
      7248       7249       7260       7259       7369       7370       7381       7380  
      7261       7262       7273       7272       7382       7383       7394       7393  
      7262       7263       7274       7273       7383       7384       7395       7394  
      7263       7264       7275       7274       7384       7385       7396       7395  
      7264       7265       7276       7275       7385       7386       7397       7396  
      7265       7266       7277       7276       7386       7387       7398       7397  
      7266       7267       7278       7277       7387       7388       7399       7398  
      7267       7268       7279       7278       7388       7389       7400       7399  
      7268       7269       7280       7279       7389       7390       7401       7400  
      7269       7270       7281       7280       7390       7391       7402       7401  
      7270       7271       7282       7281       7391       7392       7403       7402  
      7272       7273       7284       7283       7393       7394       7405       7404  
      7273       7274       7285       7284       7394       7395       7406       7405  
      7274       7275       7286       7285       7395       7396       7407       7406  
      7275       7276       7287       7286       7396       7397       7408       7407  
      7276       7277       7288       7287       7397       7398       7409       7408  
      7277       7278       7289       7288       7398       7399       7410       7409  
      7278       7279       7290       7289       7399       7400       7411       7410  
      7279       7280       7291       7290       7400       7401       7412       7411  
      7280       7281       7292       7291       7401       7402       7413       7412  
      7281       7282       7293       7292       7402       7403       7414       7413  
      7283       7284       7295       7294       7404       7405       7416       7415  
      7284       7285       7296       7295       7405       7406       7417       7416  
      7285       7286       7297       7296       7406       7407       7418       7417  
      7286       7287       7298       7297       7407       7408       7419       7418  
      7287       7288       7299       7298       7408       7409       7420       7419  
      7288       7289       7300       7299       7409       7410       7421       7420  
      7289       7290       7301       7300       7410       7411       7422       7421  
      7290       7291       7302       7301       7411       7412       7423       7422  
      7291       7292       7303       7302       7412       7413       7424       7423  
      7292       7293       7304       7303       7413       7414       7425       7424  
      7294       7295       7306       7305       7415       7416       7427       7426  
      7295       7296       7307       7306       7416       7417       7428       7427  
      7296       7297       7308       7307       7417       7418       7429       7428  
      7297       7298       7309       7308       7418       7419       7430       7429  
      7298       7299       7310       7309       7419       7420       7431       7430  
      7299       7300       7311       7310       7420       7421       7432       7431  
      7300       7301       7312       7311       7421       7422       7433       7432  
      7301       7302       7313       7312       7422       7423       7434       7433  
      7302       7303       7314       7313       7423       7424       7435       7434  
      7303       7304       7315       7314       7424       7425       7436       7435  
      7305       7306       7317       7316       7426       7427       7438       7437  
      7306       7307       7318       7317       7427       7428       7439       7438  
      7307       7308       7319       7318       7428       7429       7440       7439  
      7308       7309       7320       7319       7429       7430       7441       7440  
      7309       7310       7321       7320       7430       7431       7442       7441  
      7310       7311       7322       7321       7431       7432       7443       7442  
      7311       7312       7323       7322       7432       7433       7444       7443  
      7312       7313       7324       7323       7433       7434       7445       7444  
      7313       7314       7325       7324       7434       7435       7446       7445  
      7314       7315       7326       7325       7435       7436       7447       7446  
      7316       7317       7328       7327       7437       7438       7449       7448  
      7317       7318       7329       7328       7438       7439       7450       7449  
      7318       7319       7330       7329       7439       7440       7451       7450  
      7319       7320       7331       7330       7440       7441       7452       7451  
      7320       7321       7332       7331       7441       7442       7453       7452  
      7321       7322       7333       7332       7442       7443       7454       7453  
      7322       7323       7334       7333       7443       7444       7455       7454  
      7323       7324       7335       7334       7444       7445       7456       7455  
      7324       7325       7336       7335       7445       7446       7457       7456  
      7325       7326       7337       7336       7446       7447       7458       7457  
      7327       7328       7339       7338       7448       7449       7460       7459  
      7328       7329       7340       7339       7449       7450       7461       7460  
      7329       7330       7341       7340       7450       7451       7462       7461  
      7330       7331       7342       7341       7451       7452       7463       7462  
      7331       7332       7343       7342       7452       7453       7464       7463  
      7332       7333       7344       7343       7453       7454       7465       7464  
      7333       7334       7345       7344       7454       7455       7466       7465  
      7334       7335       7346       7345       7455       7456       7467       7466  
      7335       7336       7347       7346       7456       7457       7468       7467  
      7336       7337       7348       7347       7457       7458       7469       7468  
      7338       7339       7350       7349       7459       7460       7471       7470  
      7339       7340       7351       7350       7460       7461       7472       7471  
      7340       7341       7352       7351       7461       7462       7473       7472  
      7341       7342       7353       7352       7462       7463       7474       7473  
      7342       7343       7354       7353       7463       7464       7475       7474  
      7343       7344       7355       7354       7464       7465       7476       7475  
      7344       7345       7356       7355       7465       7466       7477       7476  
      7345       7346       7357       7356       7466       7467       7478       7477  
      7346       7347       7358       7357       7467       7468       7479       7478  
      7347       7348       7359       7358       7468       7469       7480       7479  
      7349       7350       7361       7360       7470       7471       7482       7481  
      7350       7351       7362       7361       7471       7472       7483       7482  
      7351       7352       7363       7362       7472       7473       7484       7483  
      7352       7353       7364       7363       7473       7474       7485       7484  
      7353       7354       7365       7364       7474       7475       7486       7485  
      7354       7355       7366       7365       7475       7476       7487       7486  
      7355       7356       7367       7366       7476       7477       7488       7487  
      7356       7357       7368       7367       7477       7478       7489       7488  
      7357       7358       7369       7368       7478       7479       7490       7489  
      7358       7359       7370       7369       7479       7480       7491       7490  
      7360       7361       7372       7371       7481       7482       7493       7492  
      7361       7362       7373       7372       7482       7483       7494       7493  
      7362       7363       7374       7373       7483       7484       7495       7494  
      7363       7364       7375       7374       7484       7485       7496       7495  
      7364       7365       7376       7375       7485       7486       7497       7496  
      7365       7366       7377       7376       7486       7487       7498       7497  
      7366       7367       7378       7377       7487       7488       7499       7498  
      7367       7368       7379       7378       7488       7489       7500       7499  
      7368       7369       7380       7379       7489       7490       7501       7500  
      7369       7370       7381       7380       7490       7491       7502       7501  
      7382       7383       7394       7393       7503       7504       7515       7514  
      7383       7384       7395       7394       7504       7505       7516       7515  
      7384       7385       7396       7395       7505       7506       7517       7516  
      7385       7386       7397       7396       7506       7507       7518       7517  
      7386       7387       7398       7397       7507       7508       7519       7518  
      7387       7388       7399       7398       7508       7509       7520       7519  
      7388       7389       7400       7399       7509       7510       7521       7520  
      7389       7390       7401       7400       7510       7511       7522       7521  
      7390       7391       7402       7401       7511       7512       7523       7522  
      7391       7392       7403       7402       7512       7513       7524       7523  
      7393       7394       7405       7404       7514       7515       7526       7525  
      7394       7395       7406       7405       7515       7516       7527       7526  
      7395       7396       7407       7406       7516       7517       7528       7527  
      7396       7397       7408       7407       7517       7518       7529       7528  
      7397       7398       7409       7408       7518       7519       7530       7529  
      7398       7399       7410       7409       7519       7520       7531       7530  
      7399       7400       7411       7410       7520       7521       7532       7531  
      7400       7401       7412       7411       7521       7522       7533       7532  
      7401       7402       7413       7412       7522       7523       7534       7533  
      7402       7403       7414       7413       7523       7524       7535       7534  
      7404       7405       7416       7415       7525       7526       7537       7536  
      7405       7406       7417       7416       7526       7527       7538       7537  
      7406       7407       7418       7417       7527       7528       7539       7538  
      7407       7408       7419       7418       7528       7529       7540       7539  
      7408       7409       7420       7419       7529       7530       7541       7540  
      7409       7410       7421       7420       7530       7531       7542       7541  
      7410       7411       7422       7421       7531       7532       7543       7542  
      7411       7412       7423       7422       7532       7533       7544       7543  
      7412       7413       7424       7423       7533       7534       7545       7544  
      7413       7414       7425       7424       7534       7535       7546       7545  
      7415       7416       7427       7426       7536       7537       7548       7547  
      7416       7417       7428       7427       7537       7538       7549       7548  
      7417       7418       7429       7428       7538       7539       7550       7549  
      7418       7419       7430       7429       7539       7540       7551       7550  
      7419       7420       7431       7430       7540       7541       7552       7551  
      7420       7421       7432       7431       7541       7542       7553       7552  
      7421       7422       7433       7432       7542       7543       7554       7553  
      7422       7423       7434       7433       7543       7544       7555       7554  
      7423       7424       7435       7434       7544       7545       7556       7555  
      7424       7425       7436       7435       7545       7546       7557       7556  
      7426       7427       7438       7437       7547       7548       7559       7558  
      7427       7428       7439       7438       7548       7549       7560       7559  
      7428       7429       7440       7439       7549       7550       7561       7560  
      7429       7430       7441       7440       7550       7551       7562       7561  
      7430       7431       7442       7441       7551       7552       7563       7562  
      7431       7432       7443       7442       7552       7553       7564       7563  
      7432       7433       7444       7443       7553       7554       7565       7564  
      7433       7434       7445       7444       7554       7555       7566       7565  
      7434       7435       7446       7445       7555       7556       7567       7566  
      7435       7436       7447       7446       7556       7557       7568       7567  
      7437       7438       7449       7448       7558       7559       7570       7569  
      7438       7439       7450       7449       7559       7560       7571       7570  
      7439       7440       7451       7450       7560       7561       7572       7571  
      7440       7441       7452       7451       7561       7562       7573       7572  
      7441       7442       7453       7452       7562       7563       7574       7573  
      7442       7443       7454       7453       7563       7564       7575       7574  
      7443       7444       7455       7454       7564       7565       7576       7575  
      7444       7445       7456       7455       7565       7566       7577       7576  
      7445       7446       7457       7456       7566       7567       7578       7577  
      7446       7447       7458       7457       7567       7568       7579       7578  
      7448       7449       7460       7459       7569       7570       7581       7580  
      7449       7450       7461       7460       7570       7571       7582       7581  
      7450       7451       7462       7461       7571       7572       7583       7582  
      7451       7452       7463       7462       7572       7573       7584       7583  
      7452       7453       7464       7463       7573       7574       7585       7584  
      7453       7454       7465       7464       7574       7575       7586       7585  
      7454       7455       7466       7465       7575       7576       7587       7586  
      7455       7456       7467       7466       7576       7577       7588       7587  
      7456       7457       7468       7467       7577       7578       7589       7588  
      7457       7458       7469       7468       7578       7579       7590       7589  
      7459       7460       7471       7470       7580       7581       7592       7591  
      7460       7461       7472       7471       7581       7582       7593       7592  
      7461       7462       7473       7472       7582       7583       7594       7593  
      7462       7463       7474       7473       7583       7584       7595       7594  
      7463       7464       7475       7474       7584       7585       7596       7595  
      7464       7465       7476       7475       7585       7586       7597       7596  
      7465       7466       7477       7476       7586       7587       7598       7597  
      7466       7467       7478       7477       7587       7588       7599       7598  
      7467       7468       7479       7478       7588       7589       7600       7599  
      7468       7469       7480       7479       7589       7590       7601       7600  
      7470       7471       7482       7481       7591       7592       7603       7602  
      7471       7472       7483       7482       7592       7593       7604       7603  
      7472       7473       7484       7483       7593       7594       7605       7604  
      7473       7474       7485       7484       7594       7595       7606       7605  
      7474       7475       7486       7485       7595       7596       7607       7606  
      7475       7476       7487       7486       7596       7597       7608       7607  
      7476       7477       7488       7487       7597       7598       7609       7608  
      7477       7478       7489       7488       7598       7599       7610       7609  
      7478       7479       7490       7489       7599       7600       7611       7610  
      7479       7480       7491       7490       7600       7601       7612       7611  
      7481       7482       7493       7492       7602       7603       7614       7613  
      7482       7483       7494       7493       7603       7604       7615       7614  
      7483       7484       7495       7494       7604       7605       7616       7615  
      7484       7485       7496       7495       7605       7606       7617       7616  
      7485       7486       7497       7496       7606       7607       7618       7617  
      7486       7487       7498       7497       7607       7608       7619       7618  
      7487       7488       7499       7498       7608       7609       7620       7619  
      7488       7489       7500       7499       7609       7610       7621       7620  
      7489       7490       7501       7500       7610       7611       7622       7621  
      7490       7491       7502       7501       7611       7612       7623       7622  
      7503       7504       7515       7514       7624       7625       7636       7635  
      7504       7505       7516       7515       7625       7626       7637       7636  
      7505       7506       7517       7516       7626       7627       7638       7637  
      7506       7507       7518       7517       7627       7628       7639       7638  
      7507       7508       7519       7518       7628       7629       7640       7639  
      7508       7509       7520       7519       7629       7630       7641       7640  
      7509       7510       7521       7520       7630       7631       7642       7641  
      7510       7511       7522       7521       7631       7632       7643       7642  
      7511       7512       7523       7522       7632       7633       7644       7643  
      7512       7513       7524       7523       7633       7634       7645       7644  
      7514       7515       7526       7525       7635       7636       7647       7646  
      7515       7516       7527       7526       7636       7637       7648       7647  
      7516       7517       7528       7527       7637       7638       7649       7648  
      7517       7518       7529       7528       7638       7639       7650       7649  
      7518       7519       7530       7529       7639       7640       7651       7650  
      7519       7520       7531       7530       7640       7641       7652       7651  
      7520       7521       7532       7531       7641       7642       7653       7652  
      7521       7522       7533       7532       7642       7643       7654       7653  
      7522       7523       7534       7533       7643       7644       7655       7654  
      7523       7524       7535       7534       7644       7645       7656       7655  
      7525       7526       7537       7536       7646       7647       7658       7657  
      7526       7527       7538       7537       7647       7648       7659       7658  
      7527       7528       7539       7538       7648       7649       7660       7659  
      7528       7529       7540       7539       7649       7650       7661       7660  
      7529       7530       7541       7540       7650       7651       7662       7661  
      7530       7531       7542       7541       7651       7652       7663       7662  
      7531       7532       7543       7542       7652       7653       7664       7663  
      7532       7533       7544       7543       7653       7654       7665       7664  
      7533       7534       7545       7544       7654       7655       7666       7665  
      7534       7535       7546       7545       7655       7656       7667       7666  
      7536       7537       7548       7547       7657       7658       7669       7668  
      7537       7538       7549       7548       7658       7659       7670       7669  
      7538       7539       7550       7549       7659       7660       7671       7670  
      7539       7540       7551       7550       7660       7661       7672       7671  
      7540       7541       7552       7551       7661       7662       7673       7672  
      7541       7542       7553       7552       7662       7663       7674       7673  
      7542       7543       7554       7553       7663       7664       7675       7674  
      7543       7544       7555       7554       7664       7665       7676       7675  
      7544       7545       7556       7555       7665       7666       7677       7676  
      7545       7546       7557       7556       7666       7667       7678       7677  
      7547       7548       7559       7558       7668       7669       7680       7679  
      7548       7549       7560       7559       7669       7670       7681       7680  
      7549       7550       7561       7560       7670       7671       7682       7681  
      7550       7551       7562       7561       7671       7672       7683       7682  
      7551       7552       7563       7562       7672       7673       7684       7683  
      7552       7553       7564       7563       7673       7674       7685       7684  
      7553       7554       7565       7564       7674       7675       7686       7685  
      7554       7555       7566       7565       7675       7676       7687       7686  
      7555       7556       7567       7566       7676       7677       7688       7687  
      7556       7557       7568       7567       7677       7678       7689       7688  
      7558       7559       7570       7569       7679       7680       7691       7690  
      7559       7560       7571       7570       7680       7681       7692       7691  
      7560       7561       7572       7571       7681       7682       7693       7692  
      7561       7562       7573       7572       7682       7683       7694       7693  
      7562       7563       7574       7573       7683       7684       7695       7694  
      7563       7564       7575       7574       7684       7685       7696       7695  
      7564       7565       7576       7575       7685       7686       7697       7696  
      7565       7566       7577       7576       7686       7687       7698       7697  
      7566       7567       7578       7577       7687       7688       7699       7698  
      7567       7568       7579       7578       7688       7689       7700       7699  
      7569       7570       7581       7580       7690       7691       7702       7701  
      7570       7571       7582       7581       7691       7692       7703       7702  
      7571       7572       7583       7582       7692       7693       7704       7703  
      7572       7573       7584       7583       7693       7694       7705       7704  
      7573       7574       7585       7584       7694       7695       7706       7705  
      7574       7575       7586       7585       7695       7696       7707       7706  
      7575       7576       7587       7586       7696       7697       7708       7707  
      7576       7577       7588       7587       7697       7698       7709       7708  
      7577       7578       7589       7588       7698       7699       7710       7709  
      7578       7579       7590       7589       7699       7700       7711       7710  
      7580       7581       7592       7591       7701       7702       7713       7712  
      7581       7582       7593       7592       7702       7703       7714       7713  
      7582       7583       7594       7593       7703       7704       7715       7714  
      7583       7584       7595       7594       7704       7705       7716       7715  
      7584       7585       7596       7595       7705       7706       7717       7716  
      7585       7586       7597       7596       7706       7707       7718       7717  
      7586       7587       7598       7597       7707       7708       7719       7718  
      7587       7588       7599       7598       7708       7709       7720       7719  
      7588       7589       7600       7599       7709       7710       7721       7720  
      7589       7590       7601       7600       7710       7711       7722       7721  
      7591       7592       7603       7602       7712       7713       7724       7723  
      7592       7593       7604       7603       7713       7714       7725       7724  
      7593       7594       7605       7604       7714       7715       7726       7725  
      7594       7595       7606       7605       7715       7716       7727       7726  
      7595       7596       7607       7606       7716       7717       7728       7727  
      7596       7597       7608       7607       7717       7718       7729       7728  
      7597       7598       7609       7608       7718       7719       7730       7729  
      7598       7599       7610       7609       7719       7720       7731       7730  
      7599       7600       7611       7610       7720       7721       7732       7731  
      7600       7601       7612       7611       7721       7722       7733       7732  
      7602       7603       7614       7613       7723       7724       7735       7734  
      7603       7604       7615       7614       7724       7725       7736       7735  
      7604       7605       7616       7615       7725       7726       7737       7736  
      7605       7606       7617       7616       7726       7727       7738       7737  
      7606       7607       7618       7617       7727       7728       7739       7738  
      7607       7608       7619       7618       7728       7729       7740       7739  
      7608       7609       7620       7619       7729       7730       7741       7740  
      7609       7610       7621       7620       7730       7731       7742       7741  
      7610       7611       7622       7621       7731       7732       7743       7742  
      7611       7612       7623       7622       7732       7733       7744       7743  
      7624       7625       7636       7635       7745       7746       7757       7756  
      7625       7626       7637       7636       7746       7747       7758       7757  
      7626       7627       7638       7637       7747       7748       7759       7758  
      7627       7628       7639       7638       7748       7749       7760       7759  
      7628       7629       7640       7639       7749       7750       7761       7760  
      7629       7630       7641       7640       7750       7751       7762       7761  
      7630       7631       7642       7641       7751       7752       7763       7762  
      7631       7632       7643       7642       7752       7753       7764       7763  
      7632       7633       7644       7643       7753       7754       7765       7764  
      7633       7634       7645       7644       7754       7755       7766       7765  
      7635       7636       7647       7646       7756       7757       7768       7767  
      7636       7637       7648       7647       7757       7758       7769       7768  
      7637       7638       7649       7648       7758       7759       7770       7769  
      7638       7639       7650       7649       7759       7760       7771       7770  
      7639       7640       7651       7650       7760       7761       7772       7771  
      7640       7641       7652       7651       7761       7762       7773       7772  
      7641       7642       7653       7652       7762       7763       7774       7773  
      7642       7643       7654       7653       7763       7764       7775       7774  
      7643       7644       7655       7654       7764       7765       7776       7775  
      7644       7645       7656       7655       7765       7766       7777       7776  
      7646       7647       7658       7657       7767       7768       7779       7778  
      7647       7648       7659       7658       7768       7769       7780       7779  
      7648       7649       7660       7659       7769       7770       7781       7780  
      7649       7650       7661       7660       7770       7771       7782       7781  
      7650       7651       7662       7661       7771       7772       7783       7782  
      7651       7652       7663       7662       7772       7773       7784       7783  
      7652       7653       7664       7663       7773       7774       7785       7784  
      7653       7654       7665       7664       7774       7775       7786       7785  
      7654       7655       7666       7665       7775       7776       7787       7786  
      7655       7656       7667       7666       7776       7777       7788       7787  
      7657       7658       7669       7668       7778       7779       7790       7789  
      7658       7659       7670       7669       7779       7780       7791       7790  
      7659       7660       7671       7670       7780       7781       7792       7791  
      7660       7661       7672       7671       7781       7782       7793       7792  
      7661       7662       7673       7672       7782       7783       7794       7793  
      7662       7663       7674       7673       7783       7784       7795       7794  
      7663       7664       7675       7674       7784       7785       7796       7795  
      7664       7665       7676       7675       7785       7786       7797       7796  
      7665       7666       7677       7676       7786       7787       7798       7797  
      7666       7667       7678       7677       7787       7788       7799       7798  
      7668       7669       7680       7679       7789       7790       7801       7800  
      7669       7670       7681       7680       7790       7791       7802       7801  
      7670       7671       7682       7681       7791       7792       7803       7802  
      7671       7672       7683       7682       7792       7793       7804       7803  
      7672       7673       7684       7683       7793       7794       7805       7804  
      7673       7674       7685       7684       7794       7795       7806       7805  
      7674       7675       7686       7685       7795       7796       7807       7806  
      7675       7676       7687       7686       7796       7797       7808       7807  
      7676       7677       7688       7687       7797       7798       7809       7808  
      7677       7678       7689       7688       7798       7799       7810       7809  
      7679       7680       7691       7690       7800       7801       7812       7811  
      7680       7681       7692       7691       7801       7802       7813       7812  
      7681       7682       7693       7692       7802       7803       7814       7813  
      7682       7683       7694       7693       7803       7804       7815       7814  
      7683       7684       7695       7694       7804       7805       7816       7815  
      7684       7685       7696       7695       7805       7806       7817       7816  
      7685       7686       7697       7696       7806       7807       7818       7817  
      7686       7687       7698       7697       7807       7808       7819       7818  
      7687       7688       7699       7698       7808       7809       7820       7819  
      7688       7689       7700       7699       7809       7810       7821       7820  
      7690       7691       7702       7701       7811       7812       7823       7822  
      7691       7692       7703       7702       7812       7813       7824       7823  
      7692       7693       7704       7703       7813       7814       7825       7824  
      7693       7694       7705       7704       7814       7815       7826       7825  
      7694       7695       7706       7705       7815       7816       7827       7826  
      7695       7696       7707       7706       7816       7817       7828       7827  
      7696       7697       7708       7707       7817       7818       7829       7828  
      7697       7698       7709       7708       7818       7819       7830       7829  
      7698       7699       7710       7709       7819       7820       7831       7830  
      7699       7700       7711       7710       7820       7821       7832       7831  
      7701       7702       7713       7712       7822       7823       7834       7833  
      7702       7703       7714       7713       7823       7824       7835       7834  
      7703       7704       7715       7714       7824       7825       7836       7835  
      7704       7705       7716       7715       7825       7826       7837       7836  
      7705       7706       7717       7716       7826       7827       7838       7837  
      7706       7707       7718       7717       7827       7828       7839       7838  
      7707       7708       7719       7718       7828       7829       7840       7839  
      7708       7709       7720       7719       7829       7830       7841       7840  
      7709       7710       7721       7720       7830       7831       7842       7841  
      7710       7711       7722       7721       7831       7832       7843       7842  
      7712       7713       7724       7723       7833       7834       7845       7844  
      7713       7714       7725       7724       7834       7835       7846       7845  
      7714       7715       7726       7725       7835       7836       7847       7846  
      7715       7716       7727       7726       7836       7837       7848       7847  
      7716       7717       7728       7727       7837       7838       7849       7848  
      7717       7718       7729       7728       7838       7839       7850       7849  
      7718       7719       7730       7729       7839       7840       7851       7850  
      7719       7720       7731       7730       7840       7841       7852       7851  
      7720       7721       7732       7731       7841       7842       7853       7852  
      7721       7722       7733       7732       7842       7843       7854       7853  
      7723       7724       7735       7734       7844       7845       7856       7855  
      7724       7725       7736       7735       7845       7846       7857       7856  
      7725       7726       7737       7736       7846       7847       7858       7857  
      7726       7727       7738       7737       7847       7848       7859       7858  
      7727       7728       7739       7738       7848       7849       7860       7859  
      7728       7729       7740       7739       7849       7850       7861       7860  
      7729       7730       7741       7740       7850       7851       7862       7861  
      7730       7731       7742       7741       7851       7852       7863       7862  
      7731       7732       7743       7742       7852       7853       7864       7863  
      7732       7733       7744       7743       7853       7854       7865       7864  
      7745       7746       7757       7756       7866       7867       7878       7877  
      7746       7747       7758       7757       7867       7868       7879       7878  
      7747       7748       7759       7758       7868       7869       7880       7879  
      7748       7749       7760       7759       7869       7870       7881       7880  
      7749       7750       7761       7760       7870       7871       7882       7881  
      7750       7751       7762       7761       7871       7872       7883       7882  
      7751       7752       7763       7762       7872       7873       7884       7883  
      7752       7753       7764       7763       7873       7874       7885       7884  
      7753       7754       7765       7764       7874       7875       7886       7885  
      7754       7755       7766       7765       7875       7876       7887       7886  
      7756       7757       7768       7767       7877       7878       7889       7888  
      7757       7758       7769       7768       7878       7879       7890       7889  
      7758       7759       7770       7769       7879       7880       7891       7890  
      7759       7760       7771       7770       7880       7881       7892       7891  
      7760       7761       7772       7771       7881       7882       7893       7892  
      7761       7762       7773       7772       7882       7883       7894       7893  
      7762       7763       7774       7773       7883       7884       7895       7894  
      7763       7764       7775       7774       7884       7885       7896       7895  
      7764       7765       7776       7775       7885       7886       7897       7896  
      7765       7766       7777       7776       7886       7887       7898       7897  
      7767       7768       7779       7778       7888       7889       7900       7899  
      7768       7769       7780       7779       7889       7890       7901       7900  
      7769       7770       7781       7780       7890       7891       7902       7901  
      7770       7771       7782       7781       7891       7892       7903       7902  
      7771       7772       7783       7782       7892       7893       7904       7903  
      7772       7773       7784       7783       7893       7894       7905       7904  
      7773       7774       7785       7784       7894       7895       7906       7905  
      7774       7775       7786       7785       7895       7896       7907       7906  
      7775       7776       7787       7786       7896       7897       7908       7907  
      7776       7777       7788       7787       7897       7898       7909       7908  
      7778       7779       7790       7789       7899       7900       7911       7910  
      7779       7780       7791       7790       7900       7901       7912       7911  
      7780       7781       7792       7791       7901       7902       7913       7912  
      7781       7782       7793       7792       7902       7903       7914       7913  
      7782       7783       7794       7793       7903       7904       7915       7914  
      7783       7784       7795       7794       7904       7905       7916       7915  
      7784       7785       7796       7795       7905       7906       7917       7916  
      7785       7786       7797       7796       7906       7907       7918       7917  
      7786       7787       7798       7797       7907       7908       7919       7918  
      7787       7788       7799       7798       7908       7909       7920       7919  
      7789       7790       7801       7800       7910       7911       7922       7921  
      7790       7791       7802       7801       7911       7912       7923       7922  
      7791       7792       7803       7802       7912       7913       7924       7923  
      7792       7793       7804       7803       7913       7914       7925       7924  
      7793       7794       7805       7804       7914       7915       7926       7925  
      7794       7795       7806       7805       7915       7916       7927       7926  
      7795       7796       7807       7806       7916       7917       7928       7927  
      7796       7797       7808       7807       7917       7918       7929       7928  
      7797       7798       7809       7808       7918       7919       7930       7929  
      7798       7799       7810       7809       7919       7920       7931       7930  
      7800       7801       7812       7811       7921       7922       7933       7932  
      7801       7802       7813       7812       7922       7923       7934       7933  
      7802       7803       7814       7813       7923       7924       7935       7934  
      7803       7804       7815       7814       7924       7925       7936       7935  
      7804       7805       7816       7815       7925       7926       7937       7936  
      7805       7806       7817       7816       7926       7927       7938       7937  
      7806       7807       7818       7817       7927       7928       7939       7938  
      7807       7808       7819       7818       7928       7929       7940       7939  
      7808       7809       7820       7819       7929       7930       7941       7940  
      7809       7810       7821       7820       7930       7931       7942       7941  
      7811       7812       7823       7822       7932       7933       7944       7943  
      7812       7813       7824       7823       7933       7934       7945       7944  
      7813       7814       7825       7824       7934       7935       7946       7945  
      7814       7815       7826       7825       7935       7936       7947       7946  
      7815       7816       7827       7826       7936       7937       7948       7947  
      7816       7817       7828       7827       7937       7938       7949       7948  
      7817       7818       7829       7828       7938       7939       7950       7949  
      7818       7819       7830       7829       7939       7940       7951       7950  
      7819       7820       7831       7830       7940       7941       7952       7951  
      7820       7821       7832       7831       7941       7942       7953       7952  
      7822       7823       7834       7833       7943       7944       7955       7954  
      7823       7824       7835       7834       7944       7945       7956       7955  
      7824       7825       7836       7835       7945       7946       7957       7956  
      7825       7826       7837       7836       7946       7947       7958       7957  
      7826       7827       7838       7837       7947       7948       7959       7958  
      7827       7828       7839       7838       7948       7949       7960       7959  
      7828       7829       7840       7839       7949       7950       7961       7960  
      7829       7830       7841       7840       7950       7951       7962       7961  
      7830       7831       7842       7841       7951       7952       7963       7962  
      7831       7832       7843       7842       7952       7953       7964       7963  
      7833       7834       7845       7844       7954       7955       7966       7965  
      7834       7835       7846       7845       7955       7956       7967       7966  
      7835       7836       7847       7846       7956       7957       7968       7967  
      7836       7837       7848       7847       7957       7958       7969       7968  
      7837       7838       7849       7848       7958       7959       7970       7969  
      7838       7839       7850       7849       7959       7960       7971       7970  
      7839       7840       7851       7850       7960       7961       7972       7971  
      7840       7841       7852       7851       7961       7962       7973       7972  
      7841       7842       7853       7852       7962       7963       7974       7973  
      7842       7843       7854       7853       7963       7964       7975       7974  
      7844       7845       7856       7855       7965       7966       7977       7976  
      7845       7846       7857       7856       7966       7967       7978       7977  
      7846       7847       7858       7857       7967       7968       7979       7978  
      7847       7848       7859       7858       7968       7969       7980       7979  
      7848       7849       7860       7859       7969       7970       7981       7980  
      7849       7850       7861       7860       7970       7971       7982       7981  
      7850       7851       7862       7861       7971       7972       7983       7982  
      7851       7852       7863       7862       7972       7973       7984       7983  
      7852       7853       7864       7863       7973       7974       7985       7984  
      7853       7854       7865       7864       7974       7975       7986       7985  
      7866       7867       7878       7877       7987       7988       7999       7998  
      7867       7868       7879       7878       7988       7989       8000       7999  
      7868       7869       7880       7879       7989       7990       8001       8000  
      7869       7870       7881       7880       7990       7991       8002       8001  
      7870       7871       7882       7881       7991       7992       8003       8002  
      7871       7872       7883       7882       7992       7993       8004       8003  
      7872       7873       7884       7883       7993       7994       8005       8004  
      7873       7874       7885       7884       7994       7995       8006       8005  
      7874       7875       7886       7885       7995       7996       8007       8006  
      7875       7876       7887       7886       7996       7997       8008       8007  
      7877       7878       7889       7888       7998       7999       8010       8009  
      7878       7879       7890       7889       7999       8000       8011       8010  
      7879       7880       7891       7890       8000       8001       8012       8011  
      7880       7881       7892       7891       8001       8002       8013       8012  
      7881       7882       7893       7892       8002       8003       8014       8013  
      7882       7883       7894       7893       8003       8004       8015       8014  
      7883       7884       7895       7894       8004       8005       8016       8015  
      7884       7885       7896       7895       8005       8006       8017       8016  
      7885       7886       7897       7896       8006       8007       8018       8017  
      7886       7887       7898       7897       8007       8008       8019       8018  
      7888       7889       7900       7899       8009       8010       8021       8020  
      7889       7890       7901       7900       8010       8011       8022       8021  
      7890       7891       7902       7901       8011       8012       8023       8022  
      7891       7892       7903       7902       8012       8013       8024       8023  
      7892       7893       7904       7903       8013       8014       8025       8024  
      7893       7894       7905       7904       8014       8015       8026       8025  
      7894       7895       7906       7905       8015       8016       8027       8026  
      7895       7896       7907       7906       8016       8017       8028       8027  
      7896       7897       7908       7907       8017       8018       8029       8028  
      7897       7898       7909       7908       8018       8019       8030       8029  
      7899       7900       7911       7910       8020       8021       8032       8031  
      7900       7901       7912       7911       8021       8022       8033       8032  
      7901       7902       7913       7912       8022       8023       8034       8033  
      7902       7903       7914       7913       8023       8024       8035       8034  
      7903       7904       7915       7914       8024       8025       8036       8035  
      7904       7905       7916       7915       8025       8026       8037       8036  
      7905       7906       7917       7916       8026       8027       8038       8037  
      7906       7907       7918       7917       8027       8028       8039       8038  
      7907       7908       7919       7918       8028       8029       8040       8039  
      7908       7909       7920       7919       8029       8030       8041       8040  
      7910       7911       7922       7921       8031       8032       8043       8042  
      7911       7912       7923       7922       8032       8033       8044       8043  
      7912       7913       7924       7923       8033       8034       8045       8044  
      7913       7914       7925       7924       8034       8035       8046       8045  
      7914       7915       7926       7925       8035       8036       8047       8046  
      7915       7916       7927       7926       8036       8037       8048       8047  
      7916       7917       7928       7927       8037       8038       8049       8048  
      7917       7918       7929       7928       8038       8039       8050       8049  
      7918       7919       7930       7929       8039       8040       8051       8050  
      7919       7920       7931       7930       8040       8041       8052       8051  
      7921       7922       7933       7932       8042       8043       8054       8053  
      7922       7923       7934       7933       8043       8044       8055       8054  
      7923       7924       7935       7934       8044       8045       8056       8055  
      7924       7925       7936       7935       8045       8046       8057       8056  
      7925       7926       7937       7936       8046       8047       8058       8057  
      7926       7927       7938       7937       8047       8048       8059       8058  
      7927       7928       7939       7938       8048       8049       8060       8059  
      7928       7929       7940       7939       8049       8050       8061       8060  
      7929       7930       7941       7940       8050       8051       8062       8061  
      7930       7931       7942       7941       8051       8052       8063       8062  
      7932       7933       7944       7943       8053       8054       8065       8064  
      7933       7934       7945       7944       8054       8055       8066       8065  
      7934       7935       7946       7945       8055       8056       8067       8066  
      7935       7936       7947       7946       8056       8057       8068       8067  
      7936       7937       7948       7947       8057       8058       8069       8068  
      7937       7938       7949       7948       8058       8059       8070       8069  
      7938       7939       7950       7949       8059       8060       8071       8070  
      7939       7940       7951       7950       8060       8061       8072       8071  
      7940       7941       7952       7951       8061       8062       8073       8072  
      7941       7942       7953       7952       8062       8063       8074       8073  
      7943       7944       7955       7954       8064       8065       8076       8075  
      7944       7945       7956       7955       8065       8066       8077       8076  
      7945       7946       7957       7956       8066       8067       8078       8077  
      7946       7947       7958       7957       8067       8068       8079       8078  
      7947       7948       7959       7958       8068       8069       8080       8079  
      7948       7949       7960       7959       8069       8070       8081       8080  
      7949       7950       7961       7960       8070       8071       8082       8081  
      7950       7951       7962       7961       8071       8072       8083       8082  
      7951       7952       7963       7962       8072       8073       8084       8083  
      7952       7953       7964       7963       8073       8074       8085       8084  
      7954       7955       7966       7965       8075       8076       8087       8086  
      7955       7956       7967       7966       8076       8077       8088       8087  
      7956       7957       7968       7967       8077       8078       8089       8088  
      7957       7958       7969       7968       8078       8079       8090       8089  
      7958       7959       7970       7969       8079       8080       8091       8090  
      7959       7960       7971       7970       8080       8081       8092       8091  
      7960       7961       7972       7971       8081       8082       8093       8092  
      7961       7962       7973       7972       8082       8083       8094       8093  
      7962       7963       7974       7973       8083       8084       8095       8094  
      7963       7964       7975       7974       8084       8085       8096       8095  
      7965       7966       7977       7976       8086       8087       8098       8097  
      7966       7967       7978       7977       8087       8088       8099       8098  
      7967       7968       7979       7978       8088       8089       8100       8099  
      7968       7969       7980       7979       8089       8090       8101       8100  
      7969       7970       7981       7980       8090       8091       8102       8101  
      7970       7971       7982       7981       8091       8092       8103       8102  
      7971       7972       7983       7982       8092       8093       8104       8103  
      7972       7973       7984       7983       8093       8094       8105       8104  
      7973       7974       7985       7984       8094       8095       8106       8105  
      7974       7975       7986       7985       8095       8096       8107       8106  
      7987       7988       7999       7998       8108       8109       8120       8119  
      7988       7989       8000       7999       8109       8110       8121       8120  
      7989       7990       8001       8000       8110       8111       8122       8121  
      7990       7991       8002       8001       8111       8112       8123       8122  
      7991       7992       8003       8002       8112       8113       8124       8123  
      7992       7993       8004       8003       8113       8114       8125       8124  
      7993       7994       8005       8004       8114       8115       8126       8125  
      7994       7995       8006       8005       8115       8116       8127       8126  
      7995       7996       8007       8006       8116       8117       8128       8127  
      7996       7997       8008       8007       8117       8118       8129       8128  
      7998       7999       8010       8009       8119       8120       8131       8130  
      7999       8000       8011       8010       8120       8121       8132       8131  
      8000       8001       8012       8011       8121       8122       8133       8132  
      8001       8002       8013       8012       8122       8123       8134       8133  
      8002       8003       8014       8013       8123       8124       8135       8134  
      8003       8004       8015       8014       8124       8125       8136       8135  
      8004       8005       8016       8015       8125       8126       8137       8136  
      8005       8006       8017       8016       8126       8127       8138       8137  
      8006       8007       8018       8017       8127       8128       8139       8138  
      8007       8008       8019       8018       8128       8129       8140       8139  
      8009       8010       8021       8020       8130       8131       8142       8141  
      8010       8011       8022       8021       8131       8132       8143       8142  
      8011       8012       8023       8022       8132       8133       8144       8143  
      8012       8013       8024       8023       8133       8134       8145       8144  
      8013       8014       8025       8024       8134       8135       8146       8145  
      8014       8015       8026       8025       8135       8136       8147       8146  
      8015       8016       8027       8026       8136       8137       8148       8147  
      8016       8017       8028       8027       8137       8138       8149       8148  
      8017       8018       8029       8028       8138       8139       8150       8149  
      8018       8019       8030       8029       8139       8140       8151       8150  
      8020       8021       8032       8031       8141       8142       8153       8152  
      8021       8022       8033       8032       8142       8143       8154       8153  
      8022       8023       8034       8033       8143       8144       8155       8154  
      8023       8024       8035       8034       8144       8145       8156       8155  
      8024       8025       8036       8035       8145       8146       8157       8156  
      8025       8026       8037       8036       8146       8147       8158       8157  
      8026       8027       8038       8037       8147       8148       8159       8158  
      8027       8028       8039       8038       8148       8149       8160       8159  
      8028       8029       8040       8039       8149       8150       8161       8160  
      8029       8030       8041       8040       8150       8151       8162       8161  
      8031       8032       8043       8042       8152       8153       8164       8163  
      8032       8033       8044       8043       8153       8154       8165       8164  
      8033       8034       8045       8044       8154       8155       8166       8165  
      8034       8035       8046       8045       8155       8156       8167       8166  
      8035       8036       8047       8046       8156       8157       8168       8167  
      8036       8037       8048       8047       8157       8158       8169       8168  
      8037       8038       8049       8048       8158       8159       8170       8169  
      8038       8039       8050       8049       8159       8160       8171       8170  
      8039       8040       8051       8050       8160       8161       8172       8171  
      8040       8041       8052       8051       8161       8162       8173       8172  
      8042       8043       8054       8053       8163       8164       8175       8174  
      8043       8044       8055       8054       8164       8165       8176       8175  
      8044       8045       8056       8055       8165       8166       8177       8176  
      8045       8046       8057       8056       8166       8167       8178       8177  
      8046       8047       8058       8057       8167       8168       8179       8178  
      8047       8048       8059       8058       8168       8169       8180       8179  
      8048       8049       8060       8059       8169       8170       8181       8180  
      8049       8050       8061       8060       8170       8171       8182       8181  
      8050       8051       8062       8061       8171       8172       8183       8182  
      8051       8052       8063       8062       8172       8173       8184       8183  
      8053       8054       8065       8064       8174       8175       8186       8185  
      8054       8055       8066       8065       8175       8176       8187       8186  
      8055       8056       8067       8066       8176       8177       8188       8187  
      8056       8057       8068       8067       8177       8178       8189       8188  
      8057       8058       8069       8068       8178       8179       8190       8189  
      8058       8059       8070       8069       8179       8180       8191       8190  
      8059       8060       8071       8070       8180       8181       8192       8191  
      8060       8061       8072       8071       8181       8182       8193       8192  
      8061       8062       8073       8072       8182       8183       8194       8193  
      8062       8063       8074       8073       8183       8184       8195       8194  
      8064       8065       8076       8075       8185       8186       8197       8196  
      8065       8066       8077       8076       8186       8187       8198       8197  
      8066       8067       8078       8077       8187       8188       8199       8198  
      8067       8068       8079       8078       8188       8189       8200       8199  
      8068       8069       8080       8079       8189       8190       8201       8200  
      8069       8070       8081       8080       8190       8191       8202       8201  
      8070       8071       8082       8081       8191       8192       8203       8202  
      8071       8072       8083       8082       8192       8193       8204       8203  
      8072       8073       8084       8083       8193       8194       8205       8204  
      8073       8074       8085       8084       8194       8195       8206       8205  
      8075       8076       8087       8086       8196       8197       8208       8207  
      8076       8077       8088       8087       8197       8198       8209       8208  
      8077       8078       8089       8088       8198       8199       8210       8209  
      8078       8079       8090       8089       8199       8200       8211       8210  
      8079       8080       8091       8090       8200       8201       8212       8211  
      8080       8081       8092       8091       8201       8202       8213       8212  
      8081       8082       8093       8092       8202       8203       8214       8213  
      8082       8083       8094       8093       8203       8204       8215       8214  
      8083       8084       8095       8094       8204       8205       8216       8215  
      8084       8085       8096       8095       8205       8206       8217       8216  
      8086       8087       8098       8097       8207       8208       8219       8218  
      8087       8088       8099       8098       8208       8209       8220       8219  
      8088       8089       8100       8099       8209       8210       8221       8220  
      8089       8090       8101       8100       8210       8211       8222       8221  
      8090       8091       8102       8101       8211       8212       8223       8222  
      8091       8092       8103       8102       8212       8213       8224       8223  
      8092       8093       8104       8103       8213       8214       8225       8224  
      8093       8094       8105       8104       8214       8215       8226       8225  
      8094       8095       8106       8105       8215       8216       8227       8226  
      8095       8096       8107       8106       8216       8217       8228       8227  
      8108       8109       8120       8119       8229       8230       8241       8240  
      8109       8110       8121       8120       8230       8231       8242       8241  
      8110       8111       8122       8121       8231       8232       8243       8242  
      8111       8112       8123       8122       8232       8233       8244       8243  
      8112       8113       8124       8123       8233       8234       8245       8244  
      8113       8114       8125       8124       8234       8235       8246       8245  
      8114       8115       8126       8125       8235       8236       8247       8246  
      8115       8116       8127       8126       8236       8237       8248       8247  
      8116       8117       8128       8127       8237       8238       8249       8248  
      8117       8118       8129       8128       8238       8239       8250       8249  
      8119       8120       8131       8130       8240       8241       8252       8251  
      8120       8121       8132       8131       8241       8242       8253       8252  
      8121       8122       8133       8132       8242       8243       8254       8253  
      8122       8123       8134       8133       8243       8244       8255       8254  
      8123       8124       8135       8134       8244       8245       8256       8255  
      8124       8125       8136       8135       8245       8246       8257       8256  
      8125       8126       8137       8136       8246       8247       8258       8257  
      8126       8127       8138       8137       8247       8248       8259       8258  
      8127       8128       8139       8138       8248       8249       8260       8259  
      8128       8129       8140       8139       8249       8250       8261       8260  
      8130       8131       8142       8141       8251       8252       8263       8262  
      8131       8132       8143       8142       8252       8253       8264       8263  
      8132       8133       8144       8143       8253       8254       8265       8264  
      8133       8134       8145       8144       8254       8255       8266       8265  
      8134       8135       8146       8145       8255       8256       8267       8266  
      8135       8136       8147       8146       8256       8257       8268       8267  
      8136       8137       8148       8147       8257       8258       8269       8268  
      8137       8138       8149       8148       8258       8259       8270       8269  
      8138       8139       8150       8149       8259       8260       8271       8270  
      8139       8140       8151       8150       8260       8261       8272       8271  
      8141       8142       8153       8152       8262       8263       8274       8273  
      8142       8143       8154       8153       8263       8264       8275       8274  
      8143       8144       8155       8154       8264       8265       8276       8275  
      8144       8145       8156       8155       8265       8266       8277       8276  
      8145       8146       8157       8156       8266       8267       8278       8277  
      8146       8147       8158       8157       8267       8268       8279       8278  
      8147       8148       8159       8158       8268       8269       8280       8279  
      8148       8149       8160       8159       8269       8270       8281       8280  
      8149       8150       8161       8160       8270       8271       8282       8281  
      8150       8151       8162       8161       8271       8272       8283       8282  
      8152       8153       8164       8163       8273       8274       8285       8284  
      8153       8154       8165       8164       8274       8275       8286       8285  
      8154       8155       8166       8165       8275       8276       8287       8286  
      8155       8156       8167       8166       8276       8277       8288       8287  
      8156       8157       8168       8167       8277       8278       8289       8288  
      8157       8158       8169       8168       8278       8279       8290       8289  
      8158       8159       8170       8169       8279       8280       8291       8290  
      8159       8160       8171       8170       8280       8281       8292       8291  
      8160       8161       8172       8171       8281       8282       8293       8292  
      8161       8162       8173       8172       8282       8283       8294       8293  
      8163       8164       8175       8174       8284       8285       8296       8295  
      8164       8165       8176       8175       8285       8286       8297       8296  
      8165       8166       8177       8176       8286       8287       8298       8297  
      8166       8167       8178       8177       8287       8288       8299       8298  
      8167       8168       8179       8178       8288       8289       8300       8299  
      8168       8169       8180       8179       8289       8290       8301       8300  
      8169       8170       8181       8180       8290       8291       8302       8301  
      8170       8171       8182       8181       8291       8292       8303       8302  
      8171       8172       8183       8182       8292       8293       8304       8303  
      8172       8173       8184       8183       8293       8294       8305       8304  
      8174       8175       8186       8185       8295       8296       8307       8306  
      8175       8176       8187       8186       8296       8297       8308       8307  
      8176       8177       8188       8187       8297       8298       8309       8308  
      8177       8178       8189       8188       8298       8299       8310       8309  
      8178       8179       8190       8189       8299       8300       8311       8310  
      8179       8180       8191       8190       8300       8301       8312       8311  
      8180       8181       8192       8191       8301       8302       8313       8312  
      8181       8182       8193       8192       8302       8303       8314       8313  
      8182       8183       8194       8193       8303       8304       8315       8314  
      8183       8184       8195       8194       8304       8305       8316       8315  
      8185       8186       8197       8196       8306       8307       8318       8317  
      8186       8187       8198       8197       8307       8308       8319       8318  
      8187       8188       8199       8198       8308       8309       8320       8319  
      8188       8189       8200       8199       8309       8310       8321       8320  
      8189       8190       8201       8200       8310       8311       8322       8321  
      8190       8191       8202       8201       8311       8312       8323       8322  
      8191       8192       8203       8202       8312       8313       8324       8323  
      8192       8193       8204       8203       8313       8314       8325       8324  
      8193       8194       8205       8204       8314       8315       8326       8325  
      8194       8195       8206       8205       8315       8316       8327       8326  
      8196       8197       8208       8207       8317       8318       8329       8328  
      8197       8198       8209       8208       8318       8319       8330       8329  
      8198       8199       8210       8209       8319       8320       8331       8330  
      8199       8200       8211       8210       8320       8321       8332       8331  
      8200       8201       8212       8211       8321       8322       8333       8332  
      8201       8202       8213       8212       8322       8323       8334       8333  
      8202       8203       8214       8213       8323       8324       8335       8334  
      8203       8204       8215       8214       8324       8325       8336       8335  
      8204       8205       8216       8215       8325       8326       8337       8336  
      8205       8206       8217       8216       8326       8327       8338       8337  
      8207       8208       8219       8218       8328       8329       8340       8339  
      8208       8209       8220       8219       8329       8330       8341       8340  
      8209       8210       8221       8220       8330       8331       8342       8341  
      8210       8211       8222       8221       8331       8332       8343       8342  
      8211       8212       8223       8222       8332       8333       8344       8343  
      8212       8213       8224       8223       8333       8334       8345       8344  
      8213       8214       8225       8224       8334       8335       8346       8345  
      8214       8215       8226       8225       8335       8336       8347       8346  
      8215       8216       8227       8226       8336       8337       8348       8347  
      8216       8217       8228       8227       8337       8338       8349       8348  
      8229       8230       8241       8240       8350       8351       8362       8361  
      8230       8231       8242       8241       8351       8352       8363       8362  
      8231       8232       8243       8242       8352       8353       8364       8363  
      8232       8233       8244       8243       8353       8354       8365       8364  
      8233       8234       8245       8244       8354       8355       8366       8365  
      8234       8235       8246       8245       8355       8356       8367       8366  
      8235       8236       8247       8246       8356       8357       8368       8367  
      8236       8237       8248       8247       8357       8358       8369       8368  
      8237       8238       8249       8248       8358       8359       8370       8369  
      8238       8239       8250       8249       8359       8360       8371       8370  
      8240       8241       8252       8251       8361       8362       8373       8372  
      8241       8242       8253       8252       8362       8363       8374       8373  
      8242       8243       8254       8253       8363       8364       8375       8374  
      8243       8244       8255       8254       8364       8365       8376       8375  
      8244       8245       8256       8255       8365       8366       8377       8376  
      8245       8246       8257       8256       8366       8367       8378       8377  
      8246       8247       8258       8257       8367       8368       8379       8378  
      8247       8248       8259       8258       8368       8369       8380       8379  
      8248       8249       8260       8259       8369       8370       8381       8380  
      8249       8250       8261       8260       8370       8371       8382       8381  
      8251       8252       8263       8262       8372       8373       8384       8383  
      8252       8253       8264       8263       8373       8374       8385       8384  
      8253       8254       8265       8264       8374       8375       8386       8385  
      8254       8255       8266       8265       8375       8376       8387       8386  
      8255       8256       8267       8266       8376       8377       8388       8387  
      8256       8257       8268       8267       8377       8378       8389       8388  
      8257       8258       8269       8268       8378       8379       8390       8389  
      8258       8259       8270       8269       8379       8380       8391       8390  
      8259       8260       8271       8270       8380       8381       8392       8391  
      8260       8261       8272       8271       8381       8382       8393       8392  
      8262       8263       8274       8273       8383       8384       8395       8394  
      8263       8264       8275       8274       8384       8385       8396       8395  
      8264       8265       8276       8275       8385       8386       8397       8396  
      8265       8266       8277       8276       8386       8387       8398       8397  
      8266       8267       8278       8277       8387       8388       8399       8398  
      8267       8268       8279       8278       8388       8389       8400       8399  
      8268       8269       8280       8279       8389       8390       8401       8400  
      8269       8270       8281       8280       8390       8391       8402       8401  
      8270       8271       8282       8281       8391       8392       8403       8402  
      8271       8272       8283       8282       8392       8393       8404       8403  
      8273       8274       8285       8284       8394       8395       8406       8405  
      8274       8275       8286       8285       8395       8396       8407       8406  
      8275       8276       8287       8286       8396       8397       8408       8407  
      8276       8277       8288       8287       8397       8398       8409       8408  
      8277       8278       8289       8288       8398       8399       8410       8409  
      8278       8279       8290       8289       8399       8400       8411       8410  
      8279       8280       8291       8290       8400       8401       8412       8411  
      8280       8281       8292       8291       8401       8402       8413       8412  
      8281       8282       8293       8292       8402       8403       8414       8413  
      8282       8283       8294       8293       8403       8404       8415       8414  
      8284       8285       8296       8295       8405       8406       8417       8416  
      8285       8286       8297       8296       8406       8407       8418       8417  
      8286       8287       8298       8297       8407       8408       8419       8418  
      8287       8288       8299       8298       8408       8409       8420       8419  
      8288       8289       8300       8299       8409       8410       8421       8420  
      8289       8290       8301       8300       8410       8411       8422       8421  
      8290       8291       8302       8301       8411       8412       8423       8422  
      8291       8292       8303       8302       8412       8413       8424       8423  
      8292       8293       8304       8303       8413       8414       8425       8424  
      8293       8294       8305       8304       8414       8415       8426       8425  
      8295       8296       8307       8306       8416       8417       8428       8427  
      8296       8297       8308       8307       8417       8418       8429       8428  
      8297       8298       8309       8308       8418       8419       8430       8429  
      8298       8299       8310       8309       8419       8420       8431       8430  
      8299       8300       8311       8310       8420       8421       8432       8431  
      8300       8301       8312       8311       8421       8422       8433       8432  
      8301       8302       8313       8312       8422       8423       8434       8433  
      8302       8303       8314       8313       8423       8424       8435       8434  
      8303       8304       8315       8314       8424       8425       8436       8435  
      8304       8305       8316       8315       8425       8426       8437       8436  
      8306       8307       8318       8317       8427       8428       8439       8438  
      8307       8308       8319       8318       8428       8429       8440       8439  
      8308       8309       8320       8319       8429       8430       8441       8440  
      8309       8310       8321       8320       8430       8431       8442       8441  
      8310       8311       8322       8321       8431       8432       8443       8442  
      8311       8312       8323       8322       8432       8433       8444       8443  
      8312       8313       8324       8323       8433       8434       8445       8444  
      8313       8314       8325       8324       8434       8435       8446       8445  
      8314       8315       8326       8325       8435       8436       8447       8446  
      8315       8316       8327       8326       8436       8437       8448       8447  
      8317       8318       8329       8328       8438       8439       8450       8449  
      8318       8319       8330       8329       8439       8440       8451       8450  
      8319       8320       8331       8330       8440       8441       8452       8451  
      8320       8321       8332       8331       8441       8442       8453       8452  
      8321       8322       8333       8332       8442       8443       8454       8453  
      8322       8323       8334       8333       8443       8444       8455       8454  
      8323       8324       8335       8334       8444       8445       8456       8455  
      8324       8325       8336       8335       8445       8446       8457       8456  
      8325       8326       8337       8336       8446       8447       8458       8457  
      8326       8327       8338       8337       8447       8448       8459       8458  
      8328       8329       8340       8339       8449       8450       8461       8460  
      8329       8330       8341       8340       8450       8451       8462       8461  
      8330       8331       8342       8341       8451       8452       8463       8462  
      8331       8332       8343       8342       8452       8453       8464       8463  
      8332       8333       8344       8343       8453       8454       8465       8464  
      8333       8334       8345       8344       8454       8455       8466       8465  
      8334       8335       8346       8345       8455       8456       8467       8466  
      8335       8336       8347       8346       8456       8457       8468       8467  
      8336       8337       8348       8347       8457       8458       8469       8468  
      8337       8338       8349       8348       8458       8459       8470       8469  
      8350       8351       8362       8361       8471       8472       8483       8482  
      8351       8352       8363       8362       8472       8473       8484       8483  
      8352       8353       8364       8363       8473       8474       8485       8484  
      8353       8354       8365       8364       8474       8475       8486       8485  
      8354       8355       8366       8365       8475       8476       8487       8486  
      8355       8356       8367       8366       8476       8477       8488       8487  
      8356       8357       8368       8367       8477       8478       8489       8488  
      8357       8358       8369       8368       8478       8479       8490       8489  
      8358       8359       8370       8369       8479       8480       8491       8490  
      8359       8360       8371       8370       8480       8481       8492       8491  
      8361       8362       8373       8372       8482       8483       8494       8493  
      8362       8363       8374       8373       8483       8484       8495       8494  
      8363       8364       8375       8374       8484       8485       8496       8495  
      8364       8365       8376       8375       8485       8486       8497       8496  
      8365       8366       8377       8376       8486       8487       8498       8497  
      8366       8367       8378       8377       8487       8488       8499       8498  
      8367       8368       8379       8378       8488       8489       8500       8499  
      8368       8369       8380       8379       8489       8490       8501       8500  
      8369       8370       8381       8380       8490       8491       8502       8501  
      8370       8371       8382       8381       8491       8492       8503       8502  
      8372       8373       8384       8383       8493       8494       8505       8504  
      8373       8374       8385       8384       8494       8495       8506       8505  
      8374       8375       8386       8385       8495       8496       8507       8506  
      8375       8376       8387       8386       8496       8497       8508       8507  
      8376       8377       8388       8387       8497       8498       8509       8508  
      8377       8378       8389       8388       8498       8499       8510       8509  
      8378       8379       8390       8389       8499       8500       8511       8510  
      8379       8380       8391       8390       8500       8501       8512       8511  
      8380       8381       8392       8391       8501       8502       8513       8512  
      8381       8382       8393       8392       8502       8503       8514       8513  
      8383       8384       8395       8394       8504       8505       8516       8515  
      8384       8385       8396       8395       8505       8506       8517       8516  
      8385       8386       8397       8396       8506       8507       8518       8517  
      8386       8387       8398       8397       8507       8508       8519       8518  
      8387       8388       8399       8398       8508       8509       8520       8519  
      8388       8389       8400       8399       8509       8510       8521       8520  
      8389       8390       8401       8400       8510       8511       8522       8521  
      8390       8391       8402       8401       8511       8512       8523       8522  
      8391       8392       8403       8402       8512       8513       8524       8523  
      8392       8393       8404       8403       8513       8514       8525       8524  
      8394       8395       8406       8405       8515       8516       8527       8526  
      8395       8396       8407       8406       8516       8517       8528       8527  
      8396       8397       8408       8407       8517       8518       8529       8528  
      8397       8398       8409       8408       8518       8519       8530       8529  
      8398       8399       8410       8409       8519       8520       8531       8530  
      8399       8400       8411       8410       8520       8521       8532       8531  
      8400       8401       8412       8411       8521       8522       8533       8532  
      8401       8402       8413       8412       8522       8523       8534       8533  
      8402       8403       8414       8413       8523       8524       8535       8534  
      8403       8404       8415       8414       8524       8525       8536       8535  
      8405       8406       8417       8416       8526       8527       8538       8537  
      8406       8407       8418       8417       8527       8528       8539       8538  
      8407       8408       8419       8418       8528       8529       8540       8539  
      8408       8409       8420       8419       8529       8530       8541       8540  
      8409       8410       8421       8420       8530       8531       8542       8541  
      8410       8411       8422       8421       8531       8532       8543       8542  
      8411       8412       8423       8422       8532       8533       8544       8543  
      8412       8413       8424       8423       8533       8534       8545       8544  
      8413       8414       8425       8424       8534       8535       8546       8545  
      8414       8415       8426       8425       8535       8536       8547       8546  
      8416       8417       8428       8427       8537       8538       8549       8548  
      8417       8418       8429       8428       8538       8539       8550       8549  
      8418       8419       8430       8429       8539       8540       8551       8550  
      8419       8420       8431       8430       8540       8541       8552       8551  
      8420       8421       8432       8431       8541       8542       8553       8552  
      8421       8422       8433       8432       8542       8543       8554       8553  
      8422       8423       8434       8433       8543       8544       8555       8554  
      8423       8424       8435       8434       8544       8545       8556       8555  
      8424       8425       8436       8435       8545       8546       8557       8556  
      8425       8426       8437       8436       8546       8547       8558       8557  
      8427       8428       8439       8438       8548       8549       8560       8559  
      8428       8429       8440       8439       8549       8550       8561       8560  
      8429       8430       8441       8440       8550       8551       8562       8561  
      8430       8431       8442       8441       8551       8552       8563       8562  
      8431       8432       8443       8442       8552       8553       8564       8563  
      8432       8433       8444       8443       8553       8554       8565       8564  
      8433       8434       8445       8444       8554       8555       8566       8565  
      8434       8435       8446       8445       8555       8556       8567       8566  
      8435       8436       8447       8446       8556       8557       8568       8567  
      8436       8437       8448       8447       8557       8558       8569       8568  
      8438       8439       8450       8449       8559       8560       8571       8570  
      8439       8440       8451       8450       8560       8561       8572       8571  
      8440       8441       8452       8451       8561       8562       8573       8572  
      8441       8442       8453       8452       8562       8563       8574       8573  
      8442       8443       8454       8453       8563       8564       8575       8574  
      8443       8444       8455       8454       8564       8565       8576       8575  
      8444       8445       8456       8455       8565       8566       8577       8576  
      8445       8446       8457       8456       8566       8567       8578       8577  
      8446       8447       8458       8457       8567       8568       8579       8578  
      8447       8448       8459       8458       8568       8569       8580       8579  
      8449       8450       8461       8460       8570       8571       8582       8581  
      8450       8451       8462       8461       8571       8572       8583       8582  
      8451       8452       8463       8462       8572       8573       8584       8583  
      8452       8453       8464       8463       8573       8574       8585       8584  
      8453       8454       8465       8464       8574       8575       8586       8585  
      8454       8455       8466       8465       8575       8576       8587       8586  
      8455       8456       8467       8466       8576       8577       8588       8587  
      8456       8457       8468       8467       8577       8578       8589       8588  
      8457       8458       8469       8468       8578       8579       8590       8589  
      8458       8459       8470       8469       8579       8580       8591       8590  
      8471       8472       8483       8482       8592       8593       8604       8603  
      8472       8473       8484       8483       8593       8594       8605       8604  
      8473       8474       8485       8484       8594       8595       8606       8605  
      8474       8475       8486       8485       8595       8596       8607       8606  
      8475       8476       8487       8486       8596       8597       8608       8607  
      8476       8477       8488       8487       8597       8598       8609       8608  
      8477       8478       8489       8488       8598       8599       8610       8609  
      8478       8479       8490       8489       8599       8600       8611       8610  
      8479       8480       8491       8490       8600       8601       8612       8611  
      8480       8481       8492       8491       8601       8602       8613       8612  
      8482       8483       8494       8493       8603       8604       8615       8614  
      8483       8484       8495       8494       8604       8605       8616       8615  
      8484       8485       8496       8495       8605       8606       8617       8616  
      8485       8486       8497       8496       8606       8607       8618       8617  
      8486       8487       8498       8497       8607       8608       8619       8618  
      8487       8488       8499       8498       8608       8609       8620       8619  
      8488       8489       8500       8499       8609       8610       8621       8620  
      8489       8490       8501       8500       8610       8611       8622       8621  
      8490       8491       8502       8501       8611       8612       8623       8622  
      8491       8492       8503       8502       8612       8613       8624       8623  
      8493       8494       8505       8504       8614       8615       8626       8625  
      8494       8495       8506       8505       8615       8616       8627       8626  
      8495       8496       8507       8506       8616       8617       8628       8627  
      8496       8497       8508       8507       8617       8618       8629       8628  
      8497       8498       8509       8508       8618       8619       8630       8629  
      8498       8499       8510       8509       8619       8620       8631       8630  
      8499       8500       8511       8510       8620       8621       8632       8631  
      8500       8501       8512       8511       8621       8622       8633       8632  
      8501       8502       8513       8512       8622       8623       8634       8633  
      8502       8503       8514       8513       8623       8624       8635       8634  
      8504       8505       8516       8515       8625       8626       8637       8636  
      8505       8506       8517       8516       8626       8627       8638       8637  
      8506       8507       8518       8517       8627       8628       8639       8638  
      8507       8508       8519       8518       8628       8629       8640       8639  
      8508       8509       8520       8519       8629       8630       8641       8640  
      8509       8510       8521       8520       8630       8631       8642       8641  
      8510       8511       8522       8521       8631       8632       8643       8642  
      8511       8512       8523       8522       8632       8633       8644       8643  
      8512       8513       8524       8523       8633       8634       8645       8644  
      8513       8514       8525       8524       8634       8635       8646       8645  
      8515       8516       8527       8526       8636       8637       8648       8647  
      8516       8517       8528       8527       8637       8638       8649       8648  
      8517       8518       8529       8528       8638       8639       8650       8649  
      8518       8519       8530       8529       8639       8640       8651       8650  
      8519       8520       8531       8530       8640       8641       8652       8651  
      8520       8521       8532       8531       8641       8642       8653       8652  
      8521       8522       8533       8532       8642       8643       8654       8653  
      8522       8523       8534       8533       8643       8644       8655       8654  
      8523       8524       8535       8534       8644       8645       8656       8655  
      8524       8525       8536       8535       8645       8646       8657       8656  
      8526       8527       8538       8537       8647       8648       8659       8658  
      8527       8528       8539       8538       8648       8649       8660       8659  
      8528       8529       8540       8539       8649       8650       8661       8660  
      8529       8530       8541       8540       8650       8651       8662       8661  
      8530       8531       8542       8541       8651       8652       8663       8662  
      8531       8532       8543       8542       8652       8653       8664       8663  
      8532       8533       8544       8543       8653       8654       8665       8664  
      8533       8534       8545       8544       8654       8655       8666       8665  
      8534       8535       8546       8545       8655       8656       8667       8666  
      8535       8536       8547       8546       8656       8657       8668       8667  
      8537       8538       8549       8548       8658       8659       8670       8669  
      8538       8539       8550       8549       8659       8660       8671       8670  
      8539       8540       8551       8550       8660       8661       8672       8671  
      8540       8541       8552       8551       8661       8662       8673       8672  
      8541       8542       8553       8552       8662       8663       8674       8673  
      8542       8543       8554       8553       8663       8664       8675       8674  
      8543       8544       8555       8554       8664       8665       8676       8675  
      8544       8545       8556       8555       8665       8666       8677       8676  
      8545       8546       8557       8556       8666       8667       8678       8677  
      8546       8547       8558       8557       8667       8668       8679       8678  
      8548       8549       8560       8559       8669       8670       8681       8680  
      8549       8550       8561       8560       8670       8671       8682       8681  
      8550       8551       8562       8561       8671       8672       8683       8682  
      8551       8552       8563       8562       8672       8673       8684       8683  
      8552       8553       8564       8563       8673       8674       8685       8684  
      8553       8554       8565       8564       8674       8675       8686       8685  
      8554       8555       8566       8565       8675       8676       8687       8686  
      8555       8556       8567       8566       8676       8677       8688       8687  
      8556       8557       8568       8567       8677       8678       8689       8688  
      8557       8558       8569       8568       8678       8679       8690       8689  
      8559       8560       8571       8570       8680       8681       8692       8691  
      8560       8561       8572       8571       8681       8682       8693       8692  
      8561       8562       8573       8572       8682       8683       8694       8693  
      8562       8563       8574       8573       8683       8684       8695       8694  
      8563       8564       8575       8574       8684       8685       8696       8695  
      8564       8565       8576       8575       8685       8686       8697       8696  
      8565       8566       8577       8576       8686       8687       8698       8697  
      8566       8567       8578       8577       8687       8688       8699       8698  
      8567       8568       8579       8578       8688       8689       8700       8699  
      8568       8569       8580       8579       8689       8690       8701       8700  
      8570       8571       8582       8581       8691       8692       8703       8702  
      8571       8572       8583       8582       8692       8693       8704       8703  
      8572       8573       8584       8583       8693       8694       8705       8704  
      8573       8574       8585       8584       8694       8695       8706       8705  
      8574       8575       8586       8585       8695       8696       8707       8706  
      8575       8576       8587       8586       8696       8697       8708       8707  
      8576       8577       8588       8587       8697       8698       8709       8708  
      8577       8578       8589       8588       8698       8699       8710       8709  
      8578       8579       8590       8589       8699       8700       8711       8710  
      8579       8580       8591       8590       8700       8701       8712       8711  
      8592       8593       8604       8603       8713       8714       8725       8724  
      8593       8594       8605       8604       8714       8715       8726       8725  
      8594       8595       8606       8605       8715       8716       8727       8726  
      8595       8596       8607       8606       8716       8717       8728       8727  
      8596       8597       8608       8607       8717       8718       8729       8728  
      8597       8598       8609       8608       8718       8719       8730       8729  
      8598       8599       8610       8609       8719       8720       8731       8730  
      8599       8600       8611       8610       8720       8721       8732       8731  
      8600       8601       8612       8611       8721       8722       8733       8732  
      8601       8602       8613       8612       8722       8723       8734       8733  
      8603       8604       8615       8614       8724       8725       8736       8735  
      8604       8605       8616       8615       8725       8726       8737       8736  
      8605       8606       8617       8616       8726       8727       8738       8737  
      8606       8607       8618       8617       8727       8728       8739       8738  
      8607       8608       8619       8618       8728       8729       8740       8739  
      8608       8609       8620       8619       8729       8730       8741       8740  
      8609       8610       8621       8620       8730       8731       8742       8741  
      8610       8611       8622       8621       8731       8732       8743       8742  
      8611       8612       8623       8622       8732       8733       8744       8743  
      8612       8613       8624       8623       8733       8734       8745       8744  
      8614       8615       8626       8625       8735       8736       8747       8746  
      8615       8616       8627       8626       8736       8737       8748       8747  
      8616       8617       8628       8627       8737       8738       8749       8748  
      8617       8618       8629       8628       8738       8739       8750       8749  
      8618       8619       8630       8629       8739       8740       8751       8750  
      8619       8620       8631       8630       8740       8741       8752       8751  
      8620       8621       8632       8631       8741       8742       8753       8752  
      8621       8622       8633       8632       8742       8743       8754       8753  
      8622       8623       8634       8633       8743       8744       8755       8754  
      8623       8624       8635       8634       8744       8745       8756       8755  
      8625       8626       8637       8636       8746       8747       8758       8757  
      8626       8627       8638       8637       8747       8748       8759       8758  
      8627       8628       8639       8638       8748       8749       8760       8759  
      8628       8629       8640       8639       8749       8750       8761       8760  
      8629       8630       8641       8640       8750       8751       8762       8761  
      8630       8631       8642       8641       8751       8752       8763       8762  
      8631       8632       8643       8642       8752       8753       8764       8763  
      8632       8633       8644       8643       8753       8754       8765       8764  
      8633       8634       8645       8644       8754       8755       8766       8765  
      8634       8635       8646       8645       8755       8756       8767       8766  
      8636       8637       8648       8647       8757       8758       8769       8768  
      8637       8638       8649       8648       8758       8759       8770       8769  
      8638       8639       8650       8649       8759       8760       8771       8770  
      8639       8640       8651       8650       8760       8761       8772       8771  
      8640       8641       8652       8651       8761       8762       8773       8772  
      8641       8642       8653       8652       8762       8763       8774       8773  
      8642       8643       8654       8653       8763       8764       8775       8774  
      8643       8644       8655       8654       8764       8765       8776       8775  
      8644       8645       8656       8655       8765       8766       8777       8776  
      8645       8646       8657       8656       8766       8767       8778       8777  
      8647       8648       8659       8658       8768       8769       8780       8779  
      8648       8649       8660       8659       8769       8770       8781       8780  
      8649       8650       8661       8660       8770       8771       8782       8781  
      8650       8651       8662       8661       8771       8772       8783       8782  
      8651       8652       8663       8662       8772       8773       8784       8783  
      8652       8653       8664       8663       8773       8774       8785       8784  
      8653       8654       8665       8664       8774       8775       8786       8785  
      8654       8655       8666       8665       8775       8776       8787       8786  
      8655       8656       8667       8666       8776       8777       8788       8787  
      8656       8657       8668       8667       8777       8778       8789       8788  
      8658       8659       8670       8669       8779       8780       8791       8790  
      8659       8660       8671       8670       8780       8781       8792       8791  
      8660       8661       8672       8671       8781       8782       8793       8792  
      8661       8662       8673       8672       8782       8783       8794       8793  
      8662       8663       8674       8673       8783       8784       8795       8794  
      8663       8664       8675       8674       8784       8785       8796       8795  
      8664       8665       8676       8675       8785       8786       8797       8796  
      8665       8666       8677       8676       8786       8787       8798       8797  
      8666       8667       8678       8677       8787       8788       8799       8798  
      8667       8668       8679       8678       8788       8789       8800       8799  
      8669       8670       8681       8680       8790       8791       8802       8801  
      8670       8671       8682       8681       8791       8792       8803       8802  
      8671       8672       8683       8682       8792       8793       8804       8803  
      8672       8673       8684       8683       8793       8794       8805       8804  
      8673       8674       8685       8684       8794       8795       8806       8805  
      8674       8675       8686       8685       8795       8796       8807       8806  
      8675       8676       8687       8686       8796       8797       8808       8807  
      8676       8677       8688       8687       8797       8798       8809       8808  
      8677       8678       8689       8688       8798       8799       8810       8809  
      8678       8679       8690       8689       8799       8800       8811       8810  
      8680       8681       8692       8691       8801       8802       8813       8812  
      8681       8682       8693       8692       8802       8803       8814       8813  
      8682       8683       8694       8693       8803       8804       8815       8814  
      8683       8684       8695       8694       8804       8805       8816       8815  
      8684       8685       8696       8695       8805       8806       8817       8816  
      8685       8686       8697       8696       8806       8807       8818       8817  
      8686       8687       8698       8697       8807       8808       8819       8818  
      8687       8688       8699       8698       8808       8809       8820       8819  
      8688       8689       8700       8699       8809       8810       8821       8820  
      8689       8690       8701       8700       8810       8811       8822       8821  
      8691       8692       8703       8702       8812       8813       8824       8823  
      8692       8693       8704       8703       8813       8814       8825       8824  
      8693       8694       8705       8704       8814       8815       8826       8825  
      8694       8695       8706       8705       8815       8816       8827       8826  
      8695       8696       8707       8706       8816       8817       8828       8827  
      8696       8697       8708       8707       8817       8818       8829       8828  
      8697       8698       8709       8708       8818       8819       8830       8829  
      8698       8699       8710       8709       8819       8820       8831       8830  
      8699       8700       8711       8710       8820       8821       8832       8831  
      8700       8701       8712       8711       8821       8822       8833       8832  
      8713       8714       8725       8724       8834       8835       8846       8845  
      8714       8715       8726       8725       8835       8836       8847       8846  
      8715       8716       8727       8726       8836       8837       8848       8847  
      8716       8717       8728       8727       8837       8838       8849       8848  
      8717       8718       8729       8728       8838       8839       8850       8849  
      8718       8719       8730       8729       8839       8840       8851       8850  
      8719       8720       8731       8730       8840       8841       8852       8851  
      8720       8721       8732       8731       8841       8842       8853       8852  
      8721       8722       8733       8732       8842       8843       8854       8853  
      8722       8723       8734       8733       8843       8844       8855       8854  
      8724       8725       8736       8735       8845       8846       8857       8856  
      8725       8726       8737       8736       8846       8847       8858       8857  
      8726       8727       8738       8737       8847       8848       8859       8858  
      8727       8728       8739       8738       8848       8849       8860       8859  
      8728       8729       8740       8739       8849       8850       8861       8860  
      8729       8730       8741       8740       8850       8851       8862       8861  
      8730       8731       8742       8741       8851       8852       8863       8862  
      8731       8732       8743       8742       8852       8853       8864       8863  
      8732       8733       8744       8743       8853       8854       8865       8864  
      8733       8734       8745       8744       8854       8855       8866       8865  
      8735       8736       8747       8746       8856       8857       8868       8867  
      8736       8737       8748       8747       8857       8858       8869       8868  
      8737       8738       8749       8748       8858       8859       8870       8869  
      8738       8739       8750       8749       8859       8860       8871       8870  
      8739       8740       8751       8750       8860       8861       8872       8871  
      8740       8741       8752       8751       8861       8862       8873       8872  
      8741       8742       8753       8752       8862       8863       8874       8873  
      8742       8743       8754       8753       8863       8864       8875       8874  
      8743       8744       8755       8754       8864       8865       8876       8875  
      8744       8745       8756       8755       8865       8866       8877       8876  
      8746       8747       8758       8757       8867       8868       8879       8878  
      8747       8748       8759       8758       8868       8869       8880       8879  
      8748       8749       8760       8759       8869       8870       8881       8880  
      8749       8750       8761       8760       8870       8871       8882       8881  
      8750       8751       8762       8761       8871       8872       8883       8882  
      8751       8752       8763       8762       8872       8873       8884       8883  
      8752       8753       8764       8763       8873       8874       8885       8884  
      8753       8754       8765       8764       8874       8875       8886       8885  
      8754       8755       8766       8765       8875       8876       8887       8886  
      8755       8756       8767       8766       8876       8877       8888       8887  
      8757       8758       8769       8768       8878       8879       8890       8889  
      8758       8759       8770       8769       8879       8880       8891       8890  
      8759       8760       8771       8770       8880       8881       8892       8891  
      8760       8761       8772       8771       8881       8882       8893       8892  
      8761       8762       8773       8772       8882       8883       8894       8893  
      8762       8763       8774       8773       8883       8884       8895       8894  
      8763       8764       8775       8774       8884       8885       8896       8895  
      8764       8765       8776       8775       8885       8886       8897       8896  
      8765       8766       8777       8776       8886       8887       8898       8897  
      8766       8767       8778       8777       8887       8888       8899       8898  
      8768       8769       8780       8779       8889       8890       8901       8900  
      8769       8770       8781       8780       8890       8891       8902       8901  
      8770       8771       8782       8781       8891       8892       8903       8902  
      8771       8772       8783       8782       8892       8893       8904       8903  
      8772       8773       8784       8783       8893       8894       8905       8904  
      8773       8774       8785       8784       8894       8895       8906       8905  
      8774       8775       8786       8785       8895       8896       8907       8906  
      8775       8776       8787       8786       8896       8897       8908       8907  
      8776       8777       8788       8787       8897       8898       8909       8908  
      8777       8778       8789       8788       8898       8899       8910       8909  
      8779       8780       8791       8790       8900       8901       8912       8911  
      8780       8781       8792       8791       8901       8902       8913       8912  
      8781       8782       8793       8792       8902       8903       8914       8913  
      8782       8783       8794       8793       8903       8904       8915       8914  
      8783       8784       8795       8794       8904       8905       8916       8915  
      8784       8785       8796       8795       8905       8906       8917       8916  
      8785       8786       8797       8796       8906       8907       8918       8917  
      8786       8787       8798       8797       8907       8908       8919       8918  
      8787       8788       8799       8798       8908       8909       8920       8919  
      8788       8789       8800       8799       8909       8910       8921       8920  
      8790       8791       8802       8801       8911       8912       8923       8922  
      8791       8792       8803       8802       8912       8913       8924       8923  
      8792       8793       8804       8803       8913       8914       8925       8924  
      8793       8794       8805       8804       8914       8915       8926       8925  
      8794       8795       8806       8805       8915       8916       8927       8926  
      8795       8796       8807       8806       8916       8917       8928       8927  
      8796       8797       8808       8807       8917       8918       8929       8928  
      8797       8798       8809       8808       8918       8919       8930       8929  
      8798       8799       8810       8809       8919       8920       8931       8930  
      8799       8800       8811       8810       8920       8921       8932       8931  
      8801       8802       8813       8812       8922       8923       8934       8933  
      8802       8803       8814       8813       8923       8924       8935       8934  
      8803       8804       8815       8814       8924       8925       8936       8935  
      8804       8805       8816       8815       8925       8926       8937       8936  
      8805       8806       8817       8816       8926       8927       8938       8937  
      8806       8807       8818       8817       8927       8928       8939       8938  
      8807       8808       8819       8818       8928       8929       8940       8939  
      8808       8809       8820       8819       8929       8930       8941       8940  
      8809       8810       8821       8820       8930       8931       8942       8941  
      8810       8811       8822       8821       8931       8932       8943       8942  
      8812       8813       8824       8823       8933       8934       8945       8944  
      8813       8814       8825       8824       8934       8935       8946       8945  
      8814       8815       8826       8825       8935       8936       8947       8946  
      8815       8816       8827       8826       8936       8937       8948       8947  
      8816       8817       8828       8827       8937       8938       8949       8948  
      8817       8818       8829       8828       8938       8939       8950       8949  
      8818       8819       8830       8829       8939       8940       8951       8950  
      8819       8820       8831       8830       8940       8941       8952       8951  
      8820       8821       8832       8831       8941       8942       8953       8952  
      8821       8822       8833       8832       8942       8943       8954       8953  
      8834       8835       8846       8845       8955       8956       8967       8966  
      8835       8836       8847       8846       8956       8957       8968       8967  
      8836       8837       8848       8847       8957       8958       8969       8968  
      8837       8838       8849       8848       8958       8959       8970       8969  
      8838       8839       8850       8849       8959       8960       8971       8970  
      8839       8840       8851       8850       8960       8961       8972       8971  
      8840       8841       8852       8851       8961       8962       8973       8972  
      8841       8842       8853       8852       8962       8963       8974       8973  
      8842       8843       8854       8853       8963       8964       8975       8974  
      8843       8844       8855       8854       8964       8965       8976       8975  
      8845       8846       8857       8856       8966       8967       8978       8977  
      8846       8847       8858       8857       8967       8968       8979       8978  
      8847       8848       8859       8858       8968       8969       8980       8979  
      8848       8849       8860       8859       8969       8970       8981       8980  
      8849       8850       8861       8860       8970       8971       8982       8981  
      8850       8851       8862       8861       8971       8972       8983       8982  
      8851       8852       8863       8862       8972       8973       8984       8983  
      8852       8853       8864       8863       8973       8974       8985       8984  
      8853       8854       8865       8864       8974       8975       8986       8985  
      8854       8855       8866       8865       8975       8976       8987       8986  
      8856       8857       8868       8867       8977       8978       8989       8988  
      8857       8858       8869       8868       8978       8979       8990       8989  
      8858       8859       8870       8869       8979       8980       8991       8990  
      8859       8860       8871       8870       8980       8981       8992       8991  
      8860       8861       8872       8871       8981       8982       8993       8992  
      8861       8862       8873       8872       8982       8983       8994       8993  
      8862       8863       8874       8873       8983       8984       8995       8994  
      8863       8864       8875       8874       8984       8985       8996       8995  
      8864       8865       8876       8875       8985       8986       8997       8996  
      8865       8866       8877       8876       8986       8987       8998       8997  
      8867       8868       8879       8878       8988       8989       9000       8999  
      8868       8869       8880       8879       8989       8990       9001       9000  
      8869       8870       8881       8880       8990       8991       9002       9001  
      8870       8871       8882       8881       8991       8992       9003       9002  
      8871       8872       8883       8882       8992       8993       9004       9003  
      8872       8873       8884       8883       8993       8994       9005       9004  
      8873       8874       8885       8884       8994       8995       9006       9005  
      8874       8875       8886       8885       8995       8996       9007       9006  
      8875       8876       8887       8886       8996       8997       9008       9007  
      8876       8877       8888       8887       8997       8998       9009       9008  
      8878       8879       8890       8889       8999       9000       9011       9010  
      8879       8880       8891       8890       9000       9001       9012       9011  
      8880       8881       8892       8891       9001       9002       9013       9012  
      8881       8882       8893       8892       9002       9003       9014       9013  
      8882       8883       8894       8893       9003       9004       9015       9014  
      8883       8884       8895       8894       9004       9005       9016       9015  
      8884       8885       8896       8895       9005       9006       9017       9016  
      8885       8886       8897       8896       9006       9007       9018       9017  
      8886       8887       8898       8897       9007       9008       9019       9018  
      8887       8888       8899       8898       9008       9009       9020       9019  
      8889       8890       8901       8900       9010       9011       9022       9021  
      8890       8891       8902       8901       9011       9012       9023       9022  
      8891       8892       8903       8902       9012       9013       9024       9023  
      8892       8893       8904       8903       9013       9014       9025       9024  
      8893       8894       8905       8904       9014       9015       9026       9025  
      8894       8895       8906       8905       9015       9016       9027       9026  
      8895       8896       8907       8906       9016       9017       9028       9027  
      8896       8897       8908       8907       9017       9018       9029       9028  
      8897       8898       8909       8908       9018       9019       9030       9029  
      8898       8899       8910       8909       9019       9020       9031       9030  
      8900       8901       8912       8911       9021       9022       9033       9032  
      8901       8902       8913       8912       9022       9023       9034       9033  
      8902       8903       8914       8913       9023       9024       9035       9034  
      8903       8904       8915       8914       9024       9025       9036       9035  
      8904       8905       8916       8915       9025       9026       9037       9036  
      8905       8906       8917       8916       9026       9027       9038       9037  
      8906       8907       8918       8917       9027       9028       9039       9038  
      8907       8908       8919       8918       9028       9029       9040       9039  
      8908       8909       8920       8919       9029       9030       9041       9040  
      8909       8910       8921       8920       9030       9031       9042       9041  
      8911       8912       8923       8922       9032       9033       9044       9043  
      8912       8913       8924       8923       9033       9034       9045       9044  
      8913       8914       8925       8924       9034       9035       9046       9045  
      8914       8915       8926       8925       9035       9036       9047       9046  
      8915       8916       8927       8926       9036       9037       9048       9047  
      8916       8917       8928       8927       9037       9038       9049       9048  
      8917       8918       8929       8928       9038       9039       9050       9049  
      8918       8919       8930       8929       9039       9040       9051       9050  
      8919       8920       8931       8930       9040       9041       9052       9051  
      8920       8921       8932       8931       9041       9042       9053       9052  
      8922       8923       8934       8933       9043       9044       9055       9054  
      8923       8924       8935       8934       9044       9045       9056       9055  
      8924       8925       8936       8935       9045       9046       9057       9056  
      8925       8926       8937       8936       9046       9047       9058       9057  
      8926       8927       8938       8937       9047       9048       9059       9058  
      8927       8928       8939       8938       9048       9049       9060       9059  
      8928       8929       8940       8939       9049       9050       9061       9060  
      8929       8930       8941       8940       9050       9051       9062       9061  
      8930       8931       8942       8941       9051       9052       9063       9062  
      8931       8932       8943       8942       9052       9053       9064       9063  
      8933       8934       8945       8944       9054       9055       9066       9065  
      8934       8935       8946       8945       9055       9056       9067       9066  
      8935       8936       8947       8946       9056       9057       9068       9067  
      8936       8937       8948       8947       9057       9058       9069       9068  
      8937       8938       8949       8948       9058       9059       9070       9069  
      8938       8939       8950       8949       9059       9060       9071       9070  
      8939       8940       8951       8950       9060       9061       9072       9071  
      8940       8941       8952       8951       9061       9062       9073       9072  
      8941       8942       8953       8952       9062       9063       9074       9073  
      8942       8943       8954       8953       9063       9064       9075       9074  
      8955       8956       8967       8966       9076       9077       9088       9087  
      8956       8957       8968       8967       9077       9078       9089       9088  
      8957       8958       8969       8968       9078       9079       9090       9089  
      8958       8959       8970       8969       9079       9080       9091       9090  
      8959       8960       8971       8970       9080       9081       9092       9091  
      8960       8961       8972       8971       9081       9082       9093       9092  
      8961       8962       8973       8972       9082       9083       9094       9093  
      8962       8963       8974       8973       9083       9084       9095       9094  
      8963       8964       8975       8974       9084       9085       9096       9095  
      8964       8965       8976       8975       9085       9086       9097       9096  
      8966       8967       8978       8977       9087       9088       9099       9098  
      8967       8968       8979       8978       9088       9089       9100       9099  
      8968       8969       8980       8979       9089       9090       9101       9100  
      8969       8970       8981       8980       9090       9091       9102       9101  
      8970       8971       8982       8981       9091       9092       9103       9102  
      8971       8972       8983       8982       9092       9093       9104       9103  
      8972       8973       8984       8983       9093       9094       9105       9104  
      8973       8974       8985       8984       9094       9095       9106       9105  
      8974       8975       8986       8985       9095       9096       9107       9106  
      8975       8976       8987       8986       9096       9097       9108       9107  
      8977       8978       8989       8988       9098       9099       9110       9109  
      8978       8979       8990       8989       9099       9100       9111       9110  
      8979       8980       8991       8990       9100       9101       9112       9111  
      8980       8981       8992       8991       9101       9102       9113       9112  
      8981       8982       8993       8992       9102       9103       9114       9113  
      8982       8983       8994       8993       9103       9104       9115       9114  
      8983       8984       8995       8994       9104       9105       9116       9115  
      8984       8985       8996       8995       9105       9106       9117       9116  
      8985       8986       8997       8996       9106       9107       9118       9117  
      8986       8987       8998       8997       9107       9108       9119       9118  
      8988       8989       9000       8999       9109       9110       9121       9120  
      8989       8990       9001       9000       9110       9111       9122       9121  
      8990       8991       9002       9001       9111       9112       9123       9122  
      8991       8992       9003       9002       9112       9113       9124       9123  
      8992       8993       9004       9003       9113       9114       9125       9124  
      8993       8994       9005       9004       9114       9115       9126       9125  
      8994       8995       9006       9005       9115       9116       9127       9126  
      8995       8996       9007       9006       9116       9117       9128       9127  
      8996       8997       9008       9007       9117       9118       9129       9128  
      8997       8998       9009       9008       9118       9119       9130       9129  
      8999       9000       9011       9010       9120       9121       9132       9131  
      9000       9001       9012       9011       9121       9122       9133       9132  
      9001       9002       9013       9012       9122       9123       9134       9133  
      9002       9003       9014       9013       9123       9124       9135       9134  
      9003       9004       9015       9014       9124       9125       9136       9135  
      9004       9005       9016       9015       9125       9126       9137       9136  
      9005       9006       9017       9016       9126       9127       9138       9137  
      9006       9007       9018       9017       9127       9128       9139       9138  
      9007       9008       9019       9018       9128       9129       9140       9139  
      9008       9009       9020       9019       9129       9130       9141       9140  
      9010       9011       9022       9021       9131       9132       9143       9142  
      9011       9012       9023       9022       9132       9133       9144       9143  
      9012       9013       9024       9023       9133       9134       9145       9144  
      9013       9014       9025       9024       9134       9135       9146       9145  
      9014       9015       9026       9025       9135       9136       9147       9146  
      9015       9016       9027       9026       9136       9137       9148       9147  
      9016       9017       9028       9027       9137       9138       9149       9148  
      9017       9018       9029       9028       9138       9139       9150       9149  
      9018       9019       9030       9029       9139       9140       9151       9150  
      9019       9020       9031       9030       9140       9141       9152       9151  
      9021       9022       9033       9032       9142       9143       9154       9153  
      9022       9023       9034       9033       9143       9144       9155       9154  
      9023       9024       9035       9034       9144       9145       9156       9155  
      9024       9025       9036       9035       9145       9146       9157       9156  
      9025       9026       9037       9036       9146       9147       9158       9157  
      9026       9027       9038       9037       9147       9148       9159       9158  
      9027       9028       9039       9038       9148       9149       9160       9159  
      9028       9029       9040       9039       9149       9150       9161       9160  
      9029       9030       9041       9040       9150       9151       9162       9161  
      9030       9031       9042       9041       9151       9152       9163       9162  
      9032       9033       9044       9043       9153       9154       9165       9164  
      9033       9034       9045       9044       9154       9155       9166       9165  
      9034       9035       9046       9045       9155       9156       9167       9166  
      9035       9036       9047       9046       9156       9157       9168       9167  
      9036       9037       9048       9047       9157       9158       9169       9168  
      9037       9038       9049       9048       9158       9159       9170       9169  
      9038       9039       9050       9049       9159       9160       9171       9170  
      9039       9040       9051       9050       9160       9161       9172       9171  
      9040       9041       9052       9051       9161       9162       9173       9172  
      9041       9042       9053       9052       9162       9163       9174       9173  
      9043       9044       9055       9054       9164       9165       9176       9175  
      9044       9045       9056       9055       9165       9166       9177       9176  
      9045       9046       9057       9056       9166       9167       9178       9177  
      9046       9047       9058       9057       9167       9168       9179       9178  
      9047       9048       9059       9058       9168       9169       9180       9179  
      9048       9049       9060       9059       9169       9170       9181       9180  
      9049       9050       9061       9060       9170       9171       9182       9181  
      9050       9051       9062       9061       9171       9172       9183       9182  
      9051       9052       9063       9062       9172       9173       9184       9183  
      9052       9053       9064       9063       9173       9174       9185       9184  
      9054       9055       9066       9065       9175       9176       9187       9186  
      9055       9056       9067       9066       9176       9177       9188       9187  
      9056       9057       9068       9067       9177       9178       9189       9188  
      9057       9058       9069       9068       9178       9179       9190       9189  
      9058       9059       9070       9069       9179       9180       9191       9190  
      9059       9060       9071       9070       9180       9181       9192       9191  
      9060       9061       9072       9071       9181       9182       9193       9192  
      9061       9062       9073       9072       9182       9183       9194       9193  
      9062       9063       9074       9073       9183       9184       9195       9194  
      9063       9064       9075       9074       9184       9185       9196       9195  
      9076       9077       9088       9087       9197       9198       9209       9208  
      9077       9078       9089       9088       9198       9199       9210       9209  
      9078       9079       9090       9089       9199       9200       9211       9210  
      9079       9080       9091       9090       9200       9201       9212       9211  
      9080       9081       9092       9091       9201       9202       9213       9212  
      9081       9082       9093       9092       9202       9203       9214       9213  
      9082       9083       9094       9093       9203       9204       9215       9214  
      9083       9084       9095       9094       9204       9205       9216       9215  
      9084       9085       9096       9095       9205       9206       9217       9216  
      9085       9086       9097       9096       9206       9207       9218       9217  
      9087       9088       9099       9098       9208       9209       9220       9219  
      9088       9089       9100       9099       9209       9210       9221       9220  
      9089       9090       9101       9100       9210       9211       9222       9221  
      9090       9091       9102       9101       9211       9212       9223       9222  
      9091       9092       9103       9102       9212       9213       9224       9223  
      9092       9093       9104       9103       9213       9214       9225       9224  
      9093       9094       9105       9104       9214       9215       9226       9225  
      9094       9095       9106       9105       9215       9216       9227       9226  
      9095       9096       9107       9106       9216       9217       9228       9227  
      9096       9097       9108       9107       9217       9218       9229       9228  
      9098       9099       9110       9109       9219       9220       9231       9230  
      9099       9100       9111       9110       9220       9221       9232       9231  
      9100       9101       9112       9111       9221       9222       9233       9232  
      9101       9102       9113       9112       9222       9223       9234       9233  
      9102       9103       9114       9113       9223       9224       9235       9234  
      9103       9104       9115       9114       9224       9225       9236       9235  
      9104       9105       9116       9115       9225       9226       9237       9236  
      9105       9106       9117       9116       9226       9227       9238       9237  
      9106       9107       9118       9117       9227       9228       9239       9238  
      9107       9108       9119       9118       9228       9229       9240       9239  
      9109       9110       9121       9120       9230       9231       9242       9241  
      9110       9111       9122       9121       9231       9232       9243       9242  
      9111       9112       9123       9122       9232       9233       9244       9243  
      9112       9113       9124       9123       9233       9234       9245       9244  
      9113       9114       9125       9124       9234       9235       9246       9245  
      9114       9115       9126       9125       9235       9236       9247       9246  
      9115       9116       9127       9126       9236       9237       9248       9247  
      9116       9117       9128       9127       9237       9238       9249       9248  
      9117       9118       9129       9128       9238       9239       9250       9249  
      9118       9119       9130       9129       9239       9240       9251       9250  
      9120       9121       9132       9131       9241       9242       9253       9252  
      9121       9122       9133       9132       9242       9243       9254       9253  
      9122       9123       9134       9133       9243       9244       9255       9254  
      9123       9124       9135       9134       9244       9245       9256       9255  
      9124       9125       9136       9135       9245       9246       9257       9256  
      9125       9126       9137       9136       9246       9247       9258       9257  
      9126       9127       9138       9137       9247       9248       9259       9258  
      9127       9128       9139       9138       9248       9249       9260       9259  
      9128       9129       9140       9139       9249       9250       9261       9260  
      9129       9130       9141       9140       9250       9251       9262       9261  
      9131       9132       9143       9142       9252       9253       9264       9263  
      9132       9133       9144       9143       9253       9254       9265       9264  
      9133       9134       9145       9144       9254       9255       9266       9265  
      9134       9135       9146       9145       9255       9256       9267       9266  
      9135       9136       9147       9146       9256       9257       9268       9267  
      9136       9137       9148       9147       9257       9258       9269       9268  
      9137       9138       9149       9148       9258       9259       9270       9269  
      9138       9139       9150       9149       9259       9260       9271       9270  
      9139       9140       9151       9150       9260       9261       9272       9271  
      9140       9141       9152       9151       9261       9262       9273       9272  
      9142       9143       9154       9153       9263       9264       9275       9274  
      9143       9144       9155       9154       9264       9265       9276       9275  
      9144       9145       9156       9155       9265       9266       9277       9276  
      9145       9146       9157       9156       9266       9267       9278       9277  
      9146       9147       9158       9157       9267       9268       9279       9278  
      9147       9148       9159       9158       9268       9269       9280       9279  
      9148       9149       9160       9159       9269       9270       9281       9280  
      9149       9150       9161       9160       9270       9271       9282       9281  
      9150       9151       9162       9161       9271       9272       9283       9282  
      9151       9152       9163       9162       9272       9273       9284       9283  
      9153       9154       9165       9164       9274       9275       9286       9285  
      9154       9155       9166       9165       9275       9276       9287       9286  
      9155       9156       9167       9166       9276       9277       9288       9287  
      9156       9157       9168       9167       9277       9278       9289       9288  
      9157       9158       9169       9168       9278       9279       9290       9289  
      9158       9159       9170       9169       9279       9280       9291       9290  
      9159       9160       9171       9170       9280       9281       9292       9291  
      9160       9161       9172       9171       9281       9282       9293       9292  
      9161       9162       9173       9172       9282       9283       9294       9293  
      9162       9163       9174       9173       9283       9284       9295       9294  
      9164       9165       9176       9175       9285       9286       9297       9296  
      9165       9166       9177       9176       9286       9287       9298       9297  
      9166       9167       9178       9177       9287       9288       9299       9298  
      9167       9168       9179       9178       9288       9289       9300       9299  
      9168       9169       9180       9179       9289       9290       9301       9300  
      9169       9170       9181       9180       9290       9291       9302       9301  
      9170       9171       9182       9181       9291       9292       9303       9302  
      9171       9172       9183       9182       9292       9293       9304       9303  
      9172       9173       9184       9183       9293       9294       9305       9304  
      9173       9174       9185       9184       9294       9295       9306       9305  
      9175       9176       9187       9186       9296       9297       9308       9307  
      9176       9177       9188       9187       9297       9298       9309       9308  
      9177       9178       9189       9188       9298       9299       9310       9309  
      9178       9179       9190       9189       9299       9300       9311       9310  
      9179       9180       9191       9190       9300       9301       9312       9311  
      9180       9181       9192       9191       9301       9302       9313       9312  
      9181       9182       9193       9192       9302       9303       9314       9313  
      9182       9183       9194       9193       9303       9304       9315       9314  
      9183       9184       9195       9194       9304       9305       9316       9315  
      9184       9185       9196       9195       9305       9306       9317       9316  
      9197       9198       9209       9208       9318       9319       9330       9329  
      9198       9199       9210       9209       9319       9320       9331       9330  
      9199       9200       9211       9210       9320       9321       9332       9331  
      9200       9201       9212       9211       9321       9322       9333       9332  
      9201       9202       9213       9212       9322       9323       9334       9333  
      9202       9203       9214       9213       9323       9324       9335       9334  
      9203       9204       9215       9214       9324       9325       9336       9335  
      9204       9205       9216       9215       9325       9326       9337       9336  
      9205       9206       9217       9216       9326       9327       9338       9337  
      9206       9207       9218       9217       9327       9328       9339       9338  
      9208       9209       9220       9219       9329       9330       9341       9340  
      9209       9210       9221       9220       9330       9331       9342       9341  
      9210       9211       9222       9221       9331       9332       9343       9342  
      9211       9212       9223       9222       9332       9333       9344       9343  
      9212       9213       9224       9223       9333       9334       9345       9344  
      9213       9214       9225       9224       9334       9335       9346       9345  
      9214       9215       9226       9225       9335       9336       9347       9346  
      9215       9216       9227       9226       9336       9337       9348       9347  
      9216       9217       9228       9227       9337       9338       9349       9348  
      9217       9218       9229       9228       9338       9339       9350       9349  
      9219       9220       9231       9230       9340       9341       9352       9351  
      9220       9221       9232       9231       9341       9342       9353       9352  
      9221       9222       9233       9232       9342       9343       9354       9353  
      9222       9223       9234       9233       9343       9344       9355       9354  
      9223       9224       9235       9234       9344       9345       9356       9355  
      9224       9225       9236       9235       9345       9346       9357       9356  
      9225       9226       9237       9236       9346       9347       9358       9357  
      9226       9227       9238       9237       9347       9348       9359       9358  
      9227       9228       9239       9238       9348       9349       9360       9359  
      9228       9229       9240       9239       9349       9350       9361       9360  
      9230       9231       9242       9241       9351       9352       9363       9362  
      9231       9232       9243       9242       9352       9353       9364       9363  
      9232       9233       9244       9243       9353       9354       9365       9364  
      9233       9234       9245       9244       9354       9355       9366       9365  
      9234       9235       9246       9245       9355       9356       9367       9366  
      9235       9236       9247       9246       9356       9357       9368       9367  
      9236       9237       9248       9247       9357       9358       9369       9368  
      9237       9238       9249       9248       9358       9359       9370       9369  
      9238       9239       9250       9249       9359       9360       9371       9370  
      9239       9240       9251       9250       9360       9361       9372       9371  
      9241       9242       9253       9252       9362       9363       9374       9373  
      9242       9243       9254       9253       9363       9364       9375       9374  
      9243       9244       9255       9254       9364       9365       9376       9375  
      9244       9245       9256       9255       9365       9366       9377       9376  
      9245       9246       9257       9256       9366       9367       9378       9377  
      9246       9247       9258       9257       9367       9368       9379       9378  
      9247       9248       9259       9258       9368       9369       9380       9379  
      9248       9249       9260       9259       9369       9370       9381       9380  
      9249       9250       9261       9260       9370       9371       9382       9381  
      9250       9251       9262       9261       9371       9372       9383       9382  
      9252       9253       9264       9263       9373       9374       9385       9384  
      9253       9254       9265       9264       9374       9375       9386       9385  
      9254       9255       9266       9265       9375       9376       9387       9386  
      9255       9256       9267       9266       9376       9377       9388       9387  
      9256       9257       9268       9267       9377       9378       9389       9388  
      9257       9258       9269       9268       9378       9379       9390       9389  
      9258       9259       9270       9269       9379       9380       9391       9390  
      9259       9260       9271       9270       9380       9381       9392       9391  
      9260       9261       9272       9271       9381       9382       9393       9392  
      9261       9262       9273       9272       9382       9383       9394       9393  
      9263       9264       9275       9274       9384       9385       9396       9395  
      9264       9265       9276       9275       9385       9386       9397       9396  
      9265       9266       9277       9276       9386       9387       9398       9397  
      9266       9267       9278       9277       9387       9388       9399       9398  
      9267       9268       9279       9278       9388       9389       9400       9399  
      9268       9269       9280       9279       9389       9390       9401       9400  
      9269       9270       9281       9280       9390       9391       9402       9401  
      9270       9271       9282       9281       9391       9392       9403       9402  
      9271       9272       9283       9282       9392       9393       9404       9403  
      9272       9273       9284       9283       9393       9394       9405       9404  
      9274       9275       9286       9285       9395       9396       9407       9406  
      9275       9276       9287       9286       9396       9397       9408       9407  
      9276       9277       9288       9287       9397       9398       9409       9408  
      9277       9278       9289       9288       9398       9399       9410       9409  
      9278       9279       9290       9289       9399       9400       9411       9410  
      9279       9280       9291       9290       9400       9401       9412       9411  
      9280       9281       9292       9291       9401       9402       9413       9412  
      9281       9282       9293       9292       9402       9403       9414       9413  
      9282       9283       9294       9293       9403       9404       9415       9414  
      9283       9284       9295       9294       9404       9405       9416       9415  
      9285       9286       9297       9296       9406       9407       9418       9417  
      9286       9287       9298       9297       9407       9408       9419       9418  
      9287       9288       9299       9298       9408       9409       9420       9419  
      9288       9289       9300       9299       9409       9410       9421       9420  
      9289       9290       9301       9300       9410       9411       9422       9421  
      9290       9291       9302       9301       9411       9412       9423       9422  
      9291       9292       9303       9302       9412       9413       9424       9423  
      9292       9293       9304       9303       9413       9414       9425       9424  
      9293       9294       9305       9304       9414       9415       9426       9425  
      9294       9295       9306       9305       9415       9416       9427       9426  
      9296       9297       9308       9307       9417       9418       9429       9428  
      9297       9298       9309       9308       9418       9419       9430       9429  
      9298       9299       9310       9309       9419       9420       9431       9430  
      9299       9300       9311       9310       9420       9421       9432       9431  
      9300       9301       9312       9311       9421       9422       9433       9432  
      9301       9302       9313       9312       9422       9423       9434       9433  
      9302       9303       9314       9313       9423       9424       9435       9434  
      9303       9304       9315       9314       9424       9425       9436       9435  
      9304       9305       9316       9315       9425       9426       9437       9436  
      9305       9306       9317       9316       9426       9427       9438       9437  
      9318       9319       9330       9329       9439       9440       9451       9450  
      9319       9320       9331       9330       9440       9441       9452       9451  
      9320       9321       9332       9331       9441       9442       9453       9452  
      9321       9322       9333       9332       9442       9443       9454       9453  
      9322       9323       9334       9333       9443       9444       9455       9454  
      9323       9324       9335       9334       9444       9445       9456       9455  
      9324       9325       9336       9335       9445       9446       9457       9456  
      9325       9326       9337       9336       9446       9447       9458       9457  
      9326       9327       9338       9337       9447       9448       9459       9458  
      9327       9328       9339       9338       9448       9449       9460       9459  
      9329       9330       9341       9340       9450       9451       9462       9461  
      9330       9331       9342       9341       9451       9452       9463       9462  
      9331       9332       9343       9342       9452       9453       9464       9463  
      9332       9333       9344       9343       9453       9454       9465       9464  
      9333       9334       9345       9344       9454       9455       9466       9465  
      9334       9335       9346       9345       9455       9456       9467       9466  
      9335       9336       9347       9346       9456       9457       9468       9467  
      9336       9337       9348       9347       9457       9458       9469       9468  
      9337       9338       9349       9348       9458       9459       9470       9469  
      9338       9339       9350       9349       9459       9460       9471       9470  
      9340       9341       9352       9351       9461       9462       9473       9472  
      9341       9342       9353       9352       9462       9463       9474       9473  
      9342       9343       9354       9353       9463       9464       9475       9474  
      9343       9344       9355       9354       9464       9465       9476       9475  
      9344       9345       9356       9355       9465       9466       9477       9476  
      9345       9346       9357       9356       9466       9467       9478       9477  
      9346       9347       9358       9357       9467       9468       9479       9478  
      9347       9348       9359       9358       9468       9469       9480       9479  
      9348       9349       9360       9359       9469       9470       9481       9480  
      9349       9350       9361       9360       9470       9471       9482       9481  
      9351       9352       9363       9362       9472       9473       9484       9483  
      9352       9353       9364       9363       9473       9474       9485       9484  
      9353       9354       9365       9364       9474       9475       9486       9485  
      9354       9355       9366       9365       9475       9476       9487       9486  
      9355       9356       9367       9366       9476       9477       9488       9487  
      9356       9357       9368       9367       9477       9478       9489       9488  
      9357       9358       9369       9368       9478       9479       9490       9489  
      9358       9359       9370       9369       9479       9480       9491       9490  
      9359       9360       9371       9370       9480       9481       9492       9491  
      9360       9361       9372       9371       9481       9482       9493       9492  
      9362       9363       9374       9373       9483       9484       9495       9494  
      9363       9364       9375       9374       9484       9485       9496       9495  
      9364       9365       9376       9375       9485       9486       9497       9496  
      9365       9366       9377       9376       9486       9487       9498       9497  
      9366       9367       9378       9377       9487       9488       9499       9498  
      9367       9368       9379       9378       9488       9489       9500       9499  
      9368       9369       9380       9379       9489       9490       9501       9500  
      9369       9370       9381       9380       9490       9491       9502       9501  
      9370       9371       9382       9381       9491       9492       9503       9502  
      9371       9372       9383       9382       9492       9493       9504       9503  
      9373       9374       9385       9384       9494       9495       9506       9505  
      9374       9375       9386       9385       9495       9496       9507       9506  
      9375       9376       9387       9386       9496       9497       9508       9507  
      9376       9377       9388       9387       9497       9498       9509       9508  
      9377       9378       9389       9388       9498       9499       9510       9509  
      9378       9379       9390       9389       9499       9500       9511       9510  
      9379       9380       9391       9390       9500       9501       9512       9511  
      9380       9381       9392       9391       9501       9502       9513       9512  
      9381       9382       9393       9392       9502       9503       9514       9513  
      9382       9383       9394       9393       9503       9504       9515       9514  
      9384       9385       9396       9395       9505       9506       9517       9516  
      9385       9386       9397       9396       9506       9507       9518       9517  
      9386       9387       9398       9397       9507       9508       9519       9518  
      9387       9388       9399       9398       9508       9509       9520       9519  
      9388       9389       9400       9399       9509       9510       9521       9520  
      9389       9390       9401       9400       9510       9511       9522       9521  
      9390       9391       9402       9401       9511       9512       9523       9522  
      9391       9392       9403       9402       9512       9513       9524       9523  
      9392       9393       9404       9403       9513       9514       9525       9524  
      9393       9394       9405       9404       9514       9515       9526       9525  
      9395       9396       9407       9406       9516       9517       9528       9527  
      9396       9397       9408       9407       9517       9518       9529       9528  
      9397       9398       9409       9408       9518       9519       9530       9529  
      9398       9399       9410       9409       9519       9520       9531       9530  
      9399       9400       9411       9410       9520       9521       9532       9531  
      9400       9401       9412       9411       9521       9522       9533       9532  
      9401       9402       9413       9412       9522       9523       9534       9533  
      9402       9403       9414       9413       9523       9524       9535       9534  
      9403       9404       9415       9414       9524       9525       9536       9535  
      9404       9405       9416       9415       9525       9526       9537       9536  
      9406       9407       9418       9417       9527       9528       9539       9538  
      9407       9408       9419       9418       9528       9529       9540       9539  
      9408       9409       9420       9419       9529       9530       9541       9540  
      9409       9410       9421       9420       9530       9531       9542       9541  
      9410       9411       9422       9421       9531       9532       9543       9542  
      9411       9412       9423       9422       9532       9533       9544       9543  
      9412       9413       9424       9423       9533       9534       9545       9544  
      9413       9414       9425       9424       9534       9535       9546       9545  
      9414       9415       9426       9425       9535       9536       9547       9546  
      9415       9416       9427       9426       9536       9537       9548       9547  
      9417       9418       9429       9428       9538       9539       9550       9549  
      9418       9419       9430       9429       9539       9540       9551       9550  
      9419       9420       9431       9430       9540       9541       9552       9551  
      9420       9421       9432       9431       9541       9542       9553       9552  
      9421       9422       9433       9432       9542       9543       9554       9553  
      9422       9423       9434       9433       9543       9544       9555       9554  
      9423       9424       9435       9434       9544       9545       9556       9555  
      9424       9425       9436       9435       9545       9546       9557       9556  
      9425       9426       9437       9436       9546       9547       9558       9557  
      9426       9427       9438       9437       9547       9548       9559       9558  
      9439       9440       9451       9450       9560       9561       9572       9571  
      9440       9441       9452       9451       9561       9562       9573       9572  
      9441       9442       9453       9452       9562       9563       9574       9573  
      9442       9443       9454       9453       9563       9564       9575       9574  
      9443       9444       9455       9454       9564       9565       9576       9575  
      9444       9445       9456       9455       9565       9566       9577       9576  
      9445       9446       9457       9456       9566       9567       9578       9577  
      9446       9447       9458       9457       9567       9568       9579       9578  
      9447       9448       9459       9458       9568       9569       9580       9579  
      9448       9449       9460       9459       9569       9570       9581       9580  
      9450       9451       9462       9461       9571       9572       9583       9582  
      9451       9452       9463       9462       9572       9573       9584       9583  
      9452       9453       9464       9463       9573       9574       9585       9584  
      9453       9454       9465       9464       9574       9575       9586       9585  
      9454       9455       9466       9465       9575       9576       9587       9586  
      9455       9456       9467       9466       9576       9577       9588       9587  
      9456       9457       9468       9467       9577       9578       9589       9588  
      9457       9458       9469       9468       9578       9579       9590       9589  
      9458       9459       9470       9469       9579       9580       9591       9590  
      9459       9460       9471       9470       9580       9581       9592       9591  
      9461       9462       9473       9472       9582       9583       9594       9593  
      9462       9463       9474       9473       9583       9584       9595       9594  
      9463       9464       9475       9474       9584       9585       9596       9595  
      9464       9465       9476       9475       9585       9586       9597       9596  
      9465       9466       9477       9476       9586       9587       9598       9597  
      9466       9467       9478       9477       9587       9588       9599       9598  
      9467       9468       9479       9478       9588       9589       9600       9599  
      9468       9469       9480       9479       9589       9590       9601       9600  
      9469       9470       9481       9480       9590       9591       9602       9601  
      9470       9471       9482       9481       9591       9592       9603       9602  
      9472       9473       9484       9483       9593       9594       9605       9604  
      9473       9474       9485       9484       9594       9595       9606       9605  
      9474       9475       9486       9485       9595       9596       9607       9606  
      9475       9476       9487       9486       9596       9597       9608       9607  
      9476       9477       9488       9487       9597       9598       9609       9608  
      9477       9478       9489       9488       9598       9599       9610       9609  
      9478       9479       9490       9489       9599       9600       9611       9610  
      9479       9480       9491       9490       9600       9601       9612       9611  
      9480       9481       9492       9491       9601       9602       9613       9612  
      9481       9482       9493       9492       9602       9603       9614       9613  
      9483       9484       9495       9494       9604       9605       9616       9615  
      9484       9485       9496       9495       9605       9606       9617       9616  
      9485       9486       9497       9496       9606       9607       9618       9617  
      9486       9487       9498       9497       9607       9608       9619       9618  
      9487       9488       9499       9498       9608       9609       9620       9619  
      9488       9489       9500       9499       9609       9610       9621       9620  
      9489       9490       9501       9500       9610       9611       9622       9621  
      9490       9491       9502       9501       9611       9612       9623       9622  
      9491       9492       9503       9502       9612       9613       9624       9623  
      9492       9493       9504       9503       9613       9614       9625       9624  
      9494       9495       9506       9505       9615       9616       9627       9626  
      9495       9496       9507       9506       9616       9617       9628       9627  
      9496       9497       9508       9507       9617       9618       9629       9628  
      9497       9498       9509       9508       9618       9619       9630       9629  
      9498       9499       9510       9509       9619       9620       9631       9630  
      9499       9500       9511       9510       9620       9621       9632       9631  
      9500       9501       9512       9511       9621       9622       9633       9632  
      9501       9502       9513       9512       9622       9623       9634       9633  
      9502       9503       9514       9513       9623       9624       9635       9634  
      9503       9504       9515       9514       9624       9625       9636       9635  
      9505       9506       9517       9516       9626       9627       9638       9637  
      9506       9507       9518       9517       9627       9628       9639       9638  
      9507       9508       9519       9518       9628       9629       9640       9639  
      9508       9509       9520       9519       9629       9630       9641       9640  
      9509       9510       9521       9520       9630       9631       9642       9641  
      9510       9511       9522       9521       9631       9632       9643       9642  
      9511       9512       9523       9522       9632       9633       9644       9643  
      9512       9513       9524       9523       9633       9634       9645       9644  
      9513       9514       9525       9524       9634       9635       9646       9645  
      9514       9515       9526       9525       9635       9636       9647       9646  
      9516       9517       9528       9527       9637       9638       9649       9648  
      9517       9518       9529       9528       9638       9639       9650       9649  
      9518       9519       9530       9529       9639       9640       9651       9650  
      9519       9520       9531       9530       9640       9641       9652       9651  
      9520       9521       9532       9531       9641       9642       9653       9652  
      9521       9522       9533       9532       9642       9643       9654       9653  
      9522       9523       9534       9533       9643       9644       9655       9654  
      9523       9524       9535       9534       9644       9645       9656       9655  
      9524       9525       9536       9535       9645       9646       9657       9656  
      9525       9526       9537       9536       9646       9647       9658       9657  
      9527       9528       9539       9538       9648       9649       9660       9659  
      9528       9529       9540       9539       9649       9650       9661       9660  
      9529       9530       9541       9540       9650       9651       9662       9661  
      9530       9531       9542       9541       9651       9652       9663       9662  
      9531       9532       9543       9542       9652       9653       9664       9663  
      9532       9533       9544       9543       9653       9654       9665       9664  
      9533       9534       9545       9544       9654       9655       9666       9665  
      9534       9535       9546       9545       9655       9656       9667       9666  
      9535       9536       9547       9546       9656       9657       9668       9667  
      9536       9537       9548       9547       9657       9658       9669       9668  
      9538       9539       9550       9549       9659       9660       9671       9670  
      9539       9540       9551       9550       9660       9661       9672       9671  
      9540       9541       9552       9551       9661       9662       9673       9672  
      9541       9542       9553       9552       9662       9663       9674       9673  
      9542       9543       9554       9553       9663       9664       9675       9674  
      9543       9544       9555       9554       9664       9665       9676       9675  
      9544       9545       9556       9555       9665       9666       9677       9676  
      9545       9546       9557       9556       9666       9667       9678       9677  
      9546       9547       9558       9557       9667       9668       9679       9678  
      9547       9548       9559       9558       9668       9669       9680       9679  
      9560       9561       9572       9571       9681       9682       9693       9692  
      9561       9562       9573       9572       9682       9683       9694       9693  
      9562       9563       9574       9573       9683       9684       9695       9694  
      9563       9564       9575       9574       9684       9685       9696       9695  
      9564       9565       9576       9575       9685       9686       9697       9696  
      9565       9566       9577       9576       9686       9687       9698       9697  
      9566       9567       9578       9577       9687       9688       9699       9698  
      9567       9568       9579       9578       9688       9689       9700       9699  
      9568       9569       9580       9579       9689       9690       9701       9700  
      9569       9570       9581       9580       9690       9691       9702       9701  
      9571       9572       9583       9582       9692       9693       9704       9703  
      9572       9573       9584       9583       9693       9694       9705       9704  
      9573       9574       9585       9584       9694       9695       9706       9705  
      9574       9575       9586       9585       9695       9696       9707       9706  
      9575       9576       9587       9586       9696       9697       9708       9707  
      9576       9577       9588       9587       9697       9698       9709       9708  
      9577       9578       9589       9588       9698       9699       9710       9709  
      9578       9579       9590       9589       9699       9700       9711       9710  
      9579       9580       9591       9590       9700       9701       9712       9711  
      9580       9581       9592       9591       9701       9702       9713       9712  
      9582       9583       9594       9593       9703       9704       9715       9714  
      9583       9584       9595       9594       9704       9705       9716       9715  
      9584       9585       9596       9595       9705       9706       9717       9716  
      9585       9586       9597       9596       9706       9707       9718       9717  
      9586       9587       9598       9597       9707       9708       9719       9718  
      9587       9588       9599       9598       9708       9709       9720       9719  
      9588       9589       9600       9599       9709       9710       9721       9720  
      9589       9590       9601       9600       9710       9711       9722       9721  
      9590       9591       9602       9601       9711       9712       9723       9722  
      9591       9592       9603       9602       9712       9713       9724       9723  
      9593       9594       9605       9604       9714       9715       9726       9725  
      9594       9595       9606       9605       9715       9716       9727       9726  
      9595       9596       9607       9606       9716       9717       9728       9727  
      9596       9597       9608       9607       9717       9718       9729       9728  
      9597       9598       9609       9608       9718       9719       9730       9729  
      9598       9599       9610       9609       9719       9720       9731       9730  
      9599       9600       9611       9610       9720       9721       9732       9731  
      9600       9601       9612       9611       9721       9722       9733       9732  
      9601       9602       9613       9612       9722       9723       9734       9733  
      9602       9603       9614       9613       9723       9724       9735       9734  
      9604       9605       9616       9615       9725       9726       9737       9736  
      9605       9606       9617       9616       9726       9727       9738       9737  
      9606       9607       9618       9617       9727       9728       9739       9738  
      9607       9608       9619       9618       9728       9729       9740       9739  
      9608       9609       9620       9619       9729       9730       9741       9740  
      9609       9610       9621       9620       9730       9731       9742       9741  
      9610       9611       9622       9621       9731       9732       9743       9742  
      9611       9612       9623       9622       9732       9733       9744       9743  
      9612       9613       9624       9623       9733       9734       9745       9744  
      9613       9614       9625       9624       9734       9735       9746       9745  
      9615       9616       9627       9626       9736       9737       9748       9747  
      9616       9617       9628       9627       9737       9738       9749       9748  
      9617       9618       9629       9628       9738       9739       9750       9749  
      9618       9619       9630       9629       9739       9740       9751       9750  
      9619       9620       9631       9630       9740       9741       9752       9751  
      9620       9621       9632       9631       9741       9742       9753       9752  
      9621       9622       9633       9632       9742       9743       9754       9753  
      9622       9623       9634       9633       9743       9744       9755       9754  
      9623       9624       9635       9634       9744       9745       9756       9755  
      9624       9625       9636       9635       9745       9746       9757       9756  
      9626       9627       9638       9637       9747       9748       9759       9758  
      9627       9628       9639       9638       9748       9749       9760       9759  
      9628       9629       9640       9639       9749       9750       9761       9760  
      9629       9630       9641       9640       9750       9751       9762       9761  
      9630       9631       9642       9641       9751       9752       9763       9762  
      9631       9632       9643       9642       9752       9753       9764       9763  
      9632       9633       9644       9643       9753       9754       9765       9764  
      9633       9634       9645       9644       9754       9755       9766       9765  
      9634       9635       9646       9645       9755       9756       9767       9766  
      9635       9636       9647       9646       9756       9757       9768       9767  
      9637       9638       9649       9648       9758       9759       9770       9769  
      9638       9639       9650       9649       9759       9760       9771       9770  
      9639       9640       9651       9650       9760       9761       9772       9771  
      9640       9641       9652       9651       9761       9762       9773       9772  
      9641       9642       9653       9652       9762       9763       9774       9773  
      9642       9643       9654       9653       9763       9764       9775       9774  
      9643       9644       9655       9654       9764       9765       9776       9775  
      9644       9645       9656       9655       9765       9766       9777       9776  
      9645       9646       9657       9656       9766       9767       9778       9777  
      9646       9647       9658       9657       9767       9768       9779       9778  
      9648       9649       9660       9659       9769       9770       9781       9780  
      9649       9650       9661       9660       9770       9771       9782       9781  
      9650       9651       9662       9661       9771       9772       9783       9782  
      9651       9652       9663       9662       9772       9773       9784       9783  
      9652       9653       9664       9663       9773       9774       9785       9784  
      9653       9654       9665       9664       9774       9775       9786       9785  
      9654       9655       9666       9665       9775       9776       9787       9786  
      9655       9656       9667       9666       9776       9777       9788       9787  
      9656       9657       9668       9667       9777       9778       9789       9788  
      9657       9658       9669       9668       9778       9779       9790       9789  
      9659       9660       9671       9670       9780       9781       9792       9791  
      9660       9661       9672       9671       9781       9782       9793       9792  
      9661       9662       9673       9672       9782       9783       9794       9793  
      9662       9663       9674       9673       9783       9784       9795       9794  
      9663       9664       9675       9674       9784       9785       9796       9795  
      9664       9665       9676       9675       9785       9786       9797       9796  
      9665       9666       9677       9676       9786       9787       9798       9797  
      9666       9667       9678       9677       9787       9788       9799       9798  
      9667       9668       9679       9678       9788       9789       9800       9799  
      9668       9669       9680       9679       9789       9790       9801       9800  
      9681       9682       9693       9692       9802       9803       9814       9813  
      9682       9683       9694       9693       9803       9804       9815       9814  
      9683       9684       9695       9694       9804       9805       9816       9815  
      9684       9685       9696       9695       9805       9806       9817       9816  
      9685       9686       9697       9696       9806       9807       9818       9817  
      9686       9687       9698       9697       9807       9808       9819       9818  
      9687       9688       9699       9698       9808       9809       9820       9819  
      9688       9689       9700       9699       9809       9810       9821       9820  
      9689       9690       9701       9700       9810       9811       9822       9821  
      9690       9691       9702       9701       9811       9812       9823       9822  
      9692       9693       9704       9703       9813       9814       9825       9824  
      9693       9694       9705       9704       9814       9815       9826       9825  
      9694       9695       9706       9705       9815       9816       9827       9826  
      9695       9696       9707       9706       9816       9817       9828       9827  
      9696       9697       9708       9707       9817       9818       9829       9828  
      9697       9698       9709       9708       9818       9819       9830       9829  
      9698       9699       9710       9709       9819       9820       9831       9830  
      9699       9700       9711       9710       9820       9821       9832       9831  
      9700       9701       9712       9711       9821       9822       9833       9832  
      9701       9702       9713       9712       9822       9823       9834       9833  
      9703       9704       9715       9714       9824       9825       9836       9835  
      9704       9705       9716       9715       9825       9826       9837       9836  
      9705       9706       9717       9716       9826       9827       9838       9837  
      9706       9707       9718       9717       9827       9828       9839       9838  
      9707       9708       9719       9718       9828       9829       9840       9839  
      9708       9709       9720       9719       9829       9830       9841       9840  
      9709       9710       9721       9720       9830       9831       9842       9841  
      9710       9711       9722       9721       9831       9832       9843       9842  
      9711       9712       9723       9722       9832       9833       9844       9843  
      9712       9713       9724       9723       9833       9834       9845       9844  
      9714       9715       9726       9725       9835       9836       9847       9846  
      9715       9716       9727       9726       9836       9837       9848       9847  
      9716       9717       9728       9727       9837       9838       9849       9848  
      9717       9718       9729       9728       9838       9839       9850       9849  
      9718       9719       9730       9729       9839       9840       9851       9850  
      9719       9720       9731       9730       9840       9841       9852       9851  
      9720       9721       9732       9731       9841       9842       9853       9852  
      9721       9722       9733       9732       9842       9843       9854       9853  
      9722       9723       9734       9733       9843       9844       9855       9854  
      9723       9724       9735       9734       9844       9845       9856       9855  
      9725       9726       9737       9736       9846       9847       9858       9857  
      9726       9727       9738       9737       9847       9848       9859       9858  
      9727       9728       9739       9738       9848       9849       9860       9859  
      9728       9729       9740       9739       9849       9850       9861       9860  
      9729       9730       9741       9740       9850       9851       9862       9861  
      9730       9731       9742       9741       9851       9852       9863       9862  
      9731       9732       9743       9742       9852       9853       9864       9863  
      9732       9733       9744       9743       9853       9854       9865       9864  
      9733       9734       9745       9744       9854       9855       9866       9865  
      9734       9735       9746       9745       9855       9856       9867       9866  
      9736       9737       9748       9747       9857       9858       9869       9868  
      9737       9738       9749       9748       9858       9859       9870       9869  
      9738       9739       9750       9749       9859       9860       9871       9870  
      9739       9740       9751       9750       9860       9861       9872       9871  
      9740       9741       9752       9751       9861       9862       9873       9872  
      9741       9742       9753       9752       9862       9863       9874       9873  
      9742       9743       9754       9753       9863       9864       9875       9874  
      9743       9744       9755       9754       9864       9865       9876       9875  
      9744       9745       9756       9755       9865       9866       9877       9876  
      9745       9746       9757       9756       9866       9867       9878       9877  
      9747       9748       9759       9758       9868       9869       9880       9879  
      9748       9749       9760       9759       9869       9870       9881       9880  
      9749       9750       9761       9760       9870       9871       9882       9881  
      9750       9751       9762       9761       9871       9872       9883       9882  
      9751       9752       9763       9762       9872       9873       9884       9883  
      9752       9753       9764       9763       9873       9874       9885       9884  
      9753       9754       9765       9764       9874       9875       9886       9885  
      9754       9755       9766       9765       9875       9876       9887       9886  
      9755       9756       9767       9766       9876       9877       9888       9887  
      9756       9757       9768       9767       9877       9878       9889       9888  
      9758       9759       9770       9769       9879       9880       9891       9890  
      9759       9760       9771       9770       9880       9881       9892       9891  
      9760       9761       9772       9771       9881       9882       9893       9892  
      9761       9762       9773       9772       9882       9883       9894       9893  
      9762       9763       9774       9773       9883       9884       9895       9894  
      9763       9764       9775       9774       9884       9885       9896       9895  
      9764       9765       9776       9775       9885       9886       9897       9896  
      9765       9766       9777       9776       9886       9887       9898       9897  
      9766       9767       9778       9777       9887       9888       9899       9898  
      9767       9768       9779       9778       9888       9889       9900       9899  
      9769       9770       9781       9780       9890       9891       9902       9901  
      9770       9771       9782       9781       9891       9892       9903       9902  
      9771       9772       9783       9782       9892       9893       9904       9903  
      9772       9773       9784       9783       9893       9894       9905       9904  
      9773       9774       9785       9784       9894       9895       9906       9905  
      9774       9775       9786       9785       9895       9896       9907       9906  
      9775       9776       9787       9786       9896       9897       9908       9907  
      9776       9777       9788       9787       9897       9898       9909       9908  
      9777       9778       9789       9788       9898       9899       9910       9909  
      9778       9779       9790       9789       9899       9900       9911       9910  
      9780       9781       9792       9791       9901       9902       9913       9912  
      9781       9782       9793       9792       9902       9903       9914       9913  
      9782       9783       9794       9793       9903       9904       9915       9914  
      9783       9784       9795       9794       9904       9905       9916       9915  
      9784       9785       9796       9795       9905       9906       9917       9916  
      9785       9786       9797       9796       9906       9907       9918       9917  
      9786       9787       9798       9797       9907       9908       9919       9918  
      9787       9788       9799       9798       9908       9909       9920       9919  
      9788       9789       9800       9799       9909       9910       9921       9920  
      9789       9790       9801       9800       9910       9911       9922       9921  
      9802       9803       9814       9813       9923       9924       9935       9934  
      9803       9804       9815       9814       9924       9925       9936       9935  
      9804       9805       9816       9815       9925       9926       9937       9936  
      9805       9806       9817       9816       9926       9927       9938       9937  
      9806       9807       9818       9817       9927       9928       9939       9938  
      9807       9808       9819       9818       9928       9929       9940       9939  
      9808       9809       9820       9819       9929       9930       9941       9940  
      9809       9810       9821       9820       9930       9931       9942       9941  
      9810       9811       9822       9821       9931       9932       9943       9942  
      9811       9812       9823       9822       9932       9933       9944       9943  
      9813       9814       9825       9824       9934       9935       9946       9945  
      9814       9815       9826       9825       9935       9936       9947       9946  
      9815       9816       9827       9826       9936       9937       9948       9947  
      9816       9817       9828       9827       9937       9938       9949       9948  
      9817       9818       9829       9828       9938       9939       9950       9949  
      9818       9819       9830       9829       9939       9940       9951       9950  
      9819       9820       9831       9830       9940       9941       9952       9951  
      9820       9821       9832       9831       9941       9942       9953       9952  
      9821       9822       9833       9832       9942       9943       9954       9953  
      9822       9823       9834       9833       9943       9944       9955       9954  
      9824       9825       9836       9835       9945       9946       9957       9956  
      9825       9826       9837       9836       9946       9947       9958       9957  
      9826       9827       9838       9837       9947       9948       9959       9958  
      9827       9828       9839       9838       9948       9949       9960       9959  
      9828       9829       9840       9839       9949       9950       9961       9960  
      9829       9830       9841       9840       9950       9951       9962       9961  
      9830       9831       9842       9841       9951       9952       9963       9962  
      9831       9832       9843       9842       9952       9953       9964       9963  
      9832       9833       9844       9843       9953       9954       9965       9964  
      9833       9834       9845       9844       9954       9955       9966       9965  
      9835       9836       9847       9846       9956       9957       9968       9967  
      9836       9837       9848       9847       9957       9958       9969       9968  
      9837       9838       9849       9848       9958       9959       9970       9969  
      9838       9839       9850       9849       9959       9960       9971       9970  
      9839       9840       9851       9850       9960       9961       9972       9971  
      9840       9841       9852       9851       9961       9962       9973       9972  
      9841       9842       9853       9852       9962       9963       9974       9973  
      9842       9843       9854       9853       9963       9964       9975       9974  
      9843       9844       9855       9854       9964       9965       9976       9975  
      9844       9845       9856       9855       9965       9966       9977       9976  
      9846       9847       9858       9857       9967       9968       9979       9978  
      9847       9848       9859       9858       9968       9969       9980       9979  
      9848       9849       9860       9859       9969       9970       9981       9980  
      9849       9850       9861       9860       9970       9971       9982       9981  
      9850       9851       9862       9861       9971       9972       9983       9982  
      9851       9852       9863       9862       9972       9973       9984       9983  
      9852       9853       9864       9863       9973       9974       9985       9984  
      9853       9854       9865       9864       9974       9975       9986       9985  
      9854       9855       9866       9865       9975       9976       9987       9986  
      9855       9856       9867       9866       9976       9977       9988       9987  
      9857       9858       9869       9868       9978       9979       9990       9989  
      9858       9859       9870       9869       9979       9980       9991       9990  
      9859       9860       9871       9870       9980       9981       9992       9991  
      9860       9861       9872       9871       9981       9982       9993       9992  
      9861       9862       9873       9872       9982       9983       9994       9993  
      9862       9863       9874       9873       9983       9984       9995       9994  
      9863       9864       9875       9874       9984       9985       9996       9995  
      9864       9865       9876       9875       9985       9986       9997       9996  
      9865       9866       9877       9876       9986       9987       9998       9997  
      9866       9867       9878       9877       9987       9988       9999       9998  
      9868       9869       9880       9879       9989       9990      10001      10000  
      9869       9870       9881       9880       9990       9991      10002      10001  
      9870       9871       9882       9881       9991       9992      10003      10002  
      9871       9872       9883       9882       9992       9993      10004      10003  
      9872       9873       9884       9883       9993       9994      10005      10004  
      9873       9874       9885       9884       9994       9995      10006      10005  
      9874       9875       9886       9885       9995       9996      10007      10006  
      9875       9876       9887       9886       9996       9997      10008      10007  
      9876       9877       9888       9887       9997       9998      10009      10008  
      9877       9878       9889       9888       9998       9999      10010      10009  
      9879       9880       9891       9890      10000      10001      10012      10011  
      9880       9881       9892       9891      10001      10002      10013      10012  
      9881       9882       9893       9892      10002      10003      10014      10013  
      9882       9883       9894       9893      10003      10004      10015      10014  
      9883       9884       9895       9894      10004      10005      10016      10015  
      9884       9885       9896       9895      10005      10006      10017      10016  
      9885       9886       9897       9896      10006      10007      10018      10017  
      9886       9887       9898       9897      10007      10008      10019      10018  
      9887       9888       9899       9898      10008      10009      10020      10019  
      9888       9889       9900       9899      10009      10010      10021      10020  
      9890       9891       9902       9901      10011      10012      10023      10022  
      9891       9892       9903       9902      10012      10013      10024      10023  
      9892       9893       9904       9903      10013      10014      10025      10024  
      9893       9894       9905       9904      10014      10015      10026      10025  
      9894       9895       9906       9905      10015      10016      10027      10026  
      9895       9896       9907       9906      10016      10017      10028      10027  
      9896       9897       9908       9907      10017      10018      10029      10028  
      9897       9898       9909       9908      10018      10019      10030      10029  
      9898       9899       9910       9909      10019      10020      10031      10030  
      9899       9900       9911       9910      10020      10021      10032      10031  
      9901       9902       9913       9912      10022      10023      10034      10033  
      9902       9903       9914       9913      10023      10024      10035      10034  
      9903       9904       9915       9914      10024      10025      10036      10035  
      9904       9905       9916       9915      10025      10026      10037      10036  
      9905       9906       9917       9916      10026      10027      10038      10037  
      9906       9907       9918       9917      10027      10028      10039      10038  
      9907       9908       9919       9918      10028      10029      10040      10039  
      9908       9909       9920       9919      10029      10030      10041      10040  
      9909       9910       9921       9920      10030      10031      10042      10041  
      9910       9911       9922       9921      10031      10032      10043      10042  
      9923       9924       9935       9934      10044      10045      10056      10055  
      9924       9925       9936       9935      10045      10046      10057      10056  
      9925       9926       9937       9936      10046      10047      10058      10057  
      9926       9927       9938       9937      10047      10048      10059      10058  
      9927       9928       9939       9938      10048      10049      10060      10059  
      9928       9929       9940       9939      10049      10050      10061      10060  
      9929       9930       9941       9940      10050      10051      10062      10061  
      9930       9931       9942       9941      10051      10052      10063      10062  
      9931       9932       9943       9942      10052      10053      10064      10063  
      9932       9933       9944       9943      10053      10054      10065      10064  
      9934       9935       9946       9945      10055      10056      10067      10066  
      9935       9936       9947       9946      10056      10057      10068      10067  
      9936       9937       9948       9947      10057      10058      10069      10068  
      9937       9938       9949       9948      10058      10059      10070      10069  
      9938       9939       9950       9949      10059      10060      10071      10070  
      9939       9940       9951       9950      10060      10061      10072      10071  
      9940       9941       9952       9951      10061      10062      10073      10072  
      9941       9942       9953       9952      10062      10063      10074      10073  
      9942       9943       9954       9953      10063      10064      10075      10074  
      9943       9944       9955       9954      10064      10065      10076      10075  
      9945       9946       9957       9956      10066      10067      10078      10077  
      9946       9947       9958       9957      10067      10068      10079      10078  
      9947       9948       9959       9958      10068      10069      10080      10079  
      9948       9949       9960       9959      10069      10070      10081      10080  
      9949       9950       9961       9960      10070      10071      10082      10081  
      9950       9951       9962       9961      10071      10072      10083      10082  
      9951       9952       9963       9962      10072      10073      10084      10083  
      9952       9953       9964       9963      10073      10074      10085      10084  
      9953       9954       9965       9964      10074      10075      10086      10085  
      9954       9955       9966       9965      10075      10076      10087      10086  
      9956       9957       9968       9967      10077      10078      10089      10088  
      9957       9958       9969       9968      10078      10079      10090      10089  
      9958       9959       9970       9969      10079      10080      10091      10090  
      9959       9960       9971       9970      10080      10081      10092      10091  
      9960       9961       9972       9971      10081      10082      10093      10092  
      9961       9962       9973       9972      10082      10083      10094      10093  
      9962       9963       9974       9973      10083      10084      10095      10094  
      9963       9964       9975       9974      10084      10085      10096      10095  
      9964       9965       9976       9975      10085      10086      10097      10096  
      9965       9966       9977       9976      10086      10087      10098      10097  
      9967       9968       9979       9978      10088      10089      10100      10099  
      9968       9969       9980       9979      10089      10090      10101      10100  
      9969       9970       9981       9980      10090      10091      10102      10101  
      9970       9971       9982       9981      10091      10092      10103      10102  
      9971       9972       9983       9982      10092      10093      10104      10103  
      9972       9973       9984       9983      10093      10094      10105      10104  
      9973       9974       9985       9984      10094      10095      10106      10105  
      9974       9975       9986       9985      10095      10096      10107      10106  
      9975       9976       9987       9986      10096      10097      10108      10107  
      9976       9977       9988       9987      10097      10098      10109      10108  
      9978       9979       9990       9989      10099      10100      10111      10110  
      9979       9980       9991       9990      10100      10101      10112      10111  
      9980       9981       9992       9991      10101      10102      10113      10112  
      9981       9982       9993       9992      10102      10103      10114      10113  
      9982       9983       9994       9993      10103      10104      10115      10114  
      9983       9984       9995       9994      10104      10105      10116      10115  
      9984       9985       9996       9995      10105      10106      10117      10116  
      9985       9986       9997       9996      10106      10107      10118      10117  
      9986       9987       9998       9997      10107      10108      10119      10118  
      9987       9988       9999       9998      10108      10109      10120      10119  
      9989       9990      10001      10000      10110      10111      10122      10121  
      9990       9991      10002      10001      10111      10112      10123      10122  
      9991       9992      10003      10002      10112      10113      10124      10123  
      9992       9993      10004      10003      10113      10114      10125      10124  
      9993       9994      10005      10004      10114      10115      10126      10125  
      9994       9995      10006      10005      10115      10116      10127      10126  
      9995       9996      10007      10006      10116      10117      10128      10127  
      9996       9997      10008      10007      10117      10118      10129      10128  
      9997       9998      10009      10008      10118      10119      10130      10129  
      9998       9999      10010      10009      10119      10120      10131      10130  
     10000      10001      10012      10011      10121      10122      10133      10132  
     10001      10002      10013      10012      10122      10123      10134      10133  
     10002      10003      10014      10013      10123      10124      10135      10134  
     10003      10004      10015      10014      10124      10125      10136      10135  
     10004      10005      10016      10015      10125      10126      10137      10136  
     10005      10006      10017      10016      10126      10127      10138      10137  
     10006      10007      10018      10017      10127      10128      10139      10138  
     10007      10008      10019      10018      10128      10129      10140      10139  
     10008      10009      10020      10019      10129      10130      10141      10140  
     10009      10010      10021      10020      10130      10131      10142      10141  
     10011      10012      10023      10022      10132      10133      10144      10143  
     10012      10013      10024      10023      10133      10134      10145      10144  
     10013      10014      10025      10024      10134      10135      10146      10145  
     10014      10015      10026      10025      10135      10136      10147      10146  
     10015      10016      10027      10026      10136      10137      10148      10147  
     10016      10017      10028      10027      10137      10138      10149      10148  
     10017      10018      10029      10028      10138      10139      10150      10149  
     10018      10019      10030      10029      10139      10140      10151      10150  
     10019      10020      10031      10030      10140      10141      10152      10151  
     10020      10021      10032      10031      10141      10142      10153      10152  
     10022      10023      10034      10033      10143      10144      10155      10154  
     10023      10024      10035      10034      10144      10145      10156      10155  
     10024      10025      10036      10035      10145      10146      10157      10156  
     10025      10026      10037      10036      10146      10147      10158      10157  
     10026      10027      10038      10037      10147      10148      10159      10158  
     10027      10028      10039      10038      10148      10149      10160      10159  
     10028      10029      10040      10039      10149      10150      10161      10160  
     10029      10030      10041      10040      10150      10151      10162      10161  
     10030      10031      10042      10041      10151      10152      10163      10162  
     10031      10032      10043      10042      10152      10153      10164      10163  
     10044      10045      10056      10055      10165      10166      10177      10176  
     10045      10046      10057      10056      10166      10167      10178      10177  
     10046      10047      10058      10057      10167      10168      10179      10178  
     10047      10048      10059      10058      10168      10169      10180      10179  
     10048      10049      10060      10059      10169      10170      10181      10180  
     10049      10050      10061      10060      10170      10171      10182      10181  
     10050      10051      10062      10061      10171      10172      10183      10182  
     10051      10052      10063      10062      10172      10173      10184      10183  
     10052      10053      10064      10063      10173      10174      10185      10184  
     10053      10054      10065      10064      10174      10175      10186      10185  
     10055      10056      10067      10066      10176      10177      10188      10187  
     10056      10057      10068      10067      10177      10178      10189      10188  
     10057      10058      10069      10068      10178      10179      10190      10189  
     10058      10059      10070      10069      10179      10180      10191      10190  
     10059      10060      10071      10070      10180      10181      10192      10191  
     10060      10061      10072      10071      10181      10182      10193      10192  
     10061      10062      10073      10072      10182      10183      10194      10193  
     10062      10063      10074      10073      10183      10184      10195      10194  
     10063      10064      10075      10074      10184      10185      10196      10195  
     10064      10065      10076      10075      10185      10186      10197      10196  
     10066      10067      10078      10077      10187      10188      10199      10198  
     10067      10068      10079      10078      10188      10189      10200      10199  
     10068      10069      10080      10079      10189      10190      10201      10200  
     10069      10070      10081      10080      10190      10191      10202      10201  
     10070      10071      10082      10081      10191      10192      10203      10202  
     10071      10072      10083      10082      10192      10193      10204      10203  
     10072      10073      10084      10083      10193      10194      10205      10204  
     10073      10074      10085      10084      10194      10195      10206      10205  
     10074      10075      10086      10085      10195      10196      10207      10206  
     10075      10076      10087      10086      10196      10197      10208      10207  
     10077      10078      10089      10088      10198      10199      10210      10209  
     10078      10079      10090      10089      10199      10200      10211      10210  
     10079      10080      10091      10090      10200      10201      10212      10211  
     10080      10081      10092      10091      10201      10202      10213      10212  
     10081      10082      10093      10092      10202      10203      10214      10213  
     10082      10083      10094      10093      10203      10204      10215      10214  
     10083      10084      10095      10094      10204      10205      10216      10215  
     10084      10085      10096      10095      10205      10206      10217      10216  
     10085      10086      10097      10096      10206      10207      10218      10217  
     10086      10087      10098      10097      10207      10208      10219      10218  
     10088      10089      10100      10099      10209      10210      10221      10220  
     10089      10090      10101      10100      10210      10211      10222      10221  
     10090      10091      10102      10101      10211      10212      10223      10222  
     10091      10092      10103      10102      10212      10213      10224      10223  
     10092      10093      10104      10103      10213      10214      10225      10224  
     10093      10094      10105      10104      10214      10215      10226      10225  
     10094      10095      10106      10105      10215      10216      10227      10226  
     10095      10096      10107      10106      10216      10217      10228      10227  
     10096      10097      10108      10107      10217      10218      10229      10228  
     10097      10098      10109      10108      10218      10219      10230      10229  
     10099      10100      10111      10110      10220      10221      10232      10231  
     10100      10101      10112      10111      10221      10222      10233      10232  
     10101      10102      10113      10112      10222      10223      10234      10233  
     10102      10103      10114      10113      10223      10224      10235      10234  
     10103      10104      10115      10114      10224      10225      10236      10235  
     10104      10105      10116      10115      10225      10226      10237      10236  
     10105      10106      10117      10116      10226      10227      10238      10237  
     10106      10107      10118      10117      10227      10228      10239      10238  
     10107      10108      10119      10118      10228      10229      10240      10239  
     10108      10109      10120      10119      10229      10230      10241      10240  
     10110      10111      10122      10121      10231      10232      10243      10242  
     10111      10112      10123      10122      10232      10233      10244      10243  
     10112      10113      10124      10123      10233      10234      10245      10244  
     10113      10114      10125      10124      10234      10235      10246      10245  
     10114      10115      10126      10125      10235      10236      10247      10246  
     10115      10116      10127      10126      10236      10237      10248      10247  
     10116      10117      10128      10127      10237      10238      10249      10248  
     10117      10118      10129      10128      10238      10239      10250      10249  
     10118      10119      10130      10129      10239      10240      10251      10250  
     10119      10120      10131      10130      10240      10241      10252      10251  
     10121      10122      10133      10132      10242      10243      10254      10253  
     10122      10123      10134      10133      10243      10244      10255      10254  
     10123      10124      10135      10134      10244      10245      10256      10255  
     10124      10125      10136      10135      10245      10246      10257      10256  
     10125      10126      10137      10136      10246      10247      10258      10257  
     10126      10127      10138      10137      10247      10248      10259      10258  
     10127      10128      10139      10138      10248      10249      10260      10259  
     10128      10129      10140      10139      10249      10250      10261      10260  
     10129      10130      10141      10140      10250      10251      10262      10261  
     10130      10131      10142      10141      10251      10252      10263      10262  
     10132      10133      10144      10143      10253      10254      10265      10264  
     10133      10134      10145      10144      10254      10255      10266      10265  
     10134      10135      10146      10145      10255      10256      10267      10266  
     10135      10136      10147      10146      10256      10257      10268      10267  
     10136      10137      10148      10147      10257      10258      10269      10268  
     10137      10138      10149      10148      10258      10259      10270      10269  
     10138      10139      10150      10149      10259      10260      10271      10270  
     10139      10140      10151      10150      10260      10261      10272      10271  
     10140      10141      10152      10151      10261      10262      10273      10272  
     10141      10142      10153      10152      10262      10263      10274      10273  
     10143      10144      10155      10154      10264      10265      10276      10275  
     10144      10145      10156      10155      10265      10266      10277      10276  
     10145      10146      10157      10156      10266      10267      10278      10277  
     10146      10147      10158      10157      10267      10268      10279      10278  
     10147      10148      10159      10158      10268      10269      10280      10279  
     10148      10149      10160      10159      10269      10270      10281      10280  
     10149      10150      10161      10160      10270      10271      10282      10281  
     10150      10151      10162      10161      10271      10272      10283      10282  
     10151      10152      10163      10162      10272      10273      10284      10283  
     10152      10153      10164      10163      10273      10274      10285      10284  
     10165      10166      10177      10176      10286      10287      10298      10297  
     10166      10167      10178      10177      10287      10288      10299      10298  
     10167      10168      10179      10178      10288      10289      10300      10299  
     10168      10169      10180      10179      10289      10290      10301      10300  
     10169      10170      10181      10180      10290      10291      10302      10301  
     10170      10171      10182      10181      10291      10292      10303      10302  
     10171      10172      10183      10182      10292      10293      10304      10303  
     10172      10173      10184      10183      10293      10294      10305      10304  
     10173      10174      10185      10184      10294      10295      10306      10305  
     10174      10175      10186      10185      10295      10296      10307      10306  
     10176      10177      10188      10187      10297      10298      10309      10308  
     10177      10178      10189      10188      10298      10299      10310      10309  
     10178      10179      10190      10189      10299      10300      10311      10310  
     10179      10180      10191      10190      10300      10301      10312      10311  
     10180      10181      10192      10191      10301      10302      10313      10312  
     10181      10182      10193      10192      10302      10303      10314      10313  
     10182      10183      10194      10193      10303      10304      10315      10314  
     10183      10184      10195      10194      10304      10305      10316      10315  
     10184      10185      10196      10195      10305      10306      10317      10316  
     10185      10186      10197      10196      10306      10307      10318      10317  
     10187      10188      10199      10198      10308      10309      10320      10319  
     10188      10189      10200      10199      10309      10310      10321      10320  
     10189      10190      10201      10200      10310      10311      10322      10321  
     10190      10191      10202      10201      10311      10312      10323      10322  
     10191      10192      10203      10202      10312      10313      10324      10323  
     10192      10193      10204      10203      10313      10314      10325      10324  
     10193      10194      10205      10204      10314      10315      10326      10325  
     10194      10195      10206      10205      10315      10316      10327      10326  
     10195      10196      10207      10206      10316      10317      10328      10327  
     10196      10197      10208      10207      10317      10318      10329      10328  
     10198      10199      10210      10209      10319      10320      10331      10330  
     10199      10200      10211      10210      10320      10321      10332      10331  
     10200      10201      10212      10211      10321      10322      10333      10332  
     10201      10202      10213      10212      10322      10323      10334      10333  
     10202      10203      10214      10213      10323      10324      10335      10334  
     10203      10204      10215      10214      10324      10325      10336      10335  
     10204      10205      10216      10215      10325      10326      10337      10336  
     10205      10206      10217      10216      10326      10327      10338      10337  
     10206      10207      10218      10217      10327      10328      10339      10338  
     10207      10208      10219      10218      10328      10329      10340      10339  
     10209      10210      10221      10220      10330      10331      10342      10341  
     10210      10211      10222      10221      10331      10332      10343      10342  
     10211      10212      10223      10222      10332      10333      10344      10343  
     10212      10213      10224      10223      10333      10334      10345      10344  
     10213      10214      10225      10224      10334      10335      10346      10345  
     10214      10215      10226      10225      10335      10336      10347      10346  
     10215      10216      10227      10226      10336      10337      10348      10347  
     10216      10217      10228      10227      10337      10338      10349      10348  
     10217      10218      10229      10228      10338      10339      10350      10349  
     10218      10219      10230      10229      10339      10340      10351      10350  
     10220      10221      10232      10231      10341      10342      10353      10352  
     10221      10222      10233      10232      10342      10343      10354      10353  
     10222      10223      10234      10233      10343      10344      10355      10354  
     10223      10224      10235      10234      10344      10345      10356      10355  
     10224      10225      10236      10235      10345      10346      10357      10356  
     10225      10226      10237      10236      10346      10347      10358      10357  
     10226      10227      10238      10237      10347      10348      10359      10358  
     10227      10228      10239      10238      10348      10349      10360      10359  
     10228      10229      10240      10239      10349      10350      10361      10360  
     10229      10230      10241      10240      10350      10351      10362      10361  
     10231      10232      10243      10242      10352      10353      10364      10363  
     10232      10233      10244      10243      10353      10354      10365      10364  
     10233      10234      10245      10244      10354      10355      10366      10365  
     10234      10235      10246      10245      10355      10356      10367      10366  
     10235      10236      10247      10246      10356      10357      10368      10367  
     10236      10237      10248      10247      10357      10358      10369      10368  
     10237      10238      10249      10248      10358      10359      10370      10369  
     10238      10239      10250      10249      10359      10360      10371      10370  
     10239      10240      10251      10250      10360      10361      10372      10371  
     10240      10241      10252      10251      10361      10362      10373      10372  
     10242      10243      10254      10253      10363      10364      10375      10374  
     10243      10244      10255      10254      10364      10365      10376      10375  
     10244      10245      10256      10255      10365      10366      10377      10376  
     10245      10246      10257      10256      10366      10367      10378      10377  
     10246      10247      10258      10257      10367      10368      10379      10378  
     10247      10248      10259      10258      10368      10369      10380      10379  
     10248      10249      10260      10259      10369      10370      10381      10380  
     10249      10250      10261      10260      10370      10371      10382      10381  
     10250      10251      10262      10261      10371      10372      10383      10382  
     10251      10252      10263      10262      10372      10373      10384      10383  
     10253      10254      10265      10264      10374      10375      10386      10385  
     10254      10255      10266      10265      10375      10376      10387      10386  
     10255      10256      10267      10266      10376      10377      10388      10387  
     10256      10257      10268      10267      10377      10378      10389      10388  
     10257      10258      10269      10268      10378      10379      10390      10389  
     10258      10259      10270      10269      10379      10380      10391      10390  
     10259      10260      10271      10270      10380      10381      10392      10391  
     10260      10261      10272      10271      10381      10382      10393      10392  
     10261      10262      10273      10272      10382      10383      10394      10393  
     10262      10263      10274      10273      10383      10384      10395      10394  
     10264      10265      10276      10275      10385      10386      10397      10396  
     10265      10266      10277      10276      10386      10387      10398      10397  
     10266      10267      10278      10277      10387      10388      10399      10398  
     10267      10268      10279      10278      10388      10389      10400      10399  
     10268      10269      10280      10279      10389      10390      10401      10400  
     10269      10270      10281      10280      10390      10391      10402      10401  
     10270      10271      10282      10281      10391      10392      10403      10402  
     10271      10272      10283      10282      10392      10393      10404      10403  
     10272      10273      10284      10283      10393      10394      10405      10404  
     10273      10274      10285      10284      10394      10395      10406      10405  
     10286      10287      10298      10297      10407      10408      10419      10418  
     10287      10288      10299      10298      10408      10409      10420      10419  
     10288      10289      10300      10299      10409      10410      10421      10420  
     10289      10290      10301      10300      10410      10411      10422      10421  
     10290      10291      10302      10301      10411      10412      10423      10422  
     10291      10292      10303      10302      10412      10413      10424      10423  
     10292      10293      10304      10303      10413      10414      10425      10424  
     10293      10294      10305      10304      10414      10415      10426      10425  
     10294      10295      10306      10305      10415      10416      10427      10426  
     10295      10296      10307      10306      10416      10417      10428      10427  
     10297      10298      10309      10308      10418      10419      10430      10429  
     10298      10299      10310      10309      10419      10420      10431      10430  
     10299      10300      10311      10310      10420      10421      10432      10431  
     10300      10301      10312      10311      10421      10422      10433      10432  
     10301      10302      10313      10312      10422      10423      10434      10433  
     10302      10303      10314      10313      10423      10424      10435      10434  
     10303      10304      10315      10314      10424      10425      10436      10435  
     10304      10305      10316      10315      10425      10426      10437      10436  
     10305      10306      10317      10316      10426      10427      10438      10437  
     10306      10307      10318      10317      10427      10428      10439      10438  
     10308      10309      10320      10319      10429      10430      10441      10440  
     10309      10310      10321      10320      10430      10431      10442      10441  
     10310      10311      10322      10321      10431      10432      10443      10442  
     10311      10312      10323      10322      10432      10433      10444      10443  
     10312      10313      10324      10323      10433      10434      10445      10444  
     10313      10314      10325      10324      10434      10435      10446      10445  
     10314      10315      10326      10325      10435      10436      10447      10446  
     10315      10316      10327      10326      10436      10437      10448      10447  
     10316      10317      10328      10327      10437      10438      10449      10448  
     10317      10318      10329      10328      10438      10439      10450      10449  
     10319      10320      10331      10330      10440      10441      10452      10451  
     10320      10321      10332      10331      10441      10442      10453      10452  
     10321      10322      10333      10332      10442      10443      10454      10453  
     10322      10323      10334      10333      10443      10444      10455      10454  
     10323      10324      10335      10334      10444      10445      10456      10455  
     10324      10325      10336      10335      10445      10446      10457      10456  
     10325      10326      10337      10336      10446      10447      10458      10457  
     10326      10327      10338      10337      10447      10448      10459      10458  
     10327      10328      10339      10338      10448      10449      10460      10459  
     10328      10329      10340      10339      10449      10450      10461      10460  
     10330      10331      10342      10341      10451      10452      10463      10462  
     10331      10332      10343      10342      10452      10453      10464      10463  
     10332      10333      10344      10343      10453      10454      10465      10464  
     10333      10334      10345      10344      10454      10455      10466      10465  
     10334      10335      10346      10345      10455      10456      10467      10466  
     10335      10336      10347      10346      10456      10457      10468      10467  
     10336      10337      10348      10347      10457      10458      10469      10468  
     10337      10338      10349      10348      10458      10459      10470      10469  
     10338      10339      10350      10349      10459      10460      10471      10470  
     10339      10340      10351      10350      10460      10461      10472      10471  
     10341      10342      10353      10352      10462      10463      10474      10473  
     10342      10343      10354      10353      10463      10464      10475      10474  
     10343      10344      10355      10354      10464      10465      10476      10475  
     10344      10345      10356      10355      10465      10466      10477      10476  
     10345      10346      10357      10356      10466      10467      10478      10477  
     10346      10347      10358      10357      10467      10468      10479      10478  
     10347      10348      10359      10358      10468      10469      10480      10479  
     10348      10349      10360      10359      10469      10470      10481      10480  
     10349      10350      10361      10360      10470      10471      10482      10481  
     10350      10351      10362      10361      10471      10472      10483      10482  
     10352      10353      10364      10363      10473      10474      10485      10484  
     10353      10354      10365      10364      10474      10475      10486      10485  
     10354      10355      10366      10365      10475      10476      10487      10486  
     10355      10356      10367      10366      10476      10477      10488      10487  
     10356      10357      10368      10367      10477      10478      10489      10488  
     10357      10358      10369      10368      10478      10479      10490      10489  
     10358      10359      10370      10369      10479      10480      10491      10490  
     10359      10360      10371      10370      10480      10481      10492      10491  
     10360      10361      10372      10371      10481      10482      10493      10492  
     10361      10362      10373      10372      10482      10483      10494      10493  
     10363      10364      10375      10374      10484      10485      10496      10495  
     10364      10365      10376      10375      10485      10486      10497      10496  
     10365      10366      10377      10376      10486      10487      10498      10497  
     10366      10367      10378      10377      10487      10488      10499      10498  
     10367      10368      10379      10378      10488      10489      10500      10499  
     10368      10369      10380      10379      10489      10490      10501      10500  
     10369      10370      10381      10380      10490      10491      10502      10501  
     10370      10371      10382      10381      10491      10492      10503      10502  
     10371      10372      10383      10382      10492      10493      10504      10503  
     10372      10373      10384      10383      10493      10494      10505      10504  
     10374      10375      10386      10385      10495      10496      10507      10506  
     10375      10376      10387      10386      10496      10497      10508      10507  
     10376      10377      10388      10387      10497      10498      10509      10508  
     10377      10378      10389      10388      10498      10499      10510      10509  
     10378      10379      10390      10389      10499      10500      10511      10510  
     10379      10380      10391      10390      10500      10501      10512      10511  
     10380      10381      10392      10391      10501      10502      10513      10512  
     10381      10382      10393      10392      10502      10503      10514      10513  
     10382      10383      10394      10393      10503      10504      10515      10514  
     10383      10384      10395      10394      10504      10505      10516      10515  
     10385      10386      10397      10396      10506      10507      10518      10517  
     10386      10387      10398      10397      10507      10508      10519      10518  
     10387      10388      10399      10398      10508      10509      10520      10519  
     10388      10389      10400      10399      10509      10510      10521      10520  
     10389      10390      10401      10400      10510      10511      10522      10521  
     10390      10391      10402      10401      10511      10512      10523      10522  
     10391      10392      10403      10402      10512      10513      10524      10523  
     10392      10393      10404      10403      10513      10514      10525      10524  
     10393      10394      10405      10404      10514      10515      10526      10525  
     10394      10395      10406      10405      10515      10516      10527      10526  
     10407      10408      10419      10418      10528      10529      10540      10539  
     10408      10409      10420      10419      10529      10530      10541      10540  
     10409      10410      10421      10420      10530      10531      10542      10541  
     10410      10411      10422      10421      10531      10532      10543      10542  
     10411      10412      10423      10422      10532      10533      10544      10543  
     10412      10413      10424      10423      10533      10534      10545      10544  
     10413      10414      10425      10424      10534      10535      10546      10545  
     10414      10415      10426      10425      10535      10536      10547      10546  
     10415      10416      10427      10426      10536      10537      10548      10547  
     10416      10417      10428      10427      10537      10538      10549      10548  
     10418      10419      10430      10429      10539      10540      10551      10550  
     10419      10420      10431      10430      10540      10541      10552      10551  
     10420      10421      10432      10431      10541      10542      10553      10552  
     10421      10422      10433      10432      10542      10543      10554      10553  
     10422      10423      10434      10433      10543      10544      10555      10554  
     10423      10424      10435      10434      10544      10545      10556      10555  
     10424      10425      10436      10435      10545      10546      10557      10556  
     10425      10426      10437      10436      10546      10547      10558      10557  
     10426      10427      10438      10437      10547      10548      10559      10558  
     10427      10428      10439      10438      10548      10549      10560      10559  
     10429      10430      10441      10440      10550      10551      10562      10561  
     10430      10431      10442      10441      10551      10552      10563      10562  
     10431      10432      10443      10442      10552      10553      10564      10563  
     10432      10433      10444      10443      10553      10554      10565      10564  
     10433      10434      10445      10444      10554      10555      10566      10565  
     10434      10435      10446      10445      10555      10556      10567      10566  
     10435      10436      10447      10446      10556      10557      10568      10567  
     10436      10437      10448      10447      10557      10558      10569      10568  
     10437      10438      10449      10448      10558      10559      10570      10569  
     10438      10439      10450      10449      10559      10560      10571      10570  
     10440      10441      10452      10451      10561      10562      10573      10572  
     10441      10442      10453      10452      10562      10563      10574      10573  
     10442      10443      10454      10453      10563      10564      10575      10574  
     10443      10444      10455      10454      10564      10565      10576      10575  
     10444      10445      10456      10455      10565      10566      10577      10576  
     10445      10446      10457      10456      10566      10567      10578      10577  
     10446      10447      10458      10457      10567      10568      10579      10578  
     10447      10448      10459      10458      10568      10569      10580      10579  
     10448      10449      10460      10459      10569      10570      10581      10580  
     10449      10450      10461      10460      10570      10571      10582      10581  
     10451      10452      10463      10462      10572      10573      10584      10583  
     10452      10453      10464      10463      10573      10574      10585      10584  
     10453      10454      10465      10464      10574      10575      10586      10585  
     10454      10455      10466      10465      10575      10576      10587      10586  
     10455      10456      10467      10466      10576      10577      10588      10587  
     10456      10457      10468      10467      10577      10578      10589      10588  
     10457      10458      10469      10468      10578      10579      10590      10589  
     10458      10459      10470      10469      10579      10580      10591      10590  
     10459      10460      10471      10470      10580      10581      10592      10591  
     10460      10461      10472      10471      10581      10582      10593      10592  
     10462      10463      10474      10473      10583      10584      10595      10594  
     10463      10464      10475      10474      10584      10585      10596      10595  
     10464      10465      10476      10475      10585      10586      10597      10596  
     10465      10466      10477      10476      10586      10587      10598      10597  
     10466      10467      10478      10477      10587      10588      10599      10598  
     10467      10468      10479      10478      10588      10589      10600      10599  
     10468      10469      10480      10479      10589      10590      10601      10600  
     10469      10470      10481      10480      10590      10591      10602      10601  
     10470      10471      10482      10481      10591      10592      10603      10602  
     10471      10472      10483      10482      10592      10593      10604      10603  
     10473      10474      10485      10484      10594      10595      10606      10605  
     10474      10475      10486      10485      10595      10596      10607      10606  
     10475      10476      10487      10486      10596      10597      10608      10607  
     10476      10477      10488      10487      10597      10598      10609      10608  
     10477      10478      10489      10488      10598      10599      10610      10609  
     10478      10479      10490      10489      10599      10600      10611      10610  
     10479      10480      10491      10490      10600      10601      10612      10611  
     10480      10481      10492      10491      10601      10602      10613      10612  
     10481      10482      10493      10492      10602      10603      10614      10613  
     10482      10483      10494      10493      10603      10604      10615      10614  
     10484      10485      10496      10495      10605      10606      10617      10616  
     10485      10486      10497      10496      10606      10607      10618      10617  
     10486      10487      10498      10497      10607      10608      10619      10618  
     10487      10488      10499      10498      10608      10609      10620      10619  
     10488      10489      10500      10499      10609      10610      10621      10620  
     10489      10490      10501      10500      10610      10611      10622      10621  
     10490      10491      10502      10501      10611      10612      10623      10622  
     10491      10492      10503      10502      10612      10613      10624      10623  
     10492      10493      10504      10503      10613      10614      10625      10624  
     10493      10494      10505      10504      10614      10615      10626      10625  
     10495      10496      10507      10506      10616      10617      10628      10627  
     10496      10497      10508      10507      10617      10618      10629      10628  
     10497      10498      10509      10508      10618      10619      10630      10629  
     10498      10499      10510      10509      10619      10620      10631      10630  
     10499      10500      10511      10510      10620      10621      10632      10631  
     10500      10501      10512      10511      10621      10622      10633      10632  
     10501      10502      10513      10512      10622      10623      10634      10633  
     10502      10503      10514      10513      10623      10624      10635      10634  
     10503      10504      10515      10514      10624      10625      10636      10635  
     10504      10505      10516      10515      10625      10626      10637      10636  
     10506      10507      10518      10517      10627      10628      10639      10638  
     10507      10508      10519      10518      10628      10629      10640      10639  
     10508      10509      10520      10519      10629      10630      10641      10640  
     10509      10510      10521      10520      10630      10631      10642      10641  
     10510      10511      10522      10521      10631      10632      10643      10642  
     10511      10512      10523      10522      10632      10633      10644      10643  
     10512      10513      10524      10523      10633      10634      10645      10644  
     10513      10514      10525      10524      10634      10635      10646      10645  
     10514      10515      10526      10525      10635      10636      10647      10646  
     10515      10516      10527      10526      10636      10637      10648      10647  
     10528      10529      10540      10539      10649      10650      10661      10660  
     10529      10530      10541      10540      10650      10651      10662      10661  
     10530      10531      10542      10541      10651      10652      10663      10662  
     10531      10532      10543      10542      10652      10653      10664      10663  
     10532      10533      10544      10543      10653      10654      10665      10664  
     10533      10534      10545      10544      10654      10655      10666      10665  
     10534      10535      10546      10545      10655      10656      10667      10666  
     10535      10536      10547      10546      10656      10657      10668      10667  
     10536      10537      10548      10547      10657      10658      10669      10668  
     10537      10538      10549      10548      10658      10659      10670      10669  
     10539      10540      10551      10550      10660      10661      10672      10671  
     10540      10541      10552      10551      10661      10662      10673      10672  
     10541      10542      10553      10552      10662      10663      10674      10673  
     10542      10543      10554      10553      10663      10664      10675      10674  
     10543      10544      10555      10554      10664      10665      10676      10675  
     10544      10545      10556      10555      10665      10666      10677      10676  
     10545      10546      10557      10556      10666      10667      10678      10677  
     10546      10547      10558      10557      10667      10668      10679      10678  
     10547      10548      10559      10558      10668      10669      10680      10679  
     10548      10549      10560      10559      10669      10670      10681      10680  
     10550      10551      10562      10561      10671      10672      10683      10682  
     10551      10552      10563      10562      10672      10673      10684      10683  
     10552      10553      10564      10563      10673      10674      10685      10684  
     10553      10554      10565      10564      10674      10675      10686      10685  
     10554      10555      10566      10565      10675      10676      10687      10686  
     10555      10556      10567      10566      10676      10677      10688      10687  
     10556      10557      10568      10567      10677      10678      10689      10688  
     10557      10558      10569      10568      10678      10679      10690      10689  
     10558      10559      10570      10569      10679      10680      10691      10690  
     10559      10560      10571      10570      10680      10681      10692      10691  
     10561      10562      10573      10572      10682      10683      10694      10693  
     10562      10563      10574      10573      10683      10684      10695      10694  
     10563      10564      10575      10574      10684      10685      10696      10695  
     10564      10565      10576      10575      10685      10686      10697      10696  
     10565      10566      10577      10576      10686      10687      10698      10697  
     10566      10567      10578      10577      10687      10688      10699      10698  
     10567      10568      10579      10578      10688      10689      10700      10699  
     10568      10569      10580      10579      10689      10690      10701      10700  
     10569      10570      10581      10580      10690      10691      10702      10701  
     10570      10571      10582      10581      10691      10692      10703      10702  
     10572      10573      10584      10583      10693      10694      10705      10704  
     10573      10574      10585      10584      10694      10695      10706      10705  
     10574      10575      10586      10585      10695      10696      10707      10706  
     10575      10576      10587      10586      10696      10697      10708      10707  
     10576      10577      10588      10587      10697      10698      10709      10708  
     10577      10578      10589      10588      10698      10699      10710      10709  
     10578      10579      10590      10589      10699      10700      10711      10710  
     10579      10580      10591      10590      10700      10701      10712      10711  
     10580      10581      10592      10591      10701      10702      10713      10712  
     10581      10582      10593      10592      10702      10703      10714      10713  
     10583      10584      10595      10594      10704      10705      10716      10715  
     10584      10585      10596      10595      10705      10706      10717      10716  
     10585      10586      10597      10596      10706      10707      10718      10717  
     10586      10587      10598      10597      10707      10708      10719      10718  
     10587      10588      10599      10598      10708      10709      10720      10719  
     10588      10589      10600      10599      10709      10710      10721      10720  
     10589      10590      10601      10600      10710      10711      10722      10721  
     10590      10591      10602      10601      10711      10712      10723      10722  
     10591      10592      10603      10602      10712      10713      10724      10723  
     10592      10593      10604      10603      10713      10714      10725      10724  
     10594      10595      10606      10605      10715      10716      10727      10726  
     10595      10596      10607      10606      10716      10717      10728      10727  
     10596      10597      10608      10607      10717      10718      10729      10728  
     10597      10598      10609      10608      10718      10719      10730      10729  
     10598      10599      10610      10609      10719      10720      10731      10730  
     10599      10600      10611      10610      10720      10721      10732      10731  
     10600      10601      10612      10611      10721      10722      10733      10732  
     10601      10602      10613      10612      10722      10723      10734      10733  
     10602      10603      10614      10613      10723      10724      10735      10734  
     10603      10604      10615      10614      10724      10725      10736      10735  
     10605      10606      10617      10616      10726      10727      10738      10737  
     10606      10607      10618      10617      10727      10728      10739      10738  
     10607      10608      10619      10618      10728      10729      10740      10739  
     10608      10609      10620      10619      10729      10730      10741      10740  
     10609      10610      10621      10620      10730      10731      10742      10741  
     10610      10611      10622      10621      10731      10732      10743      10742  
     10611      10612      10623      10622      10732      10733      10744      10743  
     10612      10613      10624      10623      10733      10734      10745      10744  
     10613      10614      10625      10624      10734      10735      10746      10745  
     10614      10615      10626      10625      10735      10736      10747      10746  
     10616      10617      10628      10627      10737      10738      10749      10748  
     10617      10618      10629      10628      10738      10739      10750      10749  
     10618      10619      10630      10629      10739      10740      10751      10750  
     10619      10620      10631      10630      10740      10741      10752      10751  
     10620      10621      10632      10631      10741      10742      10753      10752  
     10621      10622      10633      10632      10742      10743      10754      10753  
     10622      10623      10634      10633      10743      10744      10755      10754  
     10623      10624      10635      10634      10744      10745      10756      10755  
     10624      10625      10636      10635      10745      10746      10757      10756  
     10625      10626      10637      10636      10746      10747      10758      10757  
     10627      10628      10639      10638      10748      10749      10760      10759  
     10628      10629      10640      10639      10749      10750      10761      10760  
     10629      10630      10641      10640      10750      10751      10762      10761  
     10630      10631      10642      10641      10751      10752      10763      10762  
     10631      10632      10643      10642      10752      10753      10764      10763  
     10632      10633      10644      10643      10753      10754      10765      10764  
     10633      10634      10645      10644      10754      10755      10766      10765  
     10634      10635      10646      10645      10755      10756      10767      10766  
     10635      10636      10647      10646      10756      10757      10768      10767  
     10636      10637      10648      10647      10757      10758      10769      10768  
     10649      10650      10661      10660      10770      10771      10782      10781  
     10650      10651      10662      10661      10771      10772      10783      10782  
     10651      10652      10663      10662      10772      10773      10784      10783  
     10652      10653      10664      10663      10773      10774      10785      10784  
     10653      10654      10665      10664      10774      10775      10786      10785  
     10654      10655      10666      10665      10775      10776      10787      10786  
     10655      10656      10667      10666      10776      10777      10788      10787  
     10656      10657      10668      10667      10777      10778      10789      10788  
     10657      10658      10669      10668      10778      10779      10790      10789  
     10658      10659      10670      10669      10779      10780      10791      10790  
     10660      10661      10672      10671      10781      10782      10793      10792  
     10661      10662      10673      10672      10782      10783      10794      10793  
     10662      10663      10674      10673      10783      10784      10795      10794  
     10663      10664      10675      10674      10784      10785      10796      10795  
     10664      10665      10676      10675      10785      10786      10797      10796  
     10665      10666      10677      10676      10786      10787      10798      10797  
     10666      10667      10678      10677      10787      10788      10799      10798  
     10667      10668      10679      10678      10788      10789      10800      10799  
     10668      10669      10680      10679      10789      10790      10801      10800  
     10669      10670      10681      10680      10790      10791      10802      10801  
     10671      10672      10683      10682      10792      10793      10804      10803  
     10672      10673      10684      10683      10793      10794      10805      10804  
     10673      10674      10685      10684      10794      10795      10806      10805  
     10674      10675      10686      10685      10795      10796      10807      10806  
     10675      10676      10687      10686      10796      10797      10808      10807  
     10676      10677      10688      10687      10797      10798      10809      10808  
     10677      10678      10689      10688      10798      10799      10810      10809  
     10678      10679      10690      10689      10799      10800      10811      10810  
     10679      10680      10691      10690      10800      10801      10812      10811  
     10680      10681      10692      10691      10801      10802      10813      10812  
     10682      10683      10694      10693      10803      10804      10815      10814  
     10683      10684      10695      10694      10804      10805      10816      10815  
     10684      10685      10696      10695      10805      10806      10817      10816  
     10685      10686      10697      10696      10806      10807      10818      10817  
     10686      10687      10698      10697      10807      10808      10819      10818  
     10687      10688      10699      10698      10808      10809      10820      10819  
     10688      10689      10700      10699      10809      10810      10821      10820  
     10689      10690      10701      10700      10810      10811      10822      10821  
     10690      10691      10702      10701      10811      10812      10823      10822  
     10691      10692      10703      10702      10812      10813      10824      10823  
     10693      10694      10705      10704      10814      10815      10826      10825  
     10694      10695      10706      10705      10815      10816      10827      10826  
     10695      10696      10707      10706      10816      10817      10828      10827  
     10696      10697      10708      10707      10817      10818      10829      10828  
     10697      10698      10709      10708      10818      10819      10830      10829  
     10698      10699      10710      10709      10819      10820      10831      10830  
     10699      10700      10711      10710      10820      10821      10832      10831  
     10700      10701      10712      10711      10821      10822      10833      10832  
     10701      10702      10713      10712      10822      10823      10834      10833  
     10702      10703      10714      10713      10823      10824      10835      10834  
     10704      10705      10716      10715      10825      10826      10837      10836  
     10705      10706      10717      10716      10826      10827      10838      10837  
     10706      10707      10718      10717      10827      10828      10839      10838  
     10707      10708      10719      10718      10828      10829      10840      10839  
     10708      10709      10720      10719      10829      10830      10841      10840  
     10709      10710      10721      10720      10830      10831      10842      10841  
     10710      10711      10722      10721      10831      10832      10843      10842  
     10711      10712      10723      10722      10832      10833      10844      10843  
     10712      10713      10724      10723      10833      10834      10845      10844  
     10713      10714      10725      10724      10834      10835      10846      10845  
     10715      10716      10727      10726      10836      10837      10848      10847  
     10716      10717      10728      10727      10837      10838      10849      10848  
     10717      10718      10729      10728      10838      10839      10850      10849  
     10718      10719      10730      10729      10839      10840      10851      10850  
     10719      10720      10731      10730      10840      10841      10852      10851  
     10720      10721      10732      10731      10841      10842      10853      10852  
     10721      10722      10733      10732      10842      10843      10854      10853  
     10722      10723      10734      10733      10843      10844      10855      10854  
     10723      10724      10735      10734      10844      10845      10856      10855  
     10724      10725      10736      10735      10845      10846      10857      10856  
     10726      10727      10738      10737      10847      10848      10859      10858  
     10727      10728      10739      10738      10848      10849      10860      10859  
     10728      10729      10740      10739      10849      10850      10861      10860  
     10729      10730      10741      10740      10850      10851      10862      10861  
     10730      10731      10742      10741      10851      10852      10863      10862  
     10731      10732      10743      10742      10852      10853      10864      10863  
     10732      10733      10744      10743      10853      10854      10865      10864  
     10733      10734      10745      10744      10854      10855      10866      10865  
     10734      10735      10746      10745      10855      10856      10867      10866  
     10735      10736      10747      10746      10856      10857      10868      10867  
     10737      10738      10749      10748      10858      10859      10870      10869  
     10738      10739      10750      10749      10859      10860      10871      10870  
     10739      10740      10751      10750      10860      10861      10872      10871  
     10740      10741      10752      10751      10861      10862      10873      10872  
     10741      10742      10753      10752      10862      10863      10874      10873  
     10742      10743      10754      10753      10863      10864      10875      10874  
     10743      10744      10755      10754      10864      10865      10876      10875  
     10744      10745      10756      10755      10865      10866      10877      10876  
     10745      10746      10757      10756      10866      10867      10878      10877  
     10746      10747      10758      10757      10867      10868      10879      10878  
     10748      10749      10760      10759      10869      10870      10881      10880  
     10749      10750      10761      10760      10870      10871      10882      10881  
     10750      10751      10762      10761      10871      10872      10883      10882  
     10751      10752      10763      10762      10872      10873      10884      10883  
     10752      10753      10764      10763      10873      10874      10885      10884  
     10753      10754      10765      10764      10874      10875      10886      10885  
     10754      10755      10766      10765      10875      10876      10887      10886  
     10755      10756      10767      10766      10876      10877      10888      10887  
     10756      10757      10768      10767      10877      10878      10889      10888  
     10757      10758      10769      10768      10878      10879      10890      10889  
     10770      10771      10782      10781      10891      10892      10903      10902  
     10771      10772      10783      10782      10892      10893      10904      10903  
     10772      10773      10784      10783      10893      10894      10905      10904  
     10773      10774      10785      10784      10894      10895      10906      10905  
     10774      10775      10786      10785      10895      10896      10907      10906  
     10775      10776      10787      10786      10896      10897      10908      10907  
     10776      10777      10788      10787      10897      10898      10909      10908  
     10777      10778      10789      10788      10898      10899      10910      10909  
     10778      10779      10790      10789      10899      10900      10911      10910  
     10779      10780      10791      10790      10900      10901      10912      10911  
     10781      10782      10793      10792      10902      10903      10914      10913  
     10782      10783      10794      10793      10903      10904      10915      10914  
     10783      10784      10795      10794      10904      10905      10916      10915  
     10784      10785      10796      10795      10905      10906      10917      10916  
     10785      10786      10797      10796      10906      10907      10918      10917  
     10786      10787      10798      10797      10907      10908      10919      10918  
     10787      10788      10799      10798      10908      10909      10920      10919  
     10788      10789      10800      10799      10909      10910      10921      10920  
     10789      10790      10801      10800      10910      10911      10922      10921  
     10790      10791      10802      10801      10911      10912      10923      10922  
     10792      10793      10804      10803      10913      10914      10925      10924  
     10793      10794      10805      10804      10914      10915      10926      10925  
     10794      10795      10806      10805      10915      10916      10927      10926  
     10795      10796      10807      10806      10916      10917      10928      10927  
     10796      10797      10808      10807      10917      10918      10929      10928  
     10797      10798      10809      10808      10918      10919      10930      10929  
     10798      10799      10810      10809      10919      10920      10931      10930  
     10799      10800      10811      10810      10920      10921      10932      10931  
     10800      10801      10812      10811      10921      10922      10933      10932  
     10801      10802      10813      10812      10922      10923      10934      10933  
     10803      10804      10815      10814      10924      10925      10936      10935  
     10804      10805      10816      10815      10925      10926      10937      10936  
     10805      10806      10817      10816      10926      10927      10938      10937  
     10806      10807      10818      10817      10927      10928      10939      10938  
     10807      10808      10819      10818      10928      10929      10940      10939  
     10808      10809      10820      10819      10929      10930      10941      10940  
     10809      10810      10821      10820      10930      10931      10942      10941  
     10810      10811      10822      10821      10931      10932      10943      10942  
     10811      10812      10823      10822      10932      10933      10944      10943  
     10812      10813      10824      10823      10933      10934      10945      10944  
     10814      10815      10826      10825      10935      10936      10947      10946  
     10815      10816      10827      10826      10936      10937      10948      10947  
     10816      10817      10828      10827      10937      10938      10949      10948  
     10817      10818      10829      10828      10938      10939      10950      10949  
     10818      10819      10830      10829      10939      10940      10951      10950  
     10819      10820      10831      10830      10940      10941      10952      10951  
     10820      10821      10832      10831      10941      10942      10953      10952  
     10821      10822      10833      10832      10942      10943      10954      10953  
     10822      10823      10834      10833      10943      10944      10955      10954  
     10823      10824      10835      10834      10944      10945      10956      10955  
     10825      10826      10837      10836      10946      10947      10958      10957  
     10826      10827      10838      10837      10947      10948      10959      10958  
     10827      10828      10839      10838      10948      10949      10960      10959  
     10828      10829      10840      10839      10949      10950      10961      10960  
     10829      10830      10841      10840      10950      10951      10962      10961  
     10830      10831      10842      10841      10951      10952      10963      10962  
     10831      10832      10843      10842      10952      10953      10964      10963  
     10832      10833      10844      10843      10953      10954      10965      10964  
     10833      10834      10845      10844      10954      10955      10966      10965  
     10834      10835      10846      10845      10955      10956      10967      10966  
     10836      10837      10848      10847      10957      10958      10969      10968  
     10837      10838      10849      10848      10958      10959      10970      10969  
     10838      10839      10850      10849      10959      10960      10971      10970  
     10839      10840      10851      10850      10960      10961      10972      10971  
     10840      10841      10852      10851      10961      10962      10973      10972  
     10841      10842      10853      10852      10962      10963      10974      10973  
     10842      10843      10854      10853      10963      10964      10975      10974  
     10843      10844      10855      10854      10964      10965      10976      10975  
     10844      10845      10856      10855      10965      10966      10977      10976  
     10845      10846      10857      10856      10966      10967      10978      10977  
     10847      10848      10859      10858      10968      10969      10980      10979  
     10848      10849      10860      10859      10969      10970      10981      10980  
     10849      10850      10861      10860      10970      10971      10982      10981  
     10850      10851      10862      10861      10971      10972      10983      10982  
     10851      10852      10863      10862      10972      10973      10984      10983  
     10852      10853      10864      10863      10973      10974      10985      10984  
     10853      10854      10865      10864      10974      10975      10986      10985  
     10854      10855      10866      10865      10975      10976      10987      10986  
     10855      10856      10867      10866      10976      10977      10988      10987  
     10856      10857      10868      10867      10977      10978      10989      10988  
     10858      10859      10870      10869      10979      10980      10991      10990  
     10859      10860      10871      10870      10980      10981      10992      10991  
     10860      10861      10872      10871      10981      10982      10993      10992  
     10861      10862      10873      10872      10982      10983      10994      10993  
     10862      10863      10874      10873      10983      10984      10995      10994  
     10863      10864      10875      10874      10984      10985      10996      10995  
     10864      10865      10876      10875      10985      10986      10997      10996  
     10865      10866      10877      10876      10986      10987      10998      10997  
     10866      10867      10878      10877      10987      10988      10999      10998  
     10867      10868      10879      10878      10988      10989      11000      10999  
     10869      10870      10881      10880      10990      10991      11002      11001  
     10870      10871      10882      10881      10991      10992      11003      11002  
     10871      10872      10883      10882      10992      10993      11004      11003  
     10872      10873      10884      10883      10993      10994      11005      11004  
     10873      10874      10885      10884      10994      10995      11006      11005  
     10874      10875      10886      10885      10995      10996      11007      11006  
     10875      10876      10887      10886      10996      10997      11008      11007  
     10876      10877      10888      10887      10997      10998      11009      11008  
     10877      10878      10889      10888      10998      10999      11010      11009  
     10878      10879      10890      10889      10999      11000      11011      11010  
     10891      10892      10903      10902      11012      11013      11024      11023  
     10892      10893      10904      10903      11013      11014      11025      11024  
     10893      10894      10905      10904      11014      11015      11026      11025  
     10894      10895      10906      10905      11015      11016      11027      11026  
     10895      10896      10907      10906      11016      11017      11028      11027  
     10896      10897      10908      10907      11017      11018      11029      11028  
     10897      10898      10909      10908      11018      11019      11030      11029  
     10898      10899      10910      10909      11019      11020      11031      11030  
     10899      10900      10911      10910      11020      11021      11032      11031  
     10900      10901      10912      10911      11021      11022      11033      11032  
     10902      10903      10914      10913      11023      11024      11035      11034  
     10903      10904      10915      10914      11024      11025      11036      11035  
     10904      10905      10916      10915      11025      11026      11037      11036  
     10905      10906      10917      10916      11026      11027      11038      11037  
     10906      10907      10918      10917      11027      11028      11039      11038  
     10907      10908      10919      10918      11028      11029      11040      11039  
     10908      10909      10920      10919      11029      11030      11041      11040  
     10909      10910      10921      10920      11030      11031      11042      11041  
     10910      10911      10922      10921      11031      11032      11043      11042  
     10911      10912      10923      10922      11032      11033      11044      11043  
     10913      10914      10925      10924      11034      11035      11046      11045  
     10914      10915      10926      10925      11035      11036      11047      11046  
     10915      10916      10927      10926      11036      11037      11048      11047  
     10916      10917      10928      10927      11037      11038      11049      11048  
     10917      10918      10929      10928      11038      11039      11050      11049  
     10918      10919      10930      10929      11039      11040      11051      11050  
     10919      10920      10931      10930      11040      11041      11052      11051  
     10920      10921      10932      10931      11041      11042      11053      11052  
     10921      10922      10933      10932      11042      11043      11054      11053  
     10922      10923      10934      10933      11043      11044      11055      11054  
     10924      10925      10936      10935      11045      11046      11057      11056  
     10925      10926      10937      10936      11046      11047      11058      11057  
     10926      10927      10938      10937      11047      11048      11059      11058  
     10927      10928      10939      10938      11048      11049      11060      11059  
     10928      10929      10940      10939      11049      11050      11061      11060  
     10929      10930      10941      10940      11050      11051      11062      11061  
     10930      10931      10942      10941      11051      11052      11063      11062  
     10931      10932      10943      10942      11052      11053      11064      11063  
     10932      10933      10944      10943      11053      11054      11065      11064  
     10933      10934      10945      10944      11054      11055      11066      11065  
     10935      10936      10947      10946      11056      11057      11068      11067  
     10936      10937      10948      10947      11057      11058      11069      11068  
     10937      10938      10949      10948      11058      11059      11070      11069  
     10938      10939      10950      10949      11059      11060      11071      11070  
     10939      10940      10951      10950      11060      11061      11072      11071  
     10940      10941      10952      10951      11061      11062      11073      11072  
     10941      10942      10953      10952      11062      11063      11074      11073  
     10942      10943      10954      10953      11063      11064      11075      11074  
     10943      10944      10955      10954      11064      11065      11076      11075  
     10944      10945      10956      10955      11065      11066      11077      11076  
     10946      10947      10958      10957      11067      11068      11079      11078  
     10947      10948      10959      10958      11068      11069      11080      11079  
     10948      10949      10960      10959      11069      11070      11081      11080  
     10949      10950      10961      10960      11070      11071      11082      11081  
     10950      10951      10962      10961      11071      11072      11083      11082  
     10951      10952      10963      10962      11072      11073      11084      11083  
     10952      10953      10964      10963      11073      11074      11085      11084  
     10953      10954      10965      10964      11074      11075      11086      11085  
     10954      10955      10966      10965      11075      11076      11087      11086  
     10955      10956      10967      10966      11076      11077      11088      11087  
     10957      10958      10969      10968      11078      11079      11090      11089  
     10958      10959      10970      10969      11079      11080      11091      11090  
     10959      10960      10971      10970      11080      11081      11092      11091  
     10960      10961      10972      10971      11081      11082      11093      11092  
     10961      10962      10973      10972      11082      11083      11094      11093  
     10962      10963      10974      10973      11083      11084      11095      11094  
     10963      10964      10975      10974      11084      11085      11096      11095  
     10964      10965      10976      10975      11085      11086      11097      11096  
     10965      10966      10977      10976      11086      11087      11098      11097  
     10966      10967      10978      10977      11087      11088      11099      11098  
     10968      10969      10980      10979      11089      11090      11101      11100  
     10969      10970      10981      10980      11090      11091      11102      11101  
     10970      10971      10982      10981      11091      11092      11103      11102  
     10971      10972      10983      10982      11092      11093      11104      11103  
     10972      10973      10984      10983      11093      11094      11105      11104  
     10973      10974      10985      10984      11094      11095      11106      11105  
     10974      10975      10986      10985      11095      11096      11107      11106  
     10975      10976      10987      10986      11096      11097      11108      11107  
     10976      10977      10988      10987      11097      11098      11109      11108  
     10977      10978      10989      10988      11098      11099      11110      11109  
     10979      10980      10991      10990      11100      11101      11112      11111  
     10980      10981      10992      10991      11101      11102      11113      11112  
     10981      10982      10993      10992      11102      11103      11114      11113  
     10982      10983      10994      10993      11103      11104      11115      11114  
     10983      10984      10995      10994      11104      11105      11116      11115  
     10984      10985      10996      10995      11105      11106      11117      11116  
     10985      10986      10997      10996      11106      11107      11118      11117  
     10986      10987      10998      10997      11107      11108      11119      11118  
     10987      10988      10999      10998      11108      11109      11120      11119  
     10988      10989      11000      10999      11109      11110      11121      11120  
     10990      10991      11002      11001      11111      11112      11123      11122  
     10991      10992      11003      11002      11112      11113      11124      11123  
     10992      10993      11004      11003      11113      11114      11125      11124  
     10993      10994      11005      11004      11114      11115      11126      11125  
     10994      10995      11006      11005      11115      11116      11127      11126  
     10995      10996      11007      11006      11116      11117      11128      11127  
     10996      10997      11008      11007      11117      11118      11129      11128  
     10997      10998      11009      11008      11118      11119      11130      11129  
     10998      10999      11010      11009      11119      11120      11131      11130  
     10999      11000      11011      11010      11120      11121      11132      11131  
     11012      11013      11024      11023      11133      11134      11145      11144  
     11013      11014      11025      11024      11134      11135      11146      11145  
     11014      11015      11026      11025      11135      11136      11147      11146  
     11015      11016      11027      11026      11136      11137      11148      11147  
     11016      11017      11028      11027      11137      11138      11149      11148  
     11017      11018      11029      11028      11138      11139      11150      11149  
     11018      11019      11030      11029      11139      11140      11151      11150  
     11019      11020      11031      11030      11140      11141      11152      11151  
     11020      11021      11032      11031      11141      11142      11153      11152  
     11021      11022      11033      11032      11142      11143      11154      11153  
     11023      11024      11035      11034      11144      11145      11156      11155  
     11024      11025      11036      11035      11145      11146      11157      11156  
     11025      11026      11037      11036      11146      11147      11158      11157  
     11026      11027      11038      11037      11147      11148      11159      11158  
     11027      11028      11039      11038      11148      11149      11160      11159  
     11028      11029      11040      11039      11149      11150      11161      11160  
     11029      11030      11041      11040      11150      11151      11162      11161  
     11030      11031      11042      11041      11151      11152      11163      11162  
     11031      11032      11043      11042      11152      11153      11164      11163  
     11032      11033      11044      11043      11153      11154      11165      11164  
     11034      11035      11046      11045      11155      11156      11167      11166  
     11035      11036      11047      11046      11156      11157      11168      11167  
     11036      11037      11048      11047      11157      11158      11169      11168  
     11037      11038      11049      11048      11158      11159      11170      11169  
     11038      11039      11050      11049      11159      11160      11171      11170  
     11039      11040      11051      11050      11160      11161      11172      11171  
     11040      11041      11052      11051      11161      11162      11173      11172  
     11041      11042      11053      11052      11162      11163      11174      11173  
     11042      11043      11054      11053      11163      11164      11175      11174  
     11043      11044      11055      11054      11164      11165      11176      11175  
     11045      11046      11057      11056      11166      11167      11178      11177  
     11046      11047      11058      11057      11167      11168      11179      11178  
     11047      11048      11059      11058      11168      11169      11180      11179  
     11048      11049      11060      11059      11169      11170      11181      11180  
     11049      11050      11061      11060      11170      11171      11182      11181  
     11050      11051      11062      11061      11171      11172      11183      11182  
     11051      11052      11063      11062      11172      11173      11184      11183  
     11052      11053      11064      11063      11173      11174      11185      11184  
     11053      11054      11065      11064      11174      11175      11186      11185  
     11054      11055      11066      11065      11175      11176      11187      11186  
     11056      11057      11068      11067      11177      11178      11189      11188  
     11057      11058      11069      11068      11178      11179      11190      11189  
     11058      11059      11070      11069      11179      11180      11191      11190  
     11059      11060      11071      11070      11180      11181      11192      11191  
     11060      11061      11072      11071      11181      11182      11193      11192  
     11061      11062      11073      11072      11182      11183      11194      11193  
     11062      11063      11074      11073      11183      11184      11195      11194  
     11063      11064      11075      11074      11184      11185      11196      11195  
     11064      11065      11076      11075      11185      11186      11197      11196  
     11065      11066      11077      11076      11186      11187      11198      11197  
     11067      11068      11079      11078      11188      11189      11200      11199  
     11068      11069      11080      11079      11189      11190      11201      11200  
     11069      11070      11081      11080      11190      11191      11202      11201  
     11070      11071      11082      11081      11191      11192      11203      11202  
     11071      11072      11083      11082      11192      11193      11204      11203  
     11072      11073      11084      11083      11193      11194      11205      11204  
     11073      11074      11085      11084      11194      11195      11206      11205  
     11074      11075      11086      11085      11195      11196      11207      11206  
     11075      11076      11087      11086      11196      11197      11208      11207  
     11076      11077      11088      11087      11197      11198      11209      11208  
     11078      11079      11090      11089      11199      11200      11211      11210  
     11079      11080      11091      11090      11200      11201      11212      11211  
     11080      11081      11092      11091      11201      11202      11213      11212  
     11081      11082      11093      11092      11202      11203      11214      11213  
     11082      11083      11094      11093      11203      11204      11215      11214  
     11083      11084      11095      11094      11204      11205      11216      11215  
     11084      11085      11096      11095      11205      11206      11217      11216  
     11085      11086      11097      11096      11206      11207      11218      11217  
     11086      11087      11098      11097      11207      11208      11219      11218  
     11087      11088      11099      11098      11208      11209      11220      11219  
     11089      11090      11101      11100      11210      11211      11222      11221  
     11090      11091      11102      11101      11211      11212      11223      11222  
     11091      11092      11103      11102      11212      11213      11224      11223  
     11092      11093      11104      11103      11213      11214      11225      11224  
     11093      11094      11105      11104      11214      11215      11226      11225  
     11094      11095      11106      11105      11215      11216      11227      11226  
     11095      11096      11107      11106      11216      11217      11228      11227  
     11096      11097      11108      11107      11217      11218      11229      11228  
     11097      11098      11109      11108      11218      11219      11230      11229  
     11098      11099      11110      11109      11219      11220      11231      11230  
     11100      11101      11112      11111      11221      11222      11233      11232  
     11101      11102      11113      11112      11222      11223      11234      11233  
     11102      11103      11114      11113      11223      11224      11235      11234  
     11103      11104      11115      11114      11224      11225      11236      11235  
     11104      11105      11116      11115      11225      11226      11237      11236  
     11105      11106      11117      11116      11226      11227      11238      11237  
     11106      11107      11118      11117      11227      11228      11239      11238  
     11107      11108      11119      11118      11228      11229      11240      11239  
     11108      11109      11120      11119      11229      11230      11241      11240  
     11109      11110      11121      11120      11230      11231      11242      11241  
     11111      11112      11123      11122      11232      11233      11244      11243  
     11112      11113      11124      11123      11233      11234      11245      11244  
     11113      11114      11125      11124      11234      11235      11246      11245  
     11114      11115      11126      11125      11235      11236      11247      11246  
     11115      11116      11127      11126      11236      11237      11248      11247  
     11116      11117      11128      11127      11237      11238      11249      11248  
     11117      11118      11129      11128      11238      11239      11250      11249  
     11118      11119      11130      11129      11239      11240      11251      11250  
     11119      11120      11131      11130      11240      11241      11252      11251  
     11120      11121      11132      11131      11241      11242      11253      11252  
     11133      11134      11145      11144      11254      11255      11266      11265  
     11134      11135      11146      11145      11255      11256      11267      11266  
     11135      11136      11147      11146      11256      11257      11268      11267  
     11136      11137      11148      11147      11257      11258      11269      11268  
     11137      11138      11149      11148      11258      11259      11270      11269  
     11138      11139      11150      11149      11259      11260      11271      11270  
     11139      11140      11151      11150      11260      11261      11272      11271  
     11140      11141      11152      11151      11261      11262      11273      11272  
     11141      11142      11153      11152      11262      11263      11274      11273  
     11142      11143      11154      11153      11263      11264      11275      11274  
     11144      11145      11156      11155      11265      11266      11277      11276  
     11145      11146      11157      11156      11266      11267      11278      11277  
     11146      11147      11158      11157      11267      11268      11279      11278  
     11147      11148      11159      11158      11268      11269      11280      11279  
     11148      11149      11160      11159      11269      11270      11281      11280  
     11149      11150      11161      11160      11270      11271      11282      11281  
     11150      11151      11162      11161      11271      11272      11283      11282  
     11151      11152      11163      11162      11272      11273      11284      11283  
     11152      11153      11164      11163      11273      11274      11285      11284  
     11153      11154      11165      11164      11274      11275      11286      11285  
     11155      11156      11167      11166      11276      11277      11288      11287  
     11156      11157      11168      11167      11277      11278      11289      11288  
     11157      11158      11169      11168      11278      11279      11290      11289  
     11158      11159      11170      11169      11279      11280      11291      11290  
     11159      11160      11171      11170      11280      11281      11292      11291  
     11160      11161      11172      11171      11281      11282      11293      11292  
     11161      11162      11173      11172      11282      11283      11294      11293  
     11162      11163      11174      11173      11283      11284      11295      11294  
     11163      11164      11175      11174      11284      11285      11296      11295  
     11164      11165      11176      11175      11285      11286      11297      11296  
     11166      11167      11178      11177      11287      11288      11299      11298  
     11167      11168      11179      11178      11288      11289      11300      11299  
     11168      11169      11180      11179      11289      11290      11301      11300  
     11169      11170      11181      11180      11290      11291      11302      11301  
     11170      11171      11182      11181      11291      11292      11303      11302  
     11171      11172      11183      11182      11292      11293      11304      11303  
     11172      11173      11184      11183      11293      11294      11305      11304  
     11173      11174      11185      11184      11294      11295      11306      11305  
     11174      11175      11186      11185      11295      11296      11307      11306  
     11175      11176      11187      11186      11296      11297      11308      11307  
     11177      11178      11189      11188      11298      11299      11310      11309  
     11178      11179      11190      11189      11299      11300      11311      11310  
     11179      11180      11191      11190      11300      11301      11312      11311  
     11180      11181      11192      11191      11301      11302      11313      11312  
     11181      11182      11193      11192      11302      11303      11314      11313  
     11182      11183      11194      11193      11303      11304      11315      11314  
     11183      11184      11195      11194      11304      11305      11316      11315  
     11184      11185      11196      11195      11305      11306      11317      11316  
     11185      11186      11197      11196      11306      11307      11318      11317  
     11186      11187      11198      11197      11307      11308      11319      11318  
     11188      11189      11200      11199      11309      11310      11321      11320  
     11189      11190      11201      11200      11310      11311      11322      11321  
     11190      11191      11202      11201      11311      11312      11323      11322  
     11191      11192      11203      11202      11312      11313      11324      11323  
     11192      11193      11204      11203      11313      11314      11325      11324  
     11193      11194      11205      11204      11314      11315      11326      11325  
     11194      11195      11206      11205      11315      11316      11327      11326  
     11195      11196      11207      11206      11316      11317      11328      11327  
     11196      11197      11208      11207      11317      11318      11329      11328  
     11197      11198      11209      11208      11318      11319      11330      11329  
     11199      11200      11211      11210      11320      11321      11332      11331  
     11200      11201      11212      11211      11321      11322      11333      11332  
     11201      11202      11213      11212      11322      11323      11334      11333  
     11202      11203      11214      11213      11323      11324      11335      11334  
     11203      11204      11215      11214      11324      11325      11336      11335  
     11204      11205      11216      11215      11325      11326      11337      11336  
     11205      11206      11217      11216      11326      11327      11338      11337  
     11206      11207      11218      11217      11327      11328      11339      11338  
     11207      11208      11219      11218      11328      11329      11340      11339  
     11208      11209      11220      11219      11329      11330      11341      11340  
     11210      11211      11222      11221      11331      11332      11343      11342  
     11211      11212      11223      11222      11332      11333      11344      11343  
     11212      11213      11224      11223      11333      11334      11345      11344  
     11213      11214      11225      11224      11334      11335      11346      11345  
     11214      11215      11226      11225      11335      11336      11347      11346  
     11215      11216      11227      11226      11336      11337      11348      11347  
     11216      11217      11228      11227      11337      11338      11349      11348  
     11217      11218      11229      11228      11338      11339      11350      11349  
     11218      11219      11230      11229      11339      11340      11351      11350  
     11219      11220      11231      11230      11340      11341      11352      11351  
     11221      11222      11233      11232      11342      11343      11354      11353  
     11222      11223      11234      11233      11343      11344      11355      11354  
     11223      11224      11235      11234      11344      11345      11356      11355  
     11224      11225      11236      11235      11345      11346      11357      11356  
     11225      11226      11237      11236      11346      11347      11358      11357  
     11226      11227      11238      11237      11347      11348      11359      11358  
     11227      11228      11239      11238      11348      11349      11360      11359  
     11228      11229      11240      11239      11349      11350      11361      11360  
     11229      11230      11241      11240      11350      11351      11362      11361  
     11230      11231      11242      11241      11351      11352      11363      11362  
     11232      11233      11244      11243      11353      11354      11365      11364  
     11233      11234      11245      11244      11354      11355      11366      11365  
     11234      11235      11246      11245      11355      11356      11367      11366  
     11235      11236      11247      11246      11356      11357      11368      11367  
     11236      11237      11248      11247      11357      11358      11369      11368  
     11237      11238      11249      11248      11358      11359      11370      11369  
     11238      11239      11250      11249      11359      11360      11371      11370  
     11239      11240      11251      11250      11360      11361      11372      11371  
     11240      11241      11252      11251      11361      11362      11373      11372  
     11241      11242      11253      11252      11362      11363      11374      11373  
     11254      11255      11266      11265      11375      11376      11387      11386  
     11255      11256      11267      11266      11376      11377      11388      11387  
     11256      11257      11268      11267      11377      11378      11389      11388  
     11257      11258      11269      11268      11378      11379      11390      11389  
     11258      11259      11270      11269      11379      11380      11391      11390  
     11259      11260      11271      11270      11380      11381      11392      11391  
     11260      11261      11272      11271      11381      11382      11393      11392  
     11261      11262      11273      11272      11382      11383      11394      11393  
     11262      11263      11274      11273      11383      11384      11395      11394  
     11263      11264      11275      11274      11384      11385      11396      11395  
     11265      11266      11277      11276      11386      11387      11398      11397  
     11266      11267      11278      11277      11387      11388      11399      11398  
     11267      11268      11279      11278      11388      11389      11400      11399  
     11268      11269      11280      11279      11389      11390      11401      11400  
     11269      11270      11281      11280      11390      11391      11402      11401  
     11270      11271      11282      11281      11391      11392      11403      11402  
     11271      11272      11283      11282      11392      11393      11404      11403  
     11272      11273      11284      11283      11393      11394      11405      11404  
     11273      11274      11285      11284      11394      11395      11406      11405  
     11274      11275      11286      11285      11395      11396      11407      11406  
     11276      11277      11288      11287      11397      11398      11409      11408  
     11277      11278      11289      11288      11398      11399      11410      11409  
     11278      11279      11290      11289      11399      11400      11411      11410  
     11279      11280      11291      11290      11400      11401      11412      11411  
     11280      11281      11292      11291      11401      11402      11413      11412  
     11281      11282      11293      11292      11402      11403      11414      11413  
     11282      11283      11294      11293      11403      11404      11415      11414  
     11283      11284      11295      11294      11404      11405      11416      11415  
     11284      11285      11296      11295      11405      11406      11417      11416  
     11285      11286      11297      11296      11406      11407      11418      11417  
     11287      11288      11299      11298      11408      11409      11420      11419  
     11288      11289      11300      11299      11409      11410      11421      11420  
     11289      11290      11301      11300      11410      11411      11422      11421  
     11290      11291      11302      11301      11411      11412      11423      11422  
     11291      11292      11303      11302      11412      11413      11424      11423  
     11292      11293      11304      11303      11413      11414      11425      11424  
     11293      11294      11305      11304      11414      11415      11426      11425  
     11294      11295      11306      11305      11415      11416      11427      11426  
     11295      11296      11307      11306      11416      11417      11428      11427  
     11296      11297      11308      11307      11417      11418      11429      11428  
     11298      11299      11310      11309      11419      11420      11431      11430  
     11299      11300      11311      11310      11420      11421      11432      11431  
     11300      11301      11312      11311      11421      11422      11433      11432  
     11301      11302      11313      11312      11422      11423      11434      11433  
     11302      11303      11314      11313      11423      11424      11435      11434  
     11303      11304      11315      11314      11424      11425      11436      11435  
     11304      11305      11316      11315      11425      11426      11437      11436  
     11305      11306      11317      11316      11426      11427      11438      11437  
     11306      11307      11318      11317      11427      11428      11439      11438  
     11307      11308      11319      11318      11428      11429      11440      11439  
     11309      11310      11321      11320      11430      11431      11442      11441  
     11310      11311      11322      11321      11431      11432      11443      11442  
     11311      11312      11323      11322      11432      11433      11444      11443  
     11312      11313      11324      11323      11433      11434      11445      11444  
     11313      11314      11325      11324      11434      11435      11446      11445  
     11314      11315      11326      11325      11435      11436      11447      11446  
     11315      11316      11327      11326      11436      11437      11448      11447  
     11316      11317      11328      11327      11437      11438      11449      11448  
     11317      11318      11329      11328      11438      11439      11450      11449  
     11318      11319      11330      11329      11439      11440      11451      11450  
     11320      11321      11332      11331      11441      11442      11453      11452  
     11321      11322      11333      11332      11442      11443      11454      11453  
     11322      11323      11334      11333      11443      11444      11455      11454  
     11323      11324      11335      11334      11444      11445      11456      11455  
     11324      11325      11336      11335      11445      11446      11457      11456  
     11325      11326      11337      11336      11446      11447      11458      11457  
     11326      11327      11338      11337      11447      11448      11459      11458  
     11327      11328      11339      11338      11448      11449      11460      11459  
     11328      11329      11340      11339      11449      11450      11461      11460  
     11329      11330      11341      11340      11450      11451      11462      11461  
     11331      11332      11343      11342      11452      11453      11464      11463  
     11332      11333      11344      11343      11453      11454      11465      11464  
     11333      11334      11345      11344      11454      11455      11466      11465  
     11334      11335      11346      11345      11455      11456      11467      11466  
     11335      11336      11347      11346      11456      11457      11468      11467  
     11336      11337      11348      11347      11457      11458      11469      11468  
     11337      11338      11349      11348      11458      11459      11470      11469  
     11338      11339      11350      11349      11459      11460      11471      11470  
     11339      11340      11351      11350      11460      11461      11472      11471  
     11340      11341      11352      11351      11461      11462      11473      11472  
     11342      11343      11354      11353      11463      11464      11475      11474  
     11343      11344      11355      11354      11464      11465      11476      11475  
     11344      11345      11356      11355      11465      11466      11477      11476  
     11345      11346      11357      11356      11466      11467      11478      11477  
     11346      11347      11358      11357      11467      11468      11479      11478  
     11347      11348      11359      11358      11468      11469      11480      11479  
     11348      11349      11360      11359      11469      11470      11481      11480  
     11349      11350      11361      11360      11470      11471      11482      11481  
     11350      11351      11362      11361      11471      11472      11483      11482  
     11351      11352      11363      11362      11472      11473      11484      11483  
     11353      11354      11365      11364      11474      11475      11486      11485  
     11354      11355      11366      11365      11475      11476      11487      11486  
     11355      11356      11367      11366      11476      11477      11488      11487  
     11356      11357      11368      11367      11477      11478      11489      11488  
     11357      11358      11369      11368      11478      11479      11490      11489  
     11358      11359      11370      11369      11479      11480      11491      11490  
     11359      11360      11371      11370      11480      11481      11492      11491  
     11360      11361      11372      11371      11481      11482      11493      11492  
     11361      11362      11373      11372      11482      11483      11494      11493  
     11362      11363      11374      11373      11483      11484      11495      11494  
     11375      11376      11387      11386      11496      11497      11508      11507  
     11376      11377      11388      11387      11497      11498      11509      11508  
     11377      11378      11389      11388      11498      11499      11510      11509  
     11378      11379      11390      11389      11499      11500      11511      11510  
     11379      11380      11391      11390      11500      11501      11512      11511  
     11380      11381      11392      11391      11501      11502      11513      11512  
     11381      11382      11393      11392      11502      11503      11514      11513  
     11382      11383      11394      11393      11503      11504      11515      11514  
     11383      11384      11395      11394      11504      11505      11516      11515  
     11384      11385      11396      11395      11505      11506      11517      11516  
     11386      11387      11398      11397      11507      11508      11519      11518  
     11387      11388      11399      11398      11508      11509      11520      11519  
     11388      11389      11400      11399      11509      11510      11521      11520  
     11389      11390      11401      11400      11510      11511      11522      11521  
     11390      11391      11402      11401      11511      11512      11523      11522  
     11391      11392      11403      11402      11512      11513      11524      11523  
     11392      11393      11404      11403      11513      11514      11525      11524  
     11393      11394      11405      11404      11514      11515      11526      11525  
     11394      11395      11406      11405      11515      11516      11527      11526  
     11395      11396      11407      11406      11516      11517      11528      11527  
     11397      11398      11409      11408      11518      11519      11530      11529  
     11398      11399      11410      11409      11519      11520      11531      11530  
     11399      11400      11411      11410      11520      11521      11532      11531  
     11400      11401      11412      11411      11521      11522      11533      11532  
     11401      11402      11413      11412      11522      11523      11534      11533  
     11402      11403      11414      11413      11523      11524      11535      11534  
     11403      11404      11415      11414      11524      11525      11536      11535  
     11404      11405      11416      11415      11525      11526      11537      11536  
     11405      11406      11417      11416      11526      11527      11538      11537  
     11406      11407      11418      11417      11527      11528      11539      11538  
     11408      11409      11420      11419      11529      11530      11541      11540  
     11409      11410      11421      11420      11530      11531      11542      11541  
     11410      11411      11422      11421      11531      11532      11543      11542  
     11411      11412      11423      11422      11532      11533      11544      11543  
     11412      11413      11424      11423      11533      11534      11545      11544  
     11413      11414      11425      11424      11534      11535      11546      11545  
     11414      11415      11426      11425      11535      11536      11547      11546  
     11415      11416      11427      11426      11536      11537      11548      11547  
     11416      11417      11428      11427      11537      11538      11549      11548  
     11417      11418      11429      11428      11538      11539      11550      11549  
     11419      11420      11431      11430      11540      11541      11552      11551  
     11420      11421      11432      11431      11541      11542      11553      11552  
     11421      11422      11433      11432      11542      11543      11554      11553  
     11422      11423      11434      11433      11543      11544      11555      11554  
     11423      11424      11435      11434      11544      11545      11556      11555  
     11424      11425      11436      11435      11545      11546      11557      11556  
     11425      11426      11437      11436      11546      11547      11558      11557  
     11426      11427      11438      11437      11547      11548      11559      11558  
     11427      11428      11439      11438      11548      11549      11560      11559  
     11428      11429      11440      11439      11549      11550      11561      11560  
     11430      11431      11442      11441      11551      11552      11563      11562  
     11431      11432      11443      11442      11552      11553      11564      11563  
     11432      11433      11444      11443      11553      11554      11565      11564  
     11433      11434      11445      11444      11554      11555      11566      11565  
     11434      11435      11446      11445      11555      11556      11567      11566  
     11435      11436      11447      11446      11556      11557      11568      11567  
     11436      11437      11448      11447      11557      11558      11569      11568  
     11437      11438      11449      11448      11558      11559      11570      11569  
     11438      11439      11450      11449      11559      11560      11571      11570  
     11439      11440      11451      11450      11560      11561      11572      11571  
     11441      11442      11453      11452      11562      11563      11574      11573  
     11442      11443      11454      11453      11563      11564      11575      11574  
     11443      11444      11455      11454      11564      11565      11576      11575  
     11444      11445      11456      11455      11565      11566      11577      11576  
     11445      11446      11457      11456      11566      11567      11578      11577  
     11446      11447      11458      11457      11567      11568      11579      11578  
     11447      11448      11459      11458      11568      11569      11580      11579  
     11448      11449      11460      11459      11569      11570      11581      11580  
     11449      11450      11461      11460      11570      11571      11582      11581  
     11450      11451      11462      11461      11571      11572      11583      11582  
     11452      11453      11464      11463      11573      11574      11585      11584  
     11453      11454      11465      11464      11574      11575      11586      11585  
     11454      11455      11466      11465      11575      11576      11587      11586  
     11455      11456      11467      11466      11576      11577      11588      11587  
     11456      11457      11468      11467      11577      11578      11589      11588  
     11457      11458      11469      11468      11578      11579      11590      11589  
     11458      11459      11470      11469      11579      11580      11591      11590  
     11459      11460      11471      11470      11580      11581      11592      11591  
     11460      11461      11472      11471      11581      11582      11593      11592  
     11461      11462      11473      11472      11582      11583      11594      11593  
     11463      11464      11475      11474      11584      11585      11596      11595  
     11464      11465      11476      11475      11585      11586      11597      11596  
     11465      11466      11477      11476      11586      11587      11598      11597  
     11466      11467      11478      11477      11587      11588      11599      11598  
     11467      11468      11479      11478      11588      11589      11600      11599  
     11468      11469      11480      11479      11589      11590      11601      11600  
     11469      11470      11481      11480      11590      11591      11602      11601  
     11470      11471      11482      11481      11591      11592      11603      11602  
     11471      11472      11483      11482      11592      11593      11604      11603  
     11472      11473      11484      11483      11593      11594      11605      11604  
     11474      11475      11486      11485      11595      11596      11607      11606  
     11475      11476      11487      11486      11596      11597      11608      11607  
     11476      11477      11488      11487      11597      11598      11609      11608  
     11477      11478      11489      11488      11598      11599      11610      11609  
     11478      11479      11490      11489      11599      11600      11611      11610  
     11479      11480      11491      11490      11600      11601      11612      11611  
     11480      11481      11492      11491      11601      11602      11613      11612  
     11481      11482      11493      11492      11602      11603      11614      11613  
     11482      11483      11494      11493      11603      11604      11615      11614  
     11483      11484      11495      11494      11604      11605      11616      11615  
     11496      11497      11508      11507      11617      11618      11629      11628  
     11497      11498      11509      11508      11618      11619      11630      11629  
     11498      11499      11510      11509      11619      11620      11631      11630  
     11499      11500      11511      11510      11620      11621      11632      11631  
     11500      11501      11512      11511      11621      11622      11633      11632  
     11501      11502      11513      11512      11622      11623      11634      11633  
     11502      11503      11514      11513      11623      11624      11635      11634  
     11503      11504      11515      11514      11624      11625      11636      11635  
     11504      11505      11516      11515      11625      11626      11637      11636  
     11505      11506      11517      11516      11626      11627      11638      11637  
     11507      11508      11519      11518      11628      11629      11640      11639  
     11508      11509      11520      11519      11629      11630      11641      11640  
     11509      11510      11521      11520      11630      11631      11642      11641  
     11510      11511      11522      11521      11631      11632      11643      11642  
     11511      11512      11523      11522      11632      11633      11644      11643  
     11512      11513      11524      11523      11633      11634      11645      11644  
     11513      11514      11525      11524      11634      11635      11646      11645  
     11514      11515      11526      11525      11635      11636      11647      11646  
     11515      11516      11527      11526      11636      11637      11648      11647  
     11516      11517      11528      11527      11637      11638      11649      11648  
     11518      11519      11530      11529      11639      11640      11651      11650  
     11519      11520      11531      11530      11640      11641      11652      11651  
     11520      11521      11532      11531      11641      11642      11653      11652  
     11521      11522      11533      11532      11642      11643      11654      11653  
     11522      11523      11534      11533      11643      11644      11655      11654  
     11523      11524      11535      11534      11644      11645      11656      11655  
     11524      11525      11536      11535      11645      11646      11657      11656  
     11525      11526      11537      11536      11646      11647      11658      11657  
     11526      11527      11538      11537      11647      11648      11659      11658  
     11527      11528      11539      11538      11648      11649      11660      11659  
     11529      11530      11541      11540      11650      11651      11662      11661  
     11530      11531      11542      11541      11651      11652      11663      11662  
     11531      11532      11543      11542      11652      11653      11664      11663  
     11532      11533      11544      11543      11653      11654      11665      11664  
     11533      11534      11545      11544      11654      11655      11666      11665  
     11534      11535      11546      11545      11655      11656      11667      11666  
     11535      11536      11547      11546      11656      11657      11668      11667  
     11536      11537      11548      11547      11657      11658      11669      11668  
     11537      11538      11549      11548      11658      11659      11670      11669  
     11538      11539      11550      11549      11659      11660      11671      11670  
     11540      11541      11552      11551      11661      11662      11673      11672  
     11541      11542      11553      11552      11662      11663      11674      11673  
     11542      11543      11554      11553      11663      11664      11675      11674  
     11543      11544      11555      11554      11664      11665      11676      11675  
     11544      11545      11556      11555      11665      11666      11677      11676  
     11545      11546      11557      11556      11666      11667      11678      11677  
     11546      11547      11558      11557      11667      11668      11679      11678  
     11547      11548      11559      11558      11668      11669      11680      11679  
     11548      11549      11560      11559      11669      11670      11681      11680  
     11549      11550      11561      11560      11670      11671      11682      11681  
     11551      11552      11563      11562      11672      11673      11684      11683  
     11552      11553      11564      11563      11673      11674      11685      11684  
     11553      11554      11565      11564      11674      11675      11686      11685  
     11554      11555      11566      11565      11675      11676      11687      11686  
     11555      11556      11567      11566      11676      11677      11688      11687  
     11556      11557      11568      11567      11677      11678      11689      11688  
     11557      11558      11569      11568      11678      11679      11690      11689  
     11558      11559      11570      11569      11679      11680      11691      11690  
     11559      11560      11571      11570      11680      11681      11692      11691  
     11560      11561      11572      11571      11681      11682      11693      11692  
     11562      11563      11574      11573      11683      11684      11695      11694  
     11563      11564      11575      11574      11684      11685      11696      11695  
     11564      11565      11576      11575      11685      11686      11697      11696  
     11565      11566      11577      11576      11686      11687      11698      11697  
     11566      11567      11578      11577      11687      11688      11699      11698  
     11567      11568      11579      11578      11688      11689      11700      11699  
     11568      11569      11580      11579      11689      11690      11701      11700  
     11569      11570      11581      11580      11690      11691      11702      11701  
     11570      11571      11582      11581      11691      11692      11703      11702  
     11571      11572      11583      11582      11692      11693      11704      11703  
     11573      11574      11585      11584      11694      11695      11706      11705  
     11574      11575      11586      11585      11695      11696      11707      11706  
     11575      11576      11587      11586      11696      11697      11708      11707  
     11576      11577      11588      11587      11697      11698      11709      11708  
     11577      11578      11589      11588      11698      11699      11710      11709  
     11578      11579      11590      11589      11699      11700      11711      11710  
     11579      11580      11591      11590      11700      11701      11712      11711  
     11580      11581      11592      11591      11701      11702      11713      11712  
     11581      11582      11593      11592      11702      11703      11714      11713  
     11582      11583      11594      11593      11703      11704      11715      11714  
     11584      11585      11596      11595      11705      11706      11717      11716  
     11585      11586      11597      11596      11706      11707      11718      11717  
     11586      11587      11598      11597      11707      11708      11719      11718  
     11587      11588      11599      11598      11708      11709      11720      11719  
     11588      11589      11600      11599      11709      11710      11721      11720  
     11589      11590      11601      11600      11710      11711      11722      11721  
     11590      11591      11602      11601      11711      11712      11723      11722  
     11591      11592      11603      11602      11712      11713      11724      11723  
     11592      11593      11604      11603      11713      11714      11725      11724  
     11593      11594      11605      11604      11714      11715      11726      11725  
     11595      11596      11607      11606      11716      11717      11728      11727  
     11596      11597      11608      11607      11717      11718      11729      11728  
     11597      11598      11609      11608      11718      11719      11730      11729  
     11598      11599      11610      11609      11719      11720      11731      11730  
     11599      11600      11611      11610      11720      11721      11732      11731  
     11600      11601      11612      11611      11721      11722      11733      11732  
     11601      11602      11613      11612      11722      11723      11734      11733  
     11602      11603      11614      11613      11723      11724      11735      11734  
     11603      11604      11615      11614      11724      11725      11736      11735  
     11604      11605      11616      11615      11725      11726      11737      11736  
     11617      11618      11629      11628      11738      11739      11750      11749  
     11618      11619      11630      11629      11739      11740      11751      11750  
     11619      11620      11631      11630      11740      11741      11752      11751  
     11620      11621      11632      11631      11741      11742      11753      11752  
     11621      11622      11633      11632      11742      11743      11754      11753  
     11622      11623      11634      11633      11743      11744      11755      11754  
     11623      11624      11635      11634      11744      11745      11756      11755  
     11624      11625      11636      11635      11745      11746      11757      11756  
     11625      11626      11637      11636      11746      11747      11758      11757  
     11626      11627      11638      11637      11747      11748      11759      11758  
     11628      11629      11640      11639      11749      11750      11761      11760  
     11629      11630      11641      11640      11750      11751      11762      11761  
     11630      11631      11642      11641      11751      11752      11763      11762  
     11631      11632      11643      11642      11752      11753      11764      11763  
     11632      11633      11644      11643      11753      11754      11765      11764  
     11633      11634      11645      11644      11754      11755      11766      11765  
     11634      11635      11646      11645      11755      11756      11767      11766  
     11635      11636      11647      11646      11756      11757      11768      11767  
     11636      11637      11648      11647      11757      11758      11769      11768  
     11637      11638      11649      11648      11758      11759      11770      11769  
     11639      11640      11651      11650      11760      11761      11772      11771  
     11640      11641      11652      11651      11761      11762      11773      11772  
     11641      11642      11653      11652      11762      11763      11774      11773  
     11642      11643      11654      11653      11763      11764      11775      11774  
     11643      11644      11655      11654      11764      11765      11776      11775  
     11644      11645      11656      11655      11765      11766      11777      11776  
     11645      11646      11657      11656      11766      11767      11778      11777  
     11646      11647      11658      11657      11767      11768      11779      11778  
     11647      11648      11659      11658      11768      11769      11780      11779  
     11648      11649      11660      11659      11769      11770      11781      11780  
     11650      11651      11662      11661      11771      11772      11783      11782  
     11651      11652      11663      11662      11772      11773      11784      11783  
     11652      11653      11664      11663      11773      11774      11785      11784  
     11653      11654      11665      11664      11774      11775      11786      11785  
     11654      11655      11666      11665      11775      11776      11787      11786  
     11655      11656      11667      11666      11776      11777      11788      11787  
     11656      11657      11668      11667      11777      11778      11789      11788  
     11657      11658      11669      11668      11778      11779      11790      11789  
     11658      11659      11670      11669      11779      11780      11791      11790  
     11659      11660      11671      11670      11780      11781      11792      11791  
     11661      11662      11673      11672      11782      11783      11794      11793  
     11662      11663      11674      11673      11783      11784      11795      11794  
     11663      11664      11675      11674      11784      11785      11796      11795  
     11664      11665      11676      11675      11785      11786      11797      11796  
     11665      11666      11677      11676      11786      11787      11798      11797  
     11666      11667      11678      11677      11787      11788      11799      11798  
     11667      11668      11679      11678      11788      11789      11800      11799  
     11668      11669      11680      11679      11789      11790      11801      11800  
     11669      11670      11681      11680      11790      11791      11802      11801  
     11670      11671      11682      11681      11791      11792      11803      11802  
     11672      11673      11684      11683      11793      11794      11805      11804  
     11673      11674      11685      11684      11794      11795      11806      11805  
     11674      11675      11686      11685      11795      11796      11807      11806  
     11675      11676      11687      11686      11796      11797      11808      11807  
     11676      11677      11688      11687      11797      11798      11809      11808  
     11677      11678      11689      11688      11798      11799      11810      11809  
     11678      11679      11690      11689      11799      11800      11811      11810  
     11679      11680      11691      11690      11800      11801      11812      11811  
     11680      11681      11692      11691      11801      11802      11813      11812  
     11681      11682      11693      11692      11802      11803      11814      11813  
     11683      11684      11695      11694      11804      11805      11816      11815  
     11684      11685      11696      11695      11805      11806      11817      11816  
     11685      11686      11697      11696      11806      11807      11818      11817  
     11686      11687      11698      11697      11807      11808      11819      11818  
     11687      11688      11699      11698      11808      11809      11820      11819  
     11688      11689      11700      11699      11809      11810      11821      11820  
     11689      11690      11701      11700      11810      11811      11822      11821  
     11690      11691      11702      11701      11811      11812      11823      11822  
     11691      11692      11703      11702      11812      11813      11824      11823  
     11692      11693      11704      11703      11813      11814      11825      11824  
     11694      11695      11706      11705      11815      11816      11827      11826  
     11695      11696      11707      11706      11816      11817      11828      11827  
     11696      11697      11708      11707      11817      11818      11829      11828  
     11697      11698      11709      11708      11818      11819      11830      11829  
     11698      11699      11710      11709      11819      11820      11831      11830  
     11699      11700      11711      11710      11820      11821      11832      11831  
     11700      11701      11712      11711      11821      11822      11833      11832  
     11701      11702      11713      11712      11822      11823      11834      11833  
     11702      11703      11714      11713      11823      11824      11835      11834  
     11703      11704      11715      11714      11824      11825      11836      11835  
     11705      11706      11717      11716      11826      11827      11838      11837  
     11706      11707      11718      11717      11827      11828      11839      11838  
     11707      11708      11719      11718      11828      11829      11840      11839  
     11708      11709      11720      11719      11829      11830      11841      11840  
     11709      11710      11721      11720      11830      11831      11842      11841  
     11710      11711      11722      11721      11831      11832      11843      11842  
     11711      11712      11723      11722      11832      11833      11844      11843  
     11712      11713      11724      11723      11833      11834      11845      11844  
     11713      11714      11725      11724      11834      11835      11846      11845  
     11714      11715      11726      11725      11835      11836      11847      11846  
     11716      11717      11728      11727      11837      11838      11849      11848  
     11717      11718      11729      11728      11838      11839      11850      11849  
     11718      11719      11730      11729      11839      11840      11851      11850  
     11719      11720      11731      11730      11840      11841      11852      11851  
     11720      11721      11732      11731      11841      11842      11853      11852  
     11721      11722      11733      11732      11842      11843      11854      11853  
     11722      11723      11734      11733      11843      11844      11855      11854  
     11723      11724      11735      11734      11844      11845      11856      11855  
     11724      11725      11736      11735      11845      11846      11857      11856  
     11725      11726      11737      11736      11846      11847      11858      11857  
     11738      11739      11750      11749      11859      11860      11871      11870  
     11739      11740      11751      11750      11860      11861      11872      11871  
     11740      11741      11752      11751      11861      11862      11873      11872  
     11741      11742      11753      11752      11862      11863      11874      11873  
     11742      11743      11754      11753      11863      11864      11875      11874  
     11743      11744      11755      11754      11864      11865      11876      11875  
     11744      11745      11756      11755      11865      11866      11877      11876  
     11745      11746      11757      11756      11866      11867      11878      11877  
     11746      11747      11758      11757      11867      11868      11879      11878  
     11747      11748      11759      11758      11868      11869      11880      11879  
     11749      11750      11761      11760      11870      11871      11882      11881  
     11750      11751      11762      11761      11871      11872      11883      11882  
     11751      11752      11763      11762      11872      11873      11884      11883  
     11752      11753      11764      11763      11873      11874      11885      11884  
     11753      11754      11765      11764      11874      11875      11886      11885  
     11754      11755      11766      11765      11875      11876      11887      11886  
     11755      11756      11767      11766      11876      11877      11888      11887  
     11756      11757      11768      11767      11877      11878      11889      11888  
     11757      11758      11769      11768      11878      11879      11890      11889  
     11758      11759      11770      11769      11879      11880      11891      11890  
     11760      11761      11772      11771      11881      11882      11893      11892  
     11761      11762      11773      11772      11882      11883      11894      11893  
     11762      11763      11774      11773      11883      11884      11895      11894  
     11763      11764      11775      11774      11884      11885      11896      11895  
     11764      11765      11776      11775      11885      11886      11897      11896  
     11765      11766      11777      11776      11886      11887      11898      11897  
     11766      11767      11778      11777      11887      11888      11899      11898  
     11767      11768      11779      11778      11888      11889      11900      11899  
     11768      11769      11780      11779      11889      11890      11901      11900  
     11769      11770      11781      11780      11890      11891      11902      11901  
     11771      11772      11783      11782      11892      11893      11904      11903  
     11772      11773      11784      11783      11893      11894      11905      11904  
     11773      11774      11785      11784      11894      11895      11906      11905  
     11774      11775      11786      11785      11895      11896      11907      11906  
     11775      11776      11787      11786      11896      11897      11908      11907  
     11776      11777      11788      11787      11897      11898      11909      11908  
     11777      11778      11789      11788      11898      11899      11910      11909  
     11778      11779      11790      11789      11899      11900      11911      11910  
     11779      11780      11791      11790      11900      11901      11912      11911  
     11780      11781      11792      11791      11901      11902      11913      11912  
     11782      11783      11794      11793      11903      11904      11915      11914  
     11783      11784      11795      11794      11904      11905      11916      11915  
     11784      11785      11796      11795      11905      11906      11917      11916  
     11785      11786      11797      11796      11906      11907      11918      11917  
     11786      11787      11798      11797      11907      11908      11919      11918  
     11787      11788      11799      11798      11908      11909      11920      11919  
     11788      11789      11800      11799      11909      11910      11921      11920  
     11789      11790      11801      11800      11910      11911      11922      11921  
     11790      11791      11802      11801      11911      11912      11923      11922  
     11791      11792      11803      11802      11912      11913      11924      11923  
     11793      11794      11805      11804      11914      11915      11926      11925  
     11794      11795      11806      11805      11915      11916      11927      11926  
     11795      11796      11807      11806      11916      11917      11928      11927  
     11796      11797      11808      11807      11917      11918      11929      11928  
     11797      11798      11809      11808      11918      11919      11930      11929  
     11798      11799      11810      11809      11919      11920      11931      11930  
     11799      11800      11811      11810      11920      11921      11932      11931  
     11800      11801      11812      11811      11921      11922      11933      11932  
     11801      11802      11813      11812      11922      11923      11934      11933  
     11802      11803      11814      11813      11923      11924      11935      11934  
     11804      11805      11816      11815      11925      11926      11937      11936  
     11805      11806      11817      11816      11926      11927      11938      11937  
     11806      11807      11818      11817      11927      11928      11939      11938  
     11807      11808      11819      11818      11928      11929      11940      11939  
     11808      11809      11820      11819      11929      11930      11941      11940  
     11809      11810      11821      11820      11930      11931      11942      11941  
     11810      11811      11822      11821      11931      11932      11943      11942  
     11811      11812      11823      11822      11932      11933      11944      11943  
     11812      11813      11824      11823      11933      11934      11945      11944  
     11813      11814      11825      11824      11934      11935      11946      11945  
     11815      11816      11827      11826      11936      11937      11948      11947  
     11816      11817      11828      11827      11937      11938      11949      11948  
     11817      11818      11829      11828      11938      11939      11950      11949  
     11818      11819      11830      11829      11939      11940      11951      11950  
     11819      11820      11831      11830      11940      11941      11952      11951  
     11820      11821      11832      11831      11941      11942      11953      11952  
     11821      11822      11833      11832      11942      11943      11954      11953  
     11822      11823      11834      11833      11943      11944      11955      11954  
     11823      11824      11835      11834      11944      11945      11956      11955  
     11824      11825      11836      11835      11945      11946      11957      11956  
     11826      11827      11838      11837      11947      11948      11959      11958  
     11827      11828      11839      11838      11948      11949      11960      11959  
     11828      11829      11840      11839      11949      11950      11961      11960  
     11829      11830      11841      11840      11950      11951      11962      11961  
     11830      11831      11842      11841      11951      11952      11963      11962  
     11831      11832      11843      11842      11952      11953      11964      11963  
     11832      11833      11844      11843      11953      11954      11965      11964  
     11833      11834      11845      11844      11954      11955      11966      11965  
     11834      11835      11846      11845      11955      11956      11967      11966  
     11835      11836      11847      11846      11956      11957      11968      11967  
     11837      11838      11849      11848      11958      11959      11970      11969  
     11838      11839      11850      11849      11959      11960      11971      11970  
     11839      11840      11851      11850      11960      11961      11972      11971  
     11840      11841      11852      11851      11961      11962      11973      11972  
     11841      11842      11853      11852      11962      11963      11974      11973  
     11842      11843      11854      11853      11963      11964      11975      11974  
     11843      11844      11855      11854      11964      11965      11976      11975  
     11844      11845      11856      11855      11965      11966      11977      11976  
     11845      11846      11857      11856      11966      11967      11978      11977  
     11846      11847      11858      11857      11967      11968      11979      11978  
     11859      11860      11871      11870      11980      11981      11992      11991  
     11860      11861      11872      11871      11981      11982      11993      11992  
     11861      11862      11873      11872      11982      11983      11994      11993  
     11862      11863      11874      11873      11983      11984      11995      11994  
     11863      11864      11875      11874      11984      11985      11996      11995  
     11864      11865      11876      11875      11985      11986      11997      11996  
     11865      11866      11877      11876      11986      11987      11998      11997  
     11866      11867      11878      11877      11987      11988      11999      11998  
     11867      11868      11879      11878      11988      11989      12000      11999  
     11868      11869      11880      11879      11989      11990      12001      12000  
     11870      11871      11882      11881      11991      11992      12003      12002  
     11871      11872      11883      11882      11992      11993      12004      12003  
     11872      11873      11884      11883      11993      11994      12005      12004  
     11873      11874      11885      11884      11994      11995      12006      12005  
     11874      11875      11886      11885      11995      11996      12007      12006  
     11875      11876      11887      11886      11996      11997      12008      12007  
     11876      11877      11888      11887      11997      11998      12009      12008  
     11877      11878      11889      11888      11998      11999      12010      12009  
     11878      11879      11890      11889      11999      12000      12011      12010  
     11879      11880      11891      11890      12000      12001      12012      12011  
     11881      11882      11893      11892      12002      12003      12014      12013  
     11882      11883      11894      11893      12003      12004      12015      12014  
     11883      11884      11895      11894      12004      12005      12016      12015  
     11884      11885      11896      11895      12005      12006      12017      12016  
     11885      11886      11897      11896      12006      12007      12018      12017  
     11886      11887      11898      11897      12007      12008      12019      12018  
     11887      11888      11899      11898      12008      12009      12020      12019  
     11888      11889      11900      11899      12009      12010      12021      12020  
     11889      11890      11901      11900      12010      12011      12022      12021  
     11890      11891      11902      11901      12011      12012      12023      12022  
     11892      11893      11904      11903      12013      12014      12025      12024  
     11893      11894      11905      11904      12014      12015      12026      12025  
     11894      11895      11906      11905      12015      12016      12027      12026  
     11895      11896      11907      11906      12016      12017      12028      12027  
     11896      11897      11908      11907      12017      12018      12029      12028  
     11897      11898      11909      11908      12018      12019      12030      12029  
     11898      11899      11910      11909      12019      12020      12031      12030  
     11899      11900      11911      11910      12020      12021      12032      12031  
     11900      11901      11912      11911      12021      12022      12033      12032  
     11901      11902      11913      11912      12022      12023      12034      12033  
     11903      11904      11915      11914      12024      12025      12036      12035  
     11904      11905      11916      11915      12025      12026      12037      12036  
     11905      11906      11917      11916      12026      12027      12038      12037  
     11906      11907      11918      11917      12027      12028      12039      12038  
     11907      11908      11919      11918      12028      12029      12040      12039  
     11908      11909      11920      11919      12029      12030      12041      12040  
     11909      11910      11921      11920      12030      12031      12042      12041  
     11910      11911      11922      11921      12031      12032      12043      12042  
     11911      11912      11923      11922      12032      12033      12044      12043  
     11912      11913      11924      11923      12033      12034      12045      12044  
     11914      11915      11926      11925      12035      12036      12047      12046  
     11915      11916      11927      11926      12036      12037      12048      12047  
     11916      11917      11928      11927      12037      12038      12049      12048  
     11917      11918      11929      11928      12038      12039      12050      12049  
     11918      11919      11930      11929      12039      12040      12051      12050  
     11919      11920      11931      11930      12040      12041      12052      12051  
     11920      11921      11932      11931      12041      12042      12053      12052  
     11921      11922      11933      11932      12042      12043      12054      12053  
     11922      11923      11934      11933      12043      12044      12055      12054  
     11923      11924      11935      11934      12044      12045      12056      12055  
     11925      11926      11937      11936      12046      12047      12058      12057  
     11926      11927      11938      11937      12047      12048      12059      12058  
     11927      11928      11939      11938      12048      12049      12060      12059  
     11928      11929      11940      11939      12049      12050      12061      12060  
     11929      11930      11941      11940      12050      12051      12062      12061  
     11930      11931      11942      11941      12051      12052      12063      12062  
     11931      11932      11943      11942      12052      12053      12064      12063  
     11932      11933      11944      11943      12053      12054      12065      12064  
     11933      11934      11945      11944      12054      12055      12066      12065  
     11934      11935      11946      11945      12055      12056      12067      12066  
     11936      11937      11948      11947      12057      12058      12069      12068  
     11937      11938      11949      11948      12058      12059      12070      12069  
     11938      11939      11950      11949      12059      12060      12071      12070  
     11939      11940      11951      11950      12060      12061      12072      12071  
     11940      11941      11952      11951      12061      12062      12073      12072  
     11941      11942      11953      11952      12062      12063      12074      12073  
     11942      11943      11954      11953      12063      12064      12075      12074  
     11943      11944      11955      11954      12064      12065      12076      12075  
     11944      11945      11956      11955      12065      12066      12077      12076  
     11945      11946      11957      11956      12066      12067      12078      12077  
     11947      11948      11959      11958      12068      12069      12080      12079  
     11948      11949      11960      11959      12069      12070      12081      12080  
     11949      11950      11961      11960      12070      12071      12082      12081  
     11950      11951      11962      11961      12071      12072      12083      12082  
     11951      11952      11963      11962      12072      12073      12084      12083  
     11952      11953      11964      11963      12073      12074      12085      12084  
     11953      11954      11965      11964      12074      12075      12086      12085  
     11954      11955      11966      11965      12075      12076      12087      12086  
     11955      11956      11967      11966      12076      12077      12088      12087  
     11956      11957      11968      11967      12077      12078      12089      12088  
     11958      11959      11970      11969      12079      12080      12091      12090  
     11959      11960      11971      11970      12080      12081      12092      12091  
     11960      11961      11972      11971      12081      12082      12093      12092  
     11961      11962      11973      11972      12082      12083      12094      12093  
     11962      11963      11974      11973      12083      12084      12095      12094  
     11963      11964      11975      11974      12084      12085      12096      12095  
     11964      11965      11976      11975      12085      12086      12097      12096  
     11965      11966      11977      11976      12086      12087      12098      12097  
     11966      11967      11978      11977      12087      12088      12099      12098  
     11967      11968      11979      11978      12088      12089      12100      12099  
     11980      11981      11992      11991      12101      12102      12113      12112  
     11981      11982      11993      11992      12102      12103      12114      12113  
     11982      11983      11994      11993      12103      12104      12115      12114  
     11983      11984      11995      11994      12104      12105      12116      12115  
     11984      11985      11996      11995      12105      12106      12117      12116  
     11985      11986      11997      11996      12106      12107      12118      12117  
     11986      11987      11998      11997      12107      12108      12119      12118  
     11987      11988      11999      11998      12108      12109      12120      12119  
     11988      11989      12000      11999      12109      12110      12121      12120  
     11989      11990      12001      12000      12110      12111      12122      12121  
     11991      11992      12003      12002      12112      12113      12124      12123  
     11992      11993      12004      12003      12113      12114      12125      12124  
     11993      11994      12005      12004      12114      12115      12126      12125  
     11994      11995      12006      12005      12115      12116      12127      12126  
     11995      11996      12007      12006      12116      12117      12128      12127  
     11996      11997      12008      12007      12117      12118      12129      12128  
     11997      11998      12009      12008      12118      12119      12130      12129  
     11998      11999      12010      12009      12119      12120      12131      12130  
     11999      12000      12011      12010      12120      12121      12132      12131  
     12000      12001      12012      12011      12121      12122      12133      12132  
     12002      12003      12014      12013      12123      12124      12135      12134  
     12003      12004      12015      12014      12124      12125      12136      12135  
     12004      12005      12016      12015      12125      12126      12137      12136  
     12005      12006      12017      12016      12126      12127      12138      12137  
     12006      12007      12018      12017      12127      12128      12139      12138  
     12007      12008      12019      12018      12128      12129      12140      12139  
     12008      12009      12020      12019      12129      12130      12141      12140  
     12009      12010      12021      12020      12130      12131      12142      12141  
     12010      12011      12022      12021      12131      12132      12143      12142  
     12011      12012      12023      12022      12132      12133      12144      12143  
     12013      12014      12025      12024      12134      12135      12146      12145  
     12014      12015      12026      12025      12135      12136      12147      12146  
     12015      12016      12027      12026      12136      12137      12148      12147  
     12016      12017      12028      12027      12137      12138      12149      12148  
     12017      12018      12029      12028      12138      12139      12150      12149  
     12018      12019      12030      12029      12139      12140      12151      12150  
     12019      12020      12031      12030      12140      12141      12152      12151  
     12020      12021      12032      12031      12141      12142      12153      12152  
     12021      12022      12033      12032      12142      12143      12154      12153  
     12022      12023      12034      12033      12143      12144      12155      12154  
     12024      12025      12036      12035      12145      12146      12157      12156  
     12025      12026      12037      12036      12146      12147      12158      12157  
     12026      12027      12038      12037      12147      12148      12159      12158  
     12027      12028      12039      12038      12148      12149      12160      12159  
     12028      12029      12040      12039      12149      12150      12161      12160  
     12029      12030      12041      12040      12150      12151      12162      12161  
     12030      12031      12042      12041      12151      12152      12163      12162  
     12031      12032      12043      12042      12152      12153      12164      12163  
     12032      12033      12044      12043      12153      12154      12165      12164  
     12033      12034      12045      12044      12154      12155      12166      12165  
     12035      12036      12047      12046      12156      12157      12168      12167  
     12036      12037      12048      12047      12157      12158      12169      12168  
     12037      12038      12049      12048      12158      12159      12170      12169  
     12038      12039      12050      12049      12159      12160      12171      12170  
     12039      12040      12051      12050      12160      12161      12172      12171  
     12040      12041      12052      12051      12161      12162      12173      12172  
     12041      12042      12053      12052      12162      12163      12174      12173  
     12042      12043      12054      12053      12163      12164      12175      12174  
     12043      12044      12055      12054      12164      12165      12176      12175  
     12044      12045      12056      12055      12165      12166      12177      12176  
     12046      12047      12058      12057      12167      12168      12179      12178  
     12047      12048      12059      12058      12168      12169      12180      12179  
     12048      12049      12060      12059      12169      12170      12181      12180  
     12049      12050      12061      12060      12170      12171      12182      12181  
     12050      12051      12062      12061      12171      12172      12183      12182  
     12051      12052      12063      12062      12172      12173      12184      12183  
     12052      12053      12064      12063      12173      12174      12185      12184  
     12053      12054      12065      12064      12174      12175      12186      12185  
     12054      12055      12066      12065      12175      12176      12187      12186  
     12055      12056      12067      12066      12176      12177      12188      12187  
     12057      12058      12069      12068      12178      12179      12190      12189  
     12058      12059      12070      12069      12179      12180      12191      12190  
     12059      12060      12071      12070      12180      12181      12192      12191  
     12060      12061      12072      12071      12181      12182      12193      12192  
     12061      12062      12073      12072      12182      12183      12194      12193  
     12062      12063      12074      12073      12183      12184      12195      12194  
     12063      12064      12075      12074      12184      12185      12196      12195  
     12064      12065      12076      12075      12185      12186      12197      12196  
     12065      12066      12077      12076      12186      12187      12198      12197  
     12066      12067      12078      12077      12187      12188      12199      12198  
     12068      12069      12080      12079      12189      12190      12201      12200  
     12069      12070      12081      12080      12190      12191      12202      12201  
     12070      12071      12082      12081      12191      12192      12203      12202  
     12071      12072      12083      12082      12192      12193      12204      12203  
     12072      12073      12084      12083      12193      12194      12205      12204  
     12073      12074      12085      12084      12194      12195      12206      12205  
     12074      12075      12086      12085      12195      12196      12207      12206  
     12075      12076      12087      12086      12196      12197      12208      12207  
     12076      12077      12088      12087      12197      12198      12209      12208  
     12077      12078      12089      12088      12198      12199      12210      12209  
     12079      12080      12091      12090      12200      12201      12212      12211  
     12080      12081      12092      12091      12201      12202      12213      12212  
     12081      12082      12093      12092      12202      12203      12214      12213  
     12082      12083      12094      12093      12203      12204      12215      12214  
     12083      12084      12095      12094      12204      12205      12216      12215  
     12084      12085      12096      12095      12205      12206      12217      12216  
     12085      12086      12097      12096      12206      12207      12218      12217  
     12086      12087      12098      12097      12207      12208      12219      12218  
     12087      12088      12099      12098      12208      12209      12220      12219  
     12088      12089      12100      12099      12209      12210      12221      12220  
