TITLE="results for TO code"
VARIABLES = "x", "y", "z", "density", "sigmaxx", "sigmayy", "sigmazz", "sigmaxy", "sigmaxz", "sigmayz"
ZONE T="load step 1", NODES= 12221, ELEMENTS= 10000, DATAPACKING=POINT, ZONETYPE=FEBRICK
               0.00000000                0.00000000                0.00000000                1.00000000               -0.00000000               -0.00000000                2.50331634                0.00000000                0.66891028                1.49059168
               1.00000000                0.00000000                0.00000000                1.00000000               -0.00000000                0.00000000                1.64668479               -0.00000000               -0.01090118                0.92283683
               2.00000000                0.00000000                0.00000000                1.00000000               -0.00000000                0.00000000                0.67272205                0.00000000               -0.22362208                0.35715152
               3.00000000                0.00000000                0.00000000                1.00000000               -0.00000000                0.00000000                0.01444449                0.00000000               -0.08690723                0.01427143
               4.00000000                0.00000000                0.00000000                1.00000000               -0.00000000                0.00000000               -0.02956425               -0.00000000                0.02097066               -0.03549083
               5.00000000                0.00000000                0.00000000                1.00000000               -0.00000000               -0.00000000               -0.00959850               -0.00000000                0.04686180               -0.00751278
               6.00000000                0.00000000                0.00000000                1.00000000               -0.00000000                0.00000000               -0.00415752                0.00000000                0.03121982                0.00724162
               7.00000000                0.00000000                0.00000000                1.00000000                0.00000000                0.00000000               -0.09730291               -0.00000000               -0.03193355               -0.07373715
               8.00000000                0.00000000                0.00000000                1.00000000               -0.00000000               -0.00000000               -0.81242015                0.00000000               -0.06784688               -0.53679900
               9.00000000                0.00000000                0.00000000                1.00000000                0.00000000                0.00000000               -2.05838974               -0.00000000                0.33122355               -1.20967060
              10.00000000                0.00000000                0.00000000                1.00000000                0.00000000               -0.00000000               -3.32434395                0.00000000                1.25645378               -1.77774466
               0.00000000                1.00000000                0.00000000                1.00000000               -0.00000000               -0.00000000                2.05243632               -0.00000000                1.01415945                0.77648454
               1.00000000                1.00000000                0.00000000                1.00000000                0.00000000               -0.00000000                1.16092808                0.00000000                0.36804396                0.42317349
               2.00000000                1.00000000                0.00000000                1.00000000                0.00000000                0.00000000                0.34560044               -0.00000000                0.09630289                0.07083540
               3.00000000                1.00000000                0.00000000                1.00000000                0.00000000               -0.00000000                0.00247030               -0.00000000                0.04609151               -0.03088813
               4.00000000                1.00000000                0.00000000                1.00000000                0.00000000               -0.00000000               -0.00174420                0.00000000                0.02758039               -0.02408817
               5.00000000                1.00000000                0.00000000                1.00000000                0.00000000               -0.00000000               -0.00292095                0.00000000                0.02661019               -0.00382553
               6.00000000                1.00000000                0.00000000                1.00000000                0.00000000               -0.00000000               -0.00657482               -0.00000000                0.04250689                0.01062528
               7.00000000                1.00000000                0.00000000                1.00000000               -0.00000000               -0.00000000               -0.04107977                0.00000000                0.09620472               -0.01329740
               8.00000000                1.00000000                0.00000000                1.00000000               -0.00000000               -0.00000000               -0.27383466               -0.00000000                0.23113375               -0.12275657
               9.00000000                1.00000000                0.00000000                1.00000000                0.00000000               -0.00000000               -1.35598744                0.00000000                0.63391085               -0.52816617
              10.00000000                1.00000000                0.00000000                1.00000000               -0.00000000                0.00000000               -2.94969057                0.00000000                1.54215499               -0.85681679
               0.00000000                2.00000000                0.00000000                1.00000000               -0.00000000                0.00000000                2.02114402                0.00000000                1.14654992                0.37421786
               1.00000000                2.00000000                0.00000000                1.00000000                0.00000000               -0.00000000                0.82562947               -0.00000000                0.46527246                0.16592900
               2.00000000                2.00000000                0.00000000                1.00000000               -0.00000000               -0.00000000                0.05662022                0.00000000                0.18011550               -0.02093915
               3.00000000                2.00000000                0.00000000                1.00000000                0.00000000               -0.00000000                0.00010671               -0.00000000                0.07016056               -0.01449273
               4.00000000                2.00000000                0.00000000                1.00000000                0.00000000               -0.00000000                0.00179404                0.00000000                0.02577875               -0.01159542
               5.00000000                2.00000000                0.00000000                1.00000000               -0.00000000                0.00000000               -0.00008083                0.00000000                0.01527594               -0.00391203
               6.00000000                2.00000000                0.00000000                1.00000000                0.00000000                0.00000000               -0.00040654                0.00000000                0.02823921               -0.00270319
               7.00000000                2.00000000                0.00000000                1.00000000                0.00000000               -0.00000000               -0.00973913               -0.00000000                0.07183672               -0.01943579
               8.00000000                2.00000000                0.00000000                1.00000000               -0.00000000                0.00000000                0.05068515                0.00000000                0.17117748               -0.07841461
               9.00000000                2.00000000                0.00000000                1.00000000               -0.00000000               -0.00000000               -0.68903585               -0.00000000                0.45733433               -0.20072288
              10.00000000                2.00000000                0.00000000                1.00000000                0.00000000                0.00000000               -2.35430620                0.00000000                1.46270107               -0.18264038
               0.00000000                3.00000000                0.00000000                1.00000000                0.00000000                0.00000000                1.92528038               -0.00000000                1.11002752                0.11424631
               1.00000000                3.00000000                0.00000000                1.00000000                0.00000000                0.00000000                0.53300975                0.00000000                0.44012591                0.04200595
               2.00000000                3.00000000                0.00000000                1.00000000               -0.00000000               -0.00000000               -0.05189768                0.00000000                0.18561706               -0.03045468
               3.00000000                3.00000000                0.00000000                1.00000000               -0.00000000               -0.00000000                0.01167951                0.00000000                0.07440937               -0.00701401
               4.00000000                3.00000000                0.00000000                1.00000000               -0.00000000                0.00000000                0.00084912               -0.00000000                0.02921470               -0.00434850
               5.00000000                3.00000000                0.00000000                1.00000000               -0.00000000               -0.00000000                0.00027831                0.00000000                0.01613764               -0.00336241
               6.00000000                3.00000000                0.00000000                1.00000000               -0.00000000                0.00000000               -0.00121795               -0.00000000                0.02152896               -0.00603079
               7.00000000                3.00000000                0.00000000                1.00000000                0.00000000                0.00000000               -0.00313205                0.00000000                0.04611033               -0.01903699
               8.00000000                3.00000000                0.00000000                1.00000000               -0.00000000                0.00000000                0.00301030               -0.00000000                0.09757994               -0.05215485
               9.00000000                3.00000000                0.00000000                1.00000000                0.00000000               -0.00000000               -0.26323880                0.00000000                0.22291335               -0.09367230
              10.00000000                3.00000000                0.00000000                1.00000000                0.00000000                0.00000000               -1.20697882               -0.00000000                0.94471493                0.04138323
               0.00000000                4.00000000                0.00000000                1.00000000                0.00000000               -0.00000000                1.75962160               -0.00000000                0.99419983               -0.03855623
               1.00000000                4.00000000                0.00000000                1.00000000               -0.00000000                0.00000000                0.33425407                0.00000000                0.39522116               -0.03407786
               2.00000000                4.00000000                0.00000000                1.00000000                0.00000000                0.00000000               -0.08065220                0.00000000                0.18538820               -0.03032269
               3.00000000                4.00000000                0.00000000                1.00000000                0.00000000               -0.00000000                0.01278314               -0.00000000                0.07488793               -0.00397597
               4.00000000                4.00000000                0.00000000                1.00000000                0.00000000               -0.00000000                0.00121085               -0.00000000                0.02947678               -0.00157151
               5.00000000                4.00000000                0.00000000                1.00000000                0.00000000                0.00000000                0.00037564               -0.00000000                0.01538483               -0.00207433
               6.00000000                4.00000000                0.00000000                1.00000000               -0.00000000               -0.00000000               -0.00040548                0.00000000                0.01624321               -0.00475532
               7.00000000                4.00000000                0.00000000                1.00000000               -0.00000000               -0.00000000               -0.00370451               -0.00000000                0.02968674               -0.01180233
               8.00000000                4.00000000                0.00000000                1.00000000                0.00000000               -0.00000000                0.01209169                0.00000000                0.05786811               -0.02274231
               9.00000000                4.00000000                0.00000000                1.00000000               -0.00000000                0.00000000               -0.20989739                0.00000000                0.13143666               -0.00065779
              10.00000000                4.00000000                0.00000000                1.00000000                0.00000000                0.00000000               -1.03747924                0.00000000                0.72017100                0.09112633
               0.00000000                5.00000000                0.00000000                1.00000000               -0.00000000               -0.00000000                1.57348041               -0.00000000                0.86270852               -0.12270282
               1.00000000                5.00000000                0.00000000                1.00000000                0.00000000                0.00000000                0.14870206                0.00000000                0.34623537               -0.07808159
               2.00000000                5.00000000                0.00000000                1.00000000               -0.00000000               -0.00000000               -0.09700769                0.00000000                0.17902490               -0.02836793
               3.00000000                5.00000000                0.00000000                1.00000000               -0.00000000                0.00000000                0.01405925                0.00000000                0.07324100               -0.00192665
               4.00000000                5.00000000                0.00000000                1.00000000                0.00000000               -0.00000000                0.00107172                0.00000000                0.02861117               -0.00011564
               5.00000000                5.00000000                0.00000000                1.00000000               -0.00000000               -0.00000000                0.00054688                0.00000000                0.01409450               -0.00088405
               6.00000000                5.00000000                0.00000000                1.00000000                0.00000000                0.00000000               -0.00024226               -0.00000000                0.01284635               -0.00255119
               7.00000000                5.00000000                0.00000000                1.00000000               -0.00000000                0.00000000               -0.00220209                0.00000000                0.02161703               -0.00499861
               8.00000000                5.00000000                0.00000000                1.00000000                0.00000000               -0.00000000                0.00861019                0.00000000                0.04310177               -0.00244621
               9.00000000                5.00000000                0.00000000                1.00000000               -0.00000000               -0.00000000               -0.14845272               -0.00000000                0.10752373                0.05532535
              10.00000000                5.00000000                0.00000000                1.00000000                0.00000000                0.00000000               -0.90268241                0.00000000                0.61069460                0.13374906
               0.00000000                6.00000000                0.00000000                1.00000000               -0.00000000               -0.00000000                1.37780125               -0.00000000                0.73314781               -0.16161083
               1.00000000                6.00000000                0.00000000                1.00000000                0.00000000               -0.00000000               -0.01929003                0.00000000                0.30392240               -0.09887123
               2.00000000                6.00000000                0.00000000                1.00000000               -0.00000000               -0.00000000               -0.10439457                0.00000000                0.17265799               -0.02448563
               3.00000000                6.00000000                0.00000000                1.00000000               -0.00000000                0.00000000                0.01425889                0.00000000                0.07064614                0.00013492
               4.00000000                6.00000000                0.00000000                1.00000000                0.00000000                0.00000000                0.00099255                0.00000000                0.02711947                0.00130295
               5.00000000                6.00000000                0.00000000                1.00000000               -0.00000000                0.00000000                0.00058235                0.00000000                0.01276346                0.00013259
               6.00000000                6.00000000                0.00000000                1.00000000               -0.00000000               -0.00000000               -0.00004387               -0.00000000                0.01105796               -0.00095891
               7.00000000                6.00000000                0.00000000                1.00000000               -0.00000000               -0.00000000               -0.00154390               -0.00000000                0.01880279               -0.00071885
               8.00000000                6.00000000                0.00000000                1.00000000                0.00000000                0.00000000                0.00521764               -0.00000000                0.04039618                0.00864732
               9.00000000                6.00000000                0.00000000                1.00000000                0.00000000               -0.00000000               -0.07890803                0.00000000                0.09880192                0.08796612
              10.00000000                6.00000000                0.00000000                1.00000000               -0.00000000                0.00000000               -0.77940713                0.00000000                0.50900966                0.17175828
               0.00000000                7.00000000                0.00000000                1.00000000                0.00000000                0.00000000                1.17747413                0.00000000                0.61496678               -0.17179121
               1.00000000                7.00000000                0.00000000                1.00000000               -0.00000000               -0.00000000               -0.17406166               -0.00000000                0.27289517               -0.09856571
               2.00000000                7.00000000                0.00000000                1.00000000               -0.00000000                0.00000000               -0.10858330                0.00000000                0.16859760               -0.01481380
               3.00000000                7.00000000                0.00000000                1.00000000               -0.00000000                0.00000000                0.01405591                0.00000000                0.06708222                0.00495310
               4.00000000                7.00000000                0.00000000                1.00000000               -0.00000000                0.00000000                0.00078614               -0.00000000                0.02443202                0.00357194
               5.00000000                7.00000000                0.00000000                1.00000000                0.00000000               -0.00000000                0.00058920               -0.00000000                0.01102387                0.00097153
               6.00000000                7.00000000                0.00000000                1.00000000                0.00000000                0.00000000                0.00001623               -0.00000000                0.00977596               -0.00062461
               7.00000000                7.00000000                0.00000000                1.00000000                0.00000000               -0.00000000               -0.00079679                0.00000000                0.01870507                0.00045393
               8.00000000                7.00000000                0.00000000                1.00000000               -0.00000000               -0.00000000                0.00051176                0.00000000                0.04348310                0.01435378
               9.00000000                7.00000000                0.00000000                1.00000000                0.00000000                0.00000000                0.00461112                0.00000000                0.09701945                0.11012642
              10.00000000                7.00000000                0.00000000                1.00000000               -0.00000000                0.00000000               -0.65005924               -0.00000000                0.40792331                0.19359529
               0.00000000                8.00000000                0.00000000                1.00000000               -0.00000000                0.00000000                0.96913272                0.00000000                0.51091056               -0.17057671
               1.00000000                8.00000000                0.00000000                1.00000000                0.00000000               -0.00000000               -0.31694541                0.00000000                0.25373402               -0.06790842
               2.00000000                8.00000000                0.00000000                1.00000000                0.00000000                0.00000000               -0.11844242               -0.00000000                0.16433575                0.01427642
               3.00000000                8.00000000                0.00000000                1.00000000                0.00000000               -0.00000000                0.01313361                0.00000000                0.05803773                0.01786250
               4.00000000                8.00000000                0.00000000                1.00000000                0.00000000                0.00000000                0.00059878               -0.00000000                0.01855923                0.00638472
               5.00000000                8.00000000                0.00000000                1.00000000               -0.00000000                0.00000000                0.00048910                0.00000000                0.00925761                0.00095860
               6.00000000                8.00000000                0.00000000                1.00000000               -0.00000000                0.00000000                0.00015689                0.00000000                0.00830138               -0.00074642
               7.00000000                8.00000000                0.00000000                1.00000000               -0.00000000               -0.00000000               -0.00036502                0.00000000                0.01651945               -0.00318537
               8.00000000                8.00000000                0.00000000                1.00000000               -0.00000000                0.00000000               -0.00244426               -0.00000000                0.05219873                0.01025132
               9.00000000                8.00000000                0.00000000                1.00000000               -0.00000000               -0.00000000                0.10346285               -0.00000000                0.11164561                0.12376072
              10.00000000                8.00000000                0.00000000                1.00000000               -0.00000000                0.00000000               -0.53034054                0.00000000                0.32462042                0.19757717
               0.00000000                9.00000000                0.00000000                1.00000000                0.00000000               -0.00000000                0.72025203               -0.00000000                0.39545205               -0.19987497
               1.00000000                9.00000000                0.00000000                1.00000000               -0.00000000               -0.00000000               -0.43935807                0.00000000                0.21954935                0.04211895
               2.00000000                9.00000000                0.00000000                1.00000000               -0.00000000               -0.00000000               -0.16462032                0.00000000                0.13647769                0.10456977
               3.00000000                9.00000000                0.00000000                1.00000000                0.00000000               -0.00000000                0.01700537                0.00000000                0.03388427                0.03791666
               4.00000000                9.00000000                0.00000000                1.00000000               -0.00000000               -0.00000000               -0.00018296                0.00000000                0.01538015                0.00444198
               5.00000000                9.00000000                0.00000000                1.00000000               -0.00000000               -0.00000000                0.00057111               -0.00000000                0.00887860                0.00079039
               6.00000000                9.00000000                0.00000000                1.00000000                0.00000000                0.00000000                0.00013076               -0.00000000                0.00769176               -0.00077062
               7.00000000                9.00000000                0.00000000                1.00000000                0.00000000                0.00000000                0.00072381               -0.00000000                0.01158611               -0.00569884
               8.00000000                9.00000000                0.00000000                1.00000000                0.00000000               -0.00000000               -0.00778549                0.00000000                0.04132825               -0.02397117
               9.00000000                9.00000000                0.00000000                1.00000000                0.00000000               -0.00000000                0.28183232                0.00000000                0.15208557                0.08094201
              10.00000000                9.00000000                0.00000000                1.00000000               -0.00000000                0.00000000               -0.43758385               -0.00000000                0.28790009                0.22138103
               0.00000000               10.00000000                0.00000000                1.00000000                0.00000000                0.00000000                0.54916048                0.00000000                0.00868962               -0.36053280
               1.00000000               10.00000000                0.00000000                1.00000000               -0.00000000               -0.00000000               -0.59447866               -0.00000000               -0.01157381                0.32019060
               2.00000000               10.00000000                0.00000000                1.00000000                0.00000000                0.00000000               -0.34970951                0.00000000                0.14501441                0.33898114
               3.00000000               10.00000000                0.00000000                1.00000000                0.00000000                0.00000000               -0.00401955               -0.00000000                0.08049977                0.05519185
               4.00000000               10.00000000                0.00000000                1.00000000               -0.00000000                0.00000000               -0.00407618               -0.00000000                0.03014761                0.01057318
               5.00000000               10.00000000                0.00000000                1.00000000                0.00000000                0.00000000               -0.00014948                0.00000000                0.01255158                0.00220507
               6.00000000               10.00000000                0.00000000                1.00000000                0.00000000               -0.00000000                0.00095591                0.00000000                0.01122409               -0.00200801
               7.00000000               10.00000000                0.00000000                1.00000000               -0.00000000               -0.00000000                0.00479269               -0.00000000                0.02238099               -0.01087157
               8.00000000               10.00000000                0.00000000                1.00000000               -0.00000000                0.00000000                0.02478473               -0.00000000                0.04680961               -0.06357081
               9.00000000               10.00000000                0.00000000                1.00000000               -0.00000000                0.00000000                0.42780648                0.00000000                0.04680718               -0.17355336
              10.00000000               10.00000000                0.00000000                1.00000000                0.00000000               -0.00000000               -0.45977115                0.00000000                0.03201497                0.39433897
               0.00668910                0.01490592                1.02503316                1.00000000               -0.67981146               -0.71410714                2.47213272               -0.22250569               -0.12852060                0.72430237
               0.99989099                0.00922837                1.01646685                1.00000000               -0.44626618               -0.49966334                1.64308872               -0.18777494               -0.47775788                0.23879222
               1.99776378                0.00357152                1.00672722                0.69626609               -0.03800302               -0.28631612                0.80934787               -0.13435773               -0.55172139               -0.06049069
               2.99913093                0.00014271                1.00014444                0.51446618                0.12229637               -0.04515956                0.09070780               -0.06332244               -0.04302244               -0.10278175
               4.00020971               -0.00035491                0.99970436                0.44701029                0.06688452                0.01140266               -0.20680707               -0.00428237                0.59227223               -0.14756581
               5.00046862               -0.00007513                0.99990402                0.44741682                0.00512458                0.00368725               -0.10131937                0.00111462                0.82526217               -0.02568877
               6.00031220                0.00007242                0.99995842                0.50344943               -0.03939767                0.00338366               -0.04991729               -0.02182511                0.67826513                0.08684827
               6.99968066               -0.00073737                0.99902697                0.62814469               -0.04953335                0.06043976               -0.44701668               -0.14388205                0.13906183                0.02067866
               7.99932153               -0.00536799                0.99187580                0.86304619                0.18157855                0.41404243               -1.32306939               -0.26898609               -0.40835065                0.10938110
               9.00331224               -0.01209671                0.97941610                1.00000000                0.66215033                0.68150442               -2.27524224               -0.31778552               -0.39196458               -0.21126259
              10.01256454               -0.01777745                0.96675656                1.00000000                0.92523024                0.92092788               -3.14269542               -0.28237286               -0.00693963               -0.95400452
               0.01014159                1.00776485                1.02052436                1.00000000               -0.64611549               -0.55818691                2.17421814               -0.11449123                0.20430767                0.59099531
               1.00368044                1.00423173                1.01160928                0.89387079               -0.45892828               -0.37845392                1.37365034               -0.11473775               -0.04727590                0.08234368
               2.00096303                1.00070835                1.00345600                0.21617035               -0.16097623               -0.18904534                0.58356959               -0.02516202                0.06065725               -0.19766763
               3.00046092                0.99969112                1.00002470                0.00010000               -0.03436125               -0.01438208                0.07631808                0.03107211                0.43229771               -0.16504829
               4.00027580                0.99975912                0.99998256                0.00010000               -0.00974066                0.01194771               -0.13828630                0.01593534                0.62577377               -0.15918819
               5.00026610                0.99996174                0.99997079                0.00010000                0.00746325                0.00180038               -0.08553893                0.00156379                0.69714248               -0.00082420
               6.00042507                1.00010625                0.99993425                0.00010000                0.03479726               -0.00497241               -0.09284054               -0.00622623                0.73370857                0.16464796
               7.00096205                0.99986703                0.99958920                0.10629076                0.09431343                0.02715068               -0.40221847               -0.01480579                0.70787672                0.18189846
               8.00231134                0.99877243                0.99726165                0.43094495                0.26885307                0.22919220               -1.21111636               -0.13792220                0.36415903                0.26472590
               9.00633911                0.99471834                0.98644013                1.00000000                0.65551062                0.50447386               -1.94358129               -0.30397472               -0.08056424                0.06664913
              10.01542155                0.99143183                0.97050309                1.00000000                0.90824413                0.79755214               -2.81613269               -0.22552697                0.03887607               -0.43882348
               0.01146550                2.00374218                1.02021144                1.00000000               -0.68127746               -0.33111911                2.01729661               -0.16035483                0.12567635                0.48343783
               1.00465272                2.00165929                1.00825629                0.65992577               -0.48321721               -0.19058377                1.15605875               -0.16153753                0.06491890               -0.01475624
               2.00180116                1.99979061                1.00056620                0.07213885               -0.19755595               -0.05064504                0.24421336               -0.04555378                0.53192570               -0.24095421
               3.00070161                1.99985507                1.00000107                0.00010000               -0.07716838                0.01193706               -0.46191623                0.01883080                1.09829876               -0.38579283
               4.00025779                1.99988405                1.00001794                0.00010000               -0.02744231                0.00986984               -0.03134673                0.00610750                1.27855248               -0.05444967
               5.00015276                1.99996088                0.99999919                0.00010000                0.00123023                0.00023156                0.01120391               -0.00079017                1.30642879                0.09811828
               6.00028239                1.99997297                0.99999593                0.00010000                0.02828039               -0.00832803                0.03509069               -0.01825084                1.35750513                0.24519718
               7.00071837                1.99980564                0.99990261                0.00010000                0.07146914               -0.00286980               -0.16235720               -0.06290290                1.55444054                0.39186167
               8.00171177                1.99921585                1.00050685                0.20349472                0.19274880                0.03530086               -1.19273375               -0.15742045                1.12053643                0.14317723
               9.00457334                1.99799277                0.99310964                0.68425501                0.64576179                0.21724694               -1.74157672               -0.25761164                0.20363366                0.17237725
              10.01462701                1.99817360                0.97645694                1.00000000                1.00536674                0.44910001               -2.94498336               -0.28063753                0.15182550                0.34175764
               0.01110028                3.00114246                1.01925280                1.00000000               -0.66990161               -0.20638704                1.89153984               -0.14841541                0.05559339                0.21425632
               1.00440126                3.00042006                1.00533010                0.59123964               -0.46220523               -0.10000343                0.87535413               -0.10737614                0.21593702               -0.08178153
               2.00185617                2.99969545                0.99948102                0.04014579               -0.18285827               -0.00469177               -0.18544263               -0.02187363                0.91918334               -0.21631793
               3.00074409                2.99992986                1.00011680                0.00010000               -0.07820118                0.00525838               -0.96407564                0.01541678                1.45170403               -0.41319047
               4.00029215                2.99995651                1.00000849                0.00010000               -0.02913587                0.00501195               -0.06956108                0.00367482                1.68634505               -0.01267527
               5.00016138                2.99996638                1.00000278                0.00010000               -0.00384287                0.00091885                0.08367098               -0.00078670                1.76622676                0.17479391
               6.00021529                2.99993969                0.99998782                0.00010000                0.01498635               -0.00102606                0.20632488               -0.01383529                1.77366614                0.33490295
               7.00046110                2.99980963                0.99996868                0.00010000                0.03802549                0.00381673                0.51520198               -0.04413703                1.63777445                0.55803357
               8.00097580                2.99947845                1.00003010                0.17775146                0.08840151                0.02783615               -0.31591276               -0.09397235                1.31995399                0.26094952
               9.00222913                2.99906328                0.99736761                0.62831643                0.42356749                0.10003255               -1.75556601               -0.11617979                0.78058967                0.02648637
              10.00944715                3.00041383                0.98793021                1.00000000                0.72180157                0.13688336               -3.46405887               -0.23620951                0.73585551                0.37737216
               0.00994200                3.99961444                1.01759622                1.00000000               -0.59897867               -0.11847456                1.75705463               -0.11918114                0.07545836                0.03103905
               1.00395221                3.99965922                1.00334254                0.55412506               -0.40440581               -0.06004377                0.54500982               -0.04282850                0.37057672               -0.11832253
               2.00185388                3.99969677                0.99919348                0.02331739               -0.16016661                0.00104338               -0.73779275                0.01175487                1.14949178               -0.23199703
               3.00074888                3.99996024                1.00012783                0.00010000               -0.07795571                0.00254368               -1.12504779                0.01379141                1.79468090               -0.28842733
               4.00029477                3.99998428                1.00001211                0.00010000               -0.02975155                0.00211643               -0.10211596                0.00064906                2.04531821                0.02857339
               5.00015385                3.99997926                1.00000376                0.00010000               -0.00661678                0.00123918                0.16702508               -0.00261348                2.14465512                0.22815212
               6.00016243                3.99995245                0.99999595                0.00010000                0.00715095                0.00173980                0.43560865               -0.00920531                2.12915700                0.42373233
               7.00029687                3.99988198                0.99996295                0.00010000                0.02081245                0.00701919                1.09007304               -0.02124014                1.86543827                0.68564458
               8.00057868                3.99977258                1.00012092                0.17422182                0.05087496                0.02485432                0.51482791               -0.02166681                1.31655107                0.46314430
               9.00131437                3.99999342                0.99790103                0.62449644                0.33115145                0.07449882               -1.35161129               -0.00076049                0.84445397                0.06576369
              10.00720171                4.00091126                0.98962521                1.00000000                0.58873434                0.04618292               -3.31297332               -0.07522605                0.77054148                0.08185754
               0.00862709                4.99877297                1.01573480                1.00000000               -0.51647314               -0.06152730                1.60492010               -0.08590478                0.08960403               -0.07128532
               1.00346235                4.99921918                1.00148702                0.52882165               -0.34184181               -0.03239668                0.23832468                0.00151806                0.50564159               -0.15438972
               2.00179025                4.99971632                0.99902992                0.01265416               -0.13649718                0.00291853               -1.28064694                0.03171237                1.33702655               -0.24110550
               3.00073241                4.99998073                1.00014059                0.00010000               -0.07520687                0.00205545               -1.14377816                0.01200525                2.09544139               -0.16415803
               4.00028611                4.99999884                1.00001072                0.00010000               -0.02957325                0.00143723               -0.09931867               -0.00065735                2.36552412                0.07611844
               5.00014094                4.99999116                1.00000547                0.00010000               -0.00788241                0.00110346                0.26554452               -0.00252846                2.48039928                0.25639990
               6.00012846                4.99997449                0.99999758                0.00010000                0.00376127                0.00189821                0.66460794               -0.00464991                2.46641521                0.46068447
               7.00021617                4.99995001                0.99997798                0.00010000                0.01512771                0.00554174                1.75152845               -0.00538948                2.07439802                0.78654688
               8.00043102                4.99997554                1.00008610                0.17905657                0.04295335                0.01569481                1.37984348                0.02142602                1.34939920                0.58650842
               9.00107524                5.00055325                0.99851547                0.63447476                0.28379641                0.04431195               -0.81113580                0.05178027                0.93116913                0.24628150
              10.00610695                5.00133749                0.99097318                1.00000000                0.50317087                0.04031598               -2.96209039               -0.02715695                0.83445060                0.20975103
               0.00733148                5.99838389                1.01377801                1.00000000               -0.42922542               -0.02454420                1.44465509               -0.06113127                0.11195371               -0.12886965
               1.00303922                5.99901129                0.99980710                0.51087588               -0.28024491               -0.01024206               -0.04987771                0.03189249                0.63499208               -0.16179502
               2.00172658                5.99975514                0.99895605                0.00602201               -0.11663813                0.00677706               -1.79288573                0.04428942                1.49585252               -0.21550640
               3.00070646                6.00000135                1.00014259                0.00010000               -0.07276926                0.00343987               -1.10057999                0.00981490                2.34237733               -0.06570018
               4.00027119                6.00001303                1.00000993                0.00010000               -0.02894134                0.00184379               -0.07694510               -0.00209074                2.63518279                0.10471626
               5.00012763                6.00000133                1.00000582                0.00010000               -0.00803076                0.00092779                0.37074230               -0.00266624                2.77620682                0.24716633
               6.00011058                5.99999041                0.99999956                0.00010000                0.00301966                0.00096329                0.89459361               -0.00196092                2.77119192                0.44312949
               7.00018803                5.99999281                0.99998456                0.00010000                0.01466911                0.00272627                2.53205433                0.00334713                2.26391329                0.83042914
               8.00040396                6.00008647                1.00005218                0.18841188                0.03999957                0.00839999                2.23899310                0.04453315                1.41969399                0.64400881
               9.00098802                6.00087966                0.99921092                0.65056517                0.23430674                0.02740054               -0.22504173                0.07630334                1.04776520                0.35656460
              10.00509010                6.00171758                0.99220593                1.00000000                0.41020774                0.02992311               -2.51726102               -0.01759347                0.90399822                0.29785822
               0.00614967                6.99828209                1.01177474                1.00000000               -0.34207161               -0.00448294                1.27582875               -0.03789312                0.14155798               -0.16293134
               1.00272895                6.99901434                0.99825938                0.50143306               -0.22318459                0.01548140               -0.31727044                0.05339452                0.75966214               -0.14495081
               2.00168598                6.99985186                0.99891417                0.00336563               -0.10290648                0.01938103               -2.25795021                0.04759828                1.63140591               -0.14591321
               3.00067082                7.00004953                1.00014056                0.00010000               -0.07208279                0.00886379               -1.05972789                0.00288867                2.53236673                0.01088501
               4.00024432                7.00003572                1.00000786                0.00010000               -0.02802917                0.00254089               -0.04818047               -0.00627090                2.84928878                0.10241740
               5.00011024                7.00000972                1.00000589                0.00010000               -0.00732803                0.00041300                0.47279600               -0.00385120                3.02037534                0.18880852
               6.00009776                6.99999375                1.00000016                0.00010000                0.00384060                0.00010625                1.11480194               -0.00163709                3.02932707                0.35251722
               7.00018705                7.00000454                0.99999203                0.00497421                0.01685357               -0.00123326                3.44674394                0.00634752                2.40351124                0.77819741
               8.00043483                7.00014354                1.00000512                0.20304197                0.03915719                0.00080200                3.04861145                0.06073753                1.52119113                0.60685410
               9.00097019                7.00110126                1.00004611                0.67403743                0.18222011                0.01789730                0.34970561                0.09604260                1.18590542                0.40237847
              10.00407923                7.00193595                0.99349941                1.00000000                0.31090387                0.01290944               -2.04618424               -0.00872575                0.97571379                0.33252499
               0.00510911                7.99829423                1.00969133                1.00000000               -0.25717654               -0.01404188                1.09383564               -0.00708908                0.17425751               -0.20876958
               1.00253734                7.99932092                0.99683055                0.51029266               -0.17328741                0.07034233               -0.56055035                0.06575365                0.86984606               -0.09188971
               2.00164336                8.00014276                0.99881558                0.00693621               -0.09784815                0.05969179               -2.64343271                0.02682551                1.73632409               -0.02151752
               3.00058038                8.00017863                1.00013134                0.00010000               -0.07288826                0.01648178               -1.07075115               -0.02054482                2.66435164                0.08828311
               4.00018559                8.00006385                1.00000599                0.00010000               -0.02439006                0.00043502               -0.02727708               -0.01297789                2.99423910                0.06518154
               5.00009258                8.00000959                1.00000489                0.00010000               -0.00512893               -0.00009057                0.56308386               -0.00463821                3.20354942                0.06435164
               6.00008301                7.99999254                1.00000157                0.00010000                0.00363092               -0.00007301                1.30470693               -0.00311409                3.21828014                0.17086784
               7.00016519                7.99996815                0.99999635                0.01772991                0.02194868               -0.00307638                4.51644085                0.00193939                2.43989447                0.57794309
               8.00052199                8.00010251                0.99997556                0.22966507                0.04756308               -0.01916247                3.74689351                0.06239562                1.64594311                0.46006741
               9.00111646                8.00123761                1.00103463                0.71787130                0.13621084               -0.01459221                0.86728848                0.12119599                1.32522118                0.41515766
              10.00324620                8.00197577                0.99469659                1.00000000                0.21297481                0.01389287               -1.58168609                0.01380484                1.02272042                0.30655243
               0.00395452                8.99800125                1.00720252                1.00000000               -0.17590270               -0.09497804                0.89282294               -0.00911656                0.21210181               -0.23734997
               1.00219549                9.00042119                0.99560642                0.56340856               -0.12948718                0.19404951               -0.77428077                0.01956845                0.92509329               -0.01044483
               2.00136478                9.00104570                0.99835380                0.02518916               -0.09283254                0.16235236               -2.85033165               -0.01176181                1.79462932                0.12037361
               3.00033884                9.00037917                1.00017005                0.00010000               -0.06054877                0.01866468               -1.21357627               -0.03883287                2.74174119                0.19328680
               4.00015380                9.00004442                0.99999817                0.00010000               -0.01250284                0.00209423               -0.01038887               -0.01276895                3.08596279               -0.00457060
               5.00008879                9.00000790                1.00000571                0.00010000               -0.00384420                0.00062323                0.62861240               -0.00095931                3.30136841               -0.15671541
               6.00007692                8.99999229                1.00000131                0.00010000                0.00135376               -0.00063079                1.41318007               -0.00178326                3.34014018               -0.15939158
               7.00011586                8.99994301                1.00000724                0.04646951                0.01681825               -0.00384310                5.66205752               -0.00866951                2.36723074                0.23616559
               8.00041328                8.99976029                0.99992215                0.28875111                0.07024973               -0.03691107                4.24676339                0.04062586                1.79097281                0.24675804
               9.00152086                9.00080942                1.00281832                0.82191380                0.12328592               -0.14865704                1.24997321                0.09025689                1.43380853                0.32382100
              10.00287900                9.00221381                0.99562416                1.00000000                0.13581452                0.09838090               -1.13755090               -0.00586370                0.93030795                0.22796290
               0.00008690                9.99639467                1.00549160                1.00000000               -0.02026343               -0.16065783                0.69211685                0.29396096               -0.03901862               -0.29110424
               0.99988426               10.00320191                0.99405521                0.83003483                0.06816240                0.27807165               -0.95804162                0.11863381                0.69561676                0.13126530
               2.00145014               10.00338981                0.99650290                0.53059291                0.04603679                0.23441137               -2.97277573               -0.12396265                1.71040235                0.41533829
               3.00080500               10.00055192                0.99995980                0.44253663               -0.05743340                0.01727519               -1.31629627               -0.11758848                2.97818759                0.27300135
               4.00030148               10.00010573                0.99995924                0.42803827               -0.03397410                0.00613120                0.04142282               -0.01172593                3.30139049               -0.07230100
               5.00012552               10.00002205                0.99999851                0.44205919               -0.00946176                0.00141468                0.73680833               -0.00261761                3.47297840               -0.46847627
               6.00011224                9.99997992                1.00000956                0.47713766                0.00491470               -0.00123739                1.54974860               -0.00300599                3.34793418               -0.84794047
               7.00022381                9.99989128                1.00004793                0.54672162                0.01779276               -0.00517273                6.23713196               -0.01998652                2.26835997               -0.17763398
               8.00046810                9.99936429                1.00024785                0.68934081                0.01221310               -0.03959964                4.54544829               -0.07585954                1.91212327                0.01849533
               9.00046807                9.99826447                1.00427806                0.98903989               -0.00739732               -0.25449536                1.48404298                0.12367650                1.29498739                0.06199273
              10.00032015               10.00394339                0.99540229                1.00000000               -0.01479221                0.17295794               -0.82635944                0.31200721                0.56306363                0.24754441
               0.01456222                0.02350365                2.04944265                1.00000000               -0.58114335               -0.68620184                2.44533726               -0.16585698               -0.43082105                0.34988431
               1.00875079                0.01449098                2.03286177                1.00000000               -0.46371219               -0.46335518                1.66202691               -0.17134593               -0.39922860                0.05098319
               2.00528798                0.00533262                2.01618696                0.75470679               -0.12941857               -0.31249529                0.92204672               -0.06438173               -0.33542991               -0.22611397
               3.00616241               -0.00181615                2.00181416                0.54110227                0.33989496               -0.13414368                0.15472114                0.15368185                0.19712682               -0.14239891
               4.01208587               -0.00350772                1.99586386                0.45168014                0.50443809                0.00103706               -0.32903874                0.10679258                1.30023387               -0.10191462
               5.01625118               -0.00064733                1.99797361                0.45116515                0.11782361                0.05356658               -0.22282901                0.03864942                1.95410182                0.00038229
               6.01444235                0.00178531                1.99900165                0.52946231               -0.26936565                0.14701379               -0.18344868                0.05816313                1.42229545                0.08220044
               7.01086386               -0.00071089                1.99105967                0.70031778               -0.14992457                0.34732212               -0.76388119                0.07815701                0.38306897                0.12724836
               8.01144386               -0.00858409                1.97353861                1.00000000                0.32080418                0.52475528               -1.55949993                0.02071980               -0.13368601               -0.00073131
               9.01727995               -0.01827330                1.95449516                1.00000000                0.68682181                0.59127414               -2.26026033               -0.11272072               -0.10374075                0.11860211
              10.02518029               -0.02657316                1.93714609                1.00000000                0.79003451                0.80963109               -2.96345132               -0.08285679               -0.10947419               -0.24224532
               0.02191632                1.01664163                2.04348436                1.00000000               -0.57934775               -0.62816660                2.29652838               -0.08534031               -0.01211012                0.49488275
               1.01612284                1.00985743                2.02747301                1.00000000               -0.45592977               -0.42534601                1.52129695               -0.11205667                0.03984518                0.11371484
               2.01279772                1.00220767                2.01167139                0.38075654               -0.20017201               -0.30883608                0.73360850                0.02953758                0.32051702               -0.33199500
               3.01211940                0.99684241                2.00152636                0.01810152               -0.01141675               -0.29958987                0.07748731                0.53234053                0.85147626               -0.68729063
               4.01256939                0.99650265                1.99723427                0.00010000                0.09358776                0.11963954               -0.31648964                0.82664889                1.40170385               -0.10038290
               5.01399116                0.99988834                1.99828922                0.00010000                0.12431859                0.12888498               -0.20989209                0.83261008                1.69480908                0.07559051
               6.01505576                1.00325545                1.99814319                0.01347403                0.14194885                0.15325317               -0.17761527                0.78391655                1.51002827                0.30171699
               7.01683013                1.00276233                1.99195563                0.27701868                0.26882488                0.40843229               -0.71573272                0.65610232                0.89953917                0.40852904
               8.02043226                0.99666346                1.97577767                0.77282681                0.41585708                0.43395915               -1.55415733                0.13184763                0.56987424               -0.12514748
               9.02514727                0.98763944                1.96112837                1.00000000                0.61096633                0.53966781               -2.25137963               -0.21488359                0.51546362               -0.04383421
              10.03265158                0.98152315                1.94367735                1.00000000                0.75043097                0.79905966               -2.80139387               -0.05354782                0.26989931               -0.69386809
               0.02642382                2.01094032                2.04034593                1.00000000               -0.54802021               -0.48706394                2.07786044               -0.14357763                0.19744252                0.57487096
               1.02094362                2.00598406                2.02312117                1.00000000               -0.37650383               -0.32896517                1.29593931               -0.19083694                0.23378705                0.04458738
               2.01889374                1.99915590                2.00488427                0.19822332                0.07853105               -0.25806499                0.31369060               -0.14963803                0.43926067               -0.57715558
               3.02251424                1.99219205                1.99076168                0.00010000                0.33395918               -0.26164930               -0.54713940                0.80581943                1.81236705               -1.17122453
               4.02557293                1.99888507                1.99937307                0.00010000                0.18181722                0.16248366               -0.20279197                1.55049233                2.92234931                0.03097885
               5.02615058                2.00193037                2.00022408                0.00010000                0.08368803                0.18014871               -0.05418089                1.36596757                2.69473978                0.27936172
               6.02724669                2.00485037                2.00070181                0.00010000                0.22136562                0.17212995               -0.03204864                1.29895250                2.56909794                0.55968486
               7.03057789                2.00745776                1.99675286                0.12375633                0.09785051                0.41689968               -0.18601945                0.55638970                1.52820601                1.22970985
               8.02920370                2.00009510                1.97614533                0.46467897               -0.12276535                0.44707300               -1.22456752               -0.31849039                1.04247254                0.74994554
               9.02812259                1.99252006                1.96516847                1.00000000                0.35691105                0.40494495               -2.20090468               -0.40613248                0.90154619               -0.28576179
              10.03634192                1.98940804                1.94110033                1.00000000                0.82193301                0.64280104               -2.97301102               -0.26418599                0.01703580               -1.46303834
               0.02895728                3.00690035                2.03783080                1.00000000               -0.48667595               -0.34007676                1.89373820               -0.18258774                0.21780523                0.49923988
               1.02409052                3.00327812                2.01750708                0.92342466               -0.26801556               -0.22537162                1.01674876               -0.24916642                0.28626235               -0.14543849
               2.02359697                2.99704637                1.99629115                0.15649965                0.22080459               -0.16723688               -0.22261616               -0.21789469                0.60396013               -0.82701478
               3.02850661                2.99160943                1.98071849                0.00010000                0.51219718                0.10078023               -1.21560832                0.76333556                2.70449251               -0.80965049
               4.03384091                2.99975233                1.99860878                0.00010000                0.34192966                0.08420841               -0.32992594                1.36697007                4.12763748               -0.02344120
               5.03534521                3.00349131                2.00167342                0.00010000                0.08332568                0.13149918                0.09485828                1.18522031                3.63401268                0.38029412
               6.03550743                3.00669805                2.00412650                0.00010000               -0.13159996                0.18072574                0.39393233                1.14931338                3.83332073                0.77117110
               7.03271321                3.01110033                2.01030404                0.11666272               -0.32536396                0.31229179                0.81975520                0.27563882                2.74020776                1.73928493
               8.02900015                3.00560492                1.99368174                0.43689420               -0.25007610                0.45558960               -0.35486096               -0.80863640                0.83406895                1.64074590
               9.02771168                2.99573834                1.96488868                1.00000000                0.22958817                0.38236772               -2.03563553               -0.59817747                0.00075913                0.03565204
              10.03359191                2.99437917                1.93071882                1.00000000                0.58802262                0.45930757               -3.50007084               -0.35488941               -0.48171528               -1.03691255
               0.03001652                4.00413878                2.03514109                1.00000000               -0.42022453               -0.22539268                1.72992051               -0.19969710                0.13457965                0.37988336
               1.02581427                4.00147663                2.01090020                0.87562022               -0.19059865               -0.14152384                0.67403640               -0.28002147                0.17200244               -0.23464722
               2.02620454                3.99581116                1.98524415                0.13363652                0.46303575               -0.08155261               -0.85099598               -0.13894902                1.09384649               -0.97489657
               3.03507499                3.99420766                1.97749904                0.00010000                0.74129472                0.25463279               -1.61653215                0.85897516                3.63552624               -0.31176690
               4.04103044                4.00056924                1.99795768                0.00010000                0.39171391                0.08861126               -0.39972613                1.19786969                4.92418886                0.07986429
               5.04290927                4.00456036                2.00334050                0.00010000                0.07967511                0.08173088                0.27097328                1.10857838                4.48841498                0.47315169
               6.04262394                4.00846489                2.00871217                0.00010000               -0.28627360                0.12560123                0.87434902                1.14958015                4.85985370                0.91075751
               7.03718379                4.01370359                2.02180146                0.11857216               -0.71154956                0.23045032                1.85401626                0.47141134                3.72655014                1.83645646
               8.02839295                4.00920689                2.01029656                0.43747601               -0.48995026                0.30969920                0.53554655               -0.70429181                0.99797234                1.71689742
               9.02738479                4.00016741                1.97296777                1.00000000                0.17847582                0.39386969               -1.55183174               -0.52940381               -0.38247822                0.63047065
              10.03196247                3.99859419                1.93374053                1.00000000                0.45776780                0.36175629               -3.34561580               -0.24823787               -0.65935837               -0.07865682
               0.03028765                5.00239250                2.03209840                1.00000000               -0.34699348               -0.13780554                1.56854121               -0.18626593                0.08748239                0.27426629
               1.02681771                5.00044765                2.00476649                0.84128140               -0.11003442               -0.07424446                0.32486354               -0.26348280                0.03865174               -0.24224761
               2.02808696                4.99541531                1.97438706                0.11736362                0.70551604               -0.00027657               -1.47937677               -0.01842742                1.66019533               -0.95890172
               3.04092803                4.99670208                1.97712444                0.00010000                0.96793235                0.22391869               -1.83815529                0.84139630                4.56055370               -0.04096532
               4.04744561                5.00152455                1.99801363                0.00010000                0.43465460                0.07639696               -0.38895798                1.01169155                5.53355638                0.17986473
               5.04962113                5.00512593                2.00531089                0.00010000                0.09550940                0.01912734                0.47658551                1.01553781                5.23056971                0.52007969
               6.04935579                5.00921007                2.01329216                0.00010000               -0.41108448                0.01975577                1.37539942                1.17022800                5.87553637                0.93578180
               7.04139944                5.01570933                2.03503057                0.12470220               -1.04526519                0.14454688                2.92594950                0.53153463                4.67458125                2.08266065
               8.02845049                5.01179891                2.02759687                0.44721630               -0.68315636                0.18771368                1.44990634               -0.56595120                1.14863538                1.81005657
               9.02773631                5.00361574                1.98377728                1.00000000                0.16615579                0.27166204               -0.94167999               -0.43839232               -0.65853642                0.86929573
              10.03177361                5.00161430                1.94075819                1.00000000                0.40372973                0.24183730               -2.99413743               -0.19376970               -0.78621138                0.28764388
               0.03018090                6.00138267                2.02889310                1.00000000               -0.26591000               -0.07822193                1.40546667               -0.16038190                0.05061033                0.19051195
               1.02752180                5.99999174                1.99900245                0.81689193               -0.02996694               -0.01850545               -0.01776490               -0.21704687               -0.09812572               -0.23176705
               2.02958156                5.99580563                1.96414229                0.10579206                0.91359377                0.09034503               -2.07886508                0.06771382                2.23154167               -0.87443320
               3.04579368                5.99868603                1.97798840                0.00010000                1.16294300                0.17634355               -1.93978277                0.74585797                5.44160212                0.10613783
               4.05284042                6.00209718                1.99846110                0.00010000                0.48704127                0.02638670               -0.33335350                0.79658551                6.02862512                0.22744585
               5.05553450                6.00494290                2.00741485                0.00010000                0.13023399               -0.06744140                0.69689457                0.87784522                5.88484630                0.49753769
               6.05544510                6.00886000                2.01789187                0.00010000               -0.51544250               -0.10808682                1.89255935                1.14481168                6.92948196                0.88105955
               7.04522565                6.01659453                2.05064109                0.13379127               -1.31387899               -0.00785860                4.04327291                0.53834947                5.56667118                2.29652688
               8.02916752                6.01296116                2.04477986                0.46355308               -0.82120495                0.02073960                2.37014315               -0.45373113                1.20067939                1.78357471
               9.02880155                6.00560065                1.99549917                1.00000000                0.14612126                0.13040620               -0.28514275               -0.35213591               -0.85739306                0.95314200
              10.03208995                6.00343093                1.94965478                1.00000000                0.32883948                0.12727672               -2.54716313               -0.17526826               -0.82540270                0.46737108
               0.02986188                7.00082806                2.02551657                1.00000000               -0.18080583               -0.04929203                1.23712306               -0.12376143                0.02417501                0.11003353
               1.02805382                7.00007754                1.99365459                0.80315096                0.04425335                0.04117165               -0.34569192               -0.14274858               -0.22513370               -0.19307954
               2.03074694                6.99722221                1.95484100                0.09857571                1.07499116                0.21621958               -2.63085387                0.09977730                2.73606515               -0.69788624
               3.04955364                7.00022895                1.97880544                0.00010000                1.31867501                0.15250688               -1.98911101                0.55665085                6.22165208                0.14162513
               4.05712044                7.00205229                1.99903639                0.00010000                0.54307828               -0.03919296               -0.26740607                0.53594780                6.44653737                0.21392974
               5.06041521                7.00377710                2.00945592                0.00010000                0.17399793               -0.18278449                0.91233169                0.67684789                6.44673829                0.39437251
               6.06060040                7.00704834                2.02229604                0.00010000               -0.61749681               -0.27218967                2.41412049                1.03520498                8.03960238                0.71284844
               7.04806527                7.01555216                2.06893488                0.14643428               -1.51153289               -0.25254369                5.16929497                0.43818072                6.37499115                2.44212148
               8.03036974                7.01221370                2.06097223                0.48733706               -0.89207256               -0.18384199                3.24919451               -0.33076183                1.08610131                1.59840833
               9.03022382                7.00622386                2.00699411                1.00000000                0.11189697               -0.00348563                0.36439138               -0.25360162               -1.00205172                0.90556415
              10.03260768                7.00415983                1.95907632                1.00000000                0.23838644                0.02876810               -2.06991019               -0.15437617               -0.80975293                0.53574102
               0.02920671                8.00039683                2.02187671                1.00000000               -0.09340403               -0.06876677                1.06204665               -0.07954781                0.00347857                0.01965447
               1.02827267                8.00081517                1.98878899                0.80670188                0.11094893                0.12444492               -0.65062600               -0.04850186               -0.32487443               -0.12517919
               2.03142569                8.00013002                1.94713135                0.09778101                1.19119741                0.37489644               -3.09524711                0.07515036                3.10073891               -0.34020828
               3.05209662                8.00173617                1.97858498                0.00010000                1.42927678                0.19041573               -2.05341245                0.24100560                6.81148082                0.04607581
               4.06001123                8.00131332                1.99945446                0.00010000                0.59893933               -0.10484741               -0.22326529                0.21571010                6.80514100                0.14600331
               5.06407541                8.00128721                2.01126168                0.00010000                0.21814585               -0.34525127                1.10287309                0.38559574                6.90267214                0.19183840
               6.06437414                8.00341621                2.02609414                0.00010000               -0.76257532               -0.51220794                2.90819307                0.82286588                9.22650716                0.38400968
               7.04882390                8.01154366                2.09032882                0.16649808               -1.62467803               -0.54402124                6.22021799                0.26133085                7.05540073                2.42377676
               8.03188058                8.00928432                2.07493787                0.52580091               -0.85202573               -0.37754150                4.02364976               -0.16870435                0.72510620                1.20355643
               9.03178339                8.00553094                2.01734577                1.00000000                0.06249464               -0.14954384                0.96050856               -0.12638451               -1.08755854                0.69887357
              10.03313048                8.00400629                1.96836628                1.00000000                0.13470899               -0.01531349               -1.59557785               -0.13312466               -0.74451436                0.55396449
               0.02743424                8.99945272                2.01785646                1.00000000               -0.00836487               -0.13985415                0.89643990               -0.04434383               -0.02153193               -0.05015249
               1.02735059                9.00256644                1.98451438                0.81493323                0.19473570                0.24562739               -0.93654727               -0.00521088               -0.33012726               -0.04937252
               2.03132895                9.00472014                1.94299337                0.10491192                1.29199305                0.59392649               -3.39547813               -0.08257020                3.19520072                0.06824996
               3.05319045                9.00403727                1.97572847                0.00010000                1.52773232                0.20721790               -2.17802238               -0.03770038                7.03338453                0.00757299
               4.06188360                8.99995534                1.99979222                0.00010000                0.64168904               -0.13407387               -0.21499891               -0.05936541                7.19310765                0.03987943
               5.06602423                8.99687208                2.01257225                0.00010000                0.24588392               -0.53211636                1.25473467                0.10913401                7.21852453               -0.04122291
               6.06680128                8.99680418                2.02826360                0.00010000               -0.93002269               -1.01957620                3.36089957                0.51673875               10.42698409                0.02034872
               7.04742378                9.00467173                2.11324115                0.19585038               -1.68964528               -0.75888565                6.95464943                0.20818516                7.56212464                1.65831861
               8.03300837                9.00466287                2.08493527                0.58098266               -0.72248115               -0.47829093                4.58528744                0.03464965                0.09639160                0.67928405
               9.03297415                9.00323298                2.02499946                1.00000000               -0.00069444               -0.36052849                1.44275396               -0.09236933               -1.08967454                0.38075993
              10.03299448                9.00385356                1.97724898                1.00000000                0.00203281                0.06941697               -1.16247808               -0.14382453               -0.56291696                0.43996642
               0.02209241                9.99759975                2.01384234                1.00000000                0.08086248               -0.18529766                0.65505352                0.27861437               -0.02584611               -0.04043545
               1.02290104               10.00572772                1.98083917                0.89062854                0.31055228                0.31612818               -1.18492466                0.27548474               -0.31106106               -0.03869850
               2.02830346               10.01200855                1.94054449                0.55454079                1.66031918                0.72884067               -3.51757615               -0.29490922                3.14841612                0.23119972
               3.05610742               10.00588053                1.97367407                0.45094670                1.88428266                0.18432578               -2.23800253               -0.37713842                7.29688216               -0.06569283
               4.06598911                9.99863184                2.00082846                0.43008473                0.66509142               -0.13234931               -0.19552403               -0.35123088                7.63293795               -0.15707090
               5.06940925                9.99064489                2.01473617                0.44994338                0.04600764               -0.62271911                1.32793190               -0.44185624                7.48310672               -0.25099872
               6.06690926                9.98302469                2.03099497                0.50373399               -1.21401679               -1.37794906                3.54694036                0.29685132               10.92746710               -0.26101824
               7.04512891                9.99636594                2.12474264                0.60767858               -1.64484672               -0.83057920                7.31896567                0.60520414                7.74036653                0.81990032
               8.03401233                9.99971850                2.09090897                0.80508827               -0.71918024               -0.49443687                4.94915296                0.19811706               -0.17343805                0.39156770
               9.03074531                9.99832037                2.02968086                1.00000000               -0.24997511               -0.49126124                1.84691595                0.06092183               -1.06197662                0.25453707
              10.02901283               10.00539463                1.98347281                1.00000000               -0.17324814                0.15410701               -0.70998486                0.30926055               -0.38104871                0.25643887
               0.03123444                0.03382019                3.07393991                1.00000000               -0.60723287               -0.70609639                2.46084162               -0.21069575               -0.35626419                0.39833338
               1.02516211                0.02102557                3.04970739                1.00000000               -0.45658213               -0.47789360                1.67832807               -0.17417091               -0.37828151                0.00141188
               2.02210280                0.00808037                3.02516815                0.73553672               -0.08827751               -0.27092228                0.89471044               -0.03604061               -0.24351757               -0.31143990
               3.02339656               -0.00212968                3.00323887                0.53511041                0.39760640               -0.08725382                0.16845668                0.19237958                0.51704621               -0.09405707
               4.03005493               -0.00513403                2.99312358                0.44935633                0.65081478               -0.06237150               -0.23957002                0.22075815                1.81928743               -0.04084746
               5.03641286               -0.00069870                2.99544743                0.44986900                0.28085629               -0.00782112               -0.27395370                0.11242030                2.54823388                0.02326635
               6.03567205                0.00343336                2.99628945                0.52939797               -0.18038863                0.10070781               -0.34475521                0.16443552                1.89776303                0.08406585
               7.03280509                0.00001567                2.98374935                0.69868401               -0.12298656                0.23287499               -0.76728788                0.18662145                0.73332119                0.09746107
               8.03321232               -0.00986074                2.96068580                0.98276849                0.24124275                0.35235094               -1.34464951               -0.01796280                0.03133343                0.23024148
               9.03762994               -0.02299110                2.93421090                1.00000000                0.59304296                0.61594453               -2.10578457               -0.17932956               -0.20154012                0.08570476
              10.04507318               -0.03568486                2.90748753                1.00000000                0.74432403                0.92850912               -2.97229005               -0.20453498               -0.23546642               -0.30488458
               0.04192210                1.02675922                3.06645493                1.00000000               -0.56317899               -0.64635114                2.27684699               -0.11978806               -0.00770283                0.53205046
               1.03629031                1.01624663                3.04203522                1.00000000               -0.43010447               -0.42543027                1.44051463               -0.08800306                0.03141995               -0.00815019
               2.03332001                1.00537114                3.01812817                0.35128706               -0.21813779               -0.22263128                0.63216348                0.07971120                0.43594900               -0.50023017
               3.03192756                0.99699779                3.00157445                0.01248025               -0.08864967               -0.03159342                0.02335805                0.39673471                1.18399050               -0.62997872
               4.03154702                0.99424225                2.99365277                0.00010000                0.06629051                0.21315750               -0.33941260                1.07063730                2.04022683                0.00105688
               5.03325337                0.99922309                2.99577295                0.00010000                0.27061019                0.14313077               -0.26461659                1.32520638                2.49002888                0.11263483
               6.03695922                1.00444043                2.99638195                0.02398769                0.40324893                0.08750008               -0.22385647                1.12924241                2.05575237                0.20433174
               7.04131835                1.00234442                2.98527455                0.29123184                0.37884269                0.30178814               -0.62298060                0.61281143                1.26086424                0.51798646
               8.04453608                0.99366277                2.96617851                0.76294361                0.37151804                0.30857152               -1.01310001                0.08786100                0.61429143                0.39344075
               9.04874871                0.98316834                2.94141253                1.00000000                0.55927567                0.57541657               -1.91544240               -0.00216123                0.21719493                0.12554394
              10.05572159                0.97360023                2.91447522                1.00000000                0.69728844                0.87781075               -2.80868795               -0.05527091                0.06494510               -0.51463904
               0.04986386                2.02089316                3.06176865                1.00000000               -0.50737334               -0.52135612                2.09483357               -0.12853499                0.06072071                0.66549997
               1.04479013                2.01251696                3.03417508                0.95538924               -0.34589980               -0.32571814                1.13371261               -0.09447905                0.09855600               -0.04391834
               2.04294587                2.00362774                3.00684001                0.17484120               -0.11649912               -0.12879322                0.24361228                0.10627244                0.58037021               -0.67831044
               3.04246015                1.99723846                2.98905828                0.00010000                0.31482515                0.00008474               -0.22793202                0.80450660                2.06123281               -0.96032687
               4.04924237                1.99912912                2.99596210                0.00010000                0.51293292                0.33304112               -0.34823025                1.76342011                3.26493503                0.04983820
               5.05271881                2.00216392                2.99891557                0.00010000                0.29466012                0.26163729               -0.18679396                2.00623904                3.09531335                0.29165920
               6.05513557                2.00518336                2.99935496                0.00010000                0.15600847                0.14561608               -0.12572952                1.75896869                2.89549071                0.51595655
               7.05583898                2.00605143                2.99618222                0.13670578               -0.04949786                0.36011533               -0.01631995                0.77595003                1.76065577                1.32666169
               8.05414562                1.99631069                2.97601550                0.45680241                0.09051416                0.22396823               -0.29894554                0.05011295                0.73400053                0.93927312
               9.05764926                1.98851723                2.94909155                1.00000000                0.44791882                0.44043329               -1.51815331                0.10095953                0.35696666                0.15106904
              10.06310399                1.98187135                2.91699672                1.00000000                0.54547331                0.67175758               -2.30825506               -0.04303938               -0.03513004               -0.87206330
               0.05610381                3.01633210                3.05712757                1.00000000               -0.44376527               -0.39743320                1.88056596               -0.09740721                0.06461805                0.61881879
               1.05166616                3.00973227                3.02566507                0.88838907               -0.26899196               -0.24050479                0.86005289               -0.05188716                0.12965540               -0.10670300
               2.05072397                3.00279528                2.99502870                0.13901380                0.04250789               -0.07624068               -0.07870199                0.07266547                0.70296911               -0.71485289
               3.05251631                2.99699948                2.97580463                0.00010000                0.55829977                0.00402481               -0.45965400                0.81967581                2.96006128               -0.64546127
               4.06188996                3.00090308                2.99340997                0.00010000                0.74037989                0.15238021               -0.47042928                1.55755349                4.49541361               -0.05907174
               5.06732391                3.00445583                3.00189995                0.00010000                0.31805601                0.18204520               -0.04085171                1.64492640                4.11989327                0.35458611
               6.06825108                3.00735275                3.00786647                0.00010000               -0.08069496                0.19092895                0.29976393                1.44269314                4.23243506                0.82716878
               7.06571001                3.00954672                3.01636378                0.13696135               -0.25892731                0.29165731                0.52152925                0.40969453                2.88278360                1.75306025
               8.06307254                2.99814214                2.99293288                0.43817421               -0.02513866                0.19423538               -0.13462761               -0.11717579                0.79356872                1.18657933
               9.06520724                2.99197701                2.95665490                0.98773581                0.25400101                0.25985006               -0.85535371                0.07324059                0.17614237                0.28772455
              10.06815256                2.98703538                2.91792879                1.00000000                0.29453201                0.37137021               -1.39448423               -0.02591131               -0.02798635               -0.76971164
               0.06111538                4.01294450                3.05219463                1.00000000               -0.38261758               -0.29129058                1.65949431               -0.07692627                0.06785343                0.54818262
               1.05728921                4.00770687                3.01682327                0.84742576               -0.19917099               -0.17301429                0.62937448               -0.02804989                0.12669788               -0.14702675
               2.05713196                4.00210293                2.98217356                0.12074689                0.17283302               -0.05775669               -0.29359294                0.07621651                1.13785425               -0.74050790
               3.06074587                3.99731895                2.96779719                0.00010000                0.79025617                0.08362948               -0.78568994                0.79372002                3.85676988               -0.27100654
               4.07293709                4.00217672                2.99201759                0.00010000                0.92108936                0.10948226               -0.53814172                1.46833444                5.44373978                0.10363622
               5.07916766                4.00580482                3.00542322                0.00010000                0.29807298                0.09312870                0.14793489                1.44875547                5.06368323                0.42076634
               6.07889855                4.00900194                3.01748293                0.00010000               -0.29620853                0.10788350                0.77081364                1.28740922                5.46197576                0.86889052
               7.07324349                4.01188458                3.03704328                0.14330300               -0.47633662                0.16084386                1.19207189                0.24432689                3.70379494                1.74563228
               8.06937181                4.00019540                3.01083185                0.44634410               -0.15113291                0.17756146                0.03150352               -0.32929365                0.87056438                1.11685630
               9.07022083                3.99371423                2.96686439                0.99727907                0.15486046                0.17153837               -0.57660260               -0.06803477                0.06042190                0.41815051
              10.07246902                3.98929876                2.92271289                1.00000000                0.22481969                0.20703707               -1.11140770               -0.02813021               -0.01792196               -0.46321553
               0.06504055                5.01050629                3.04710563                1.00000000               -0.30938206               -0.20842709                1.44801923               -0.07294997                0.06682069                0.47474632
               1.06194673                5.00627198                3.00798429                0.81526180               -0.12021688               -0.11095085                0.37322397               -0.01639123                0.11673198               -0.16284984
               2.06263621                5.00164015                2.96944239                0.10551617                0.31850947               -0.01451913               -0.51030466                0.13197918                1.72883820               -0.69860052
               3.06831692                4.99867207                2.96337749                0.00010000                1.00672867                0.15620739               -1.07197707                0.79631990                4.79784185               -0.02618281
               4.08277079                5.00309272                2.99223156                0.00010000                1.05784441                0.06812300               -0.54151652                1.30632508                6.19996514                0.21673524
               5.08947381                5.00631841                3.00953718                0.00010000                0.25743632                0.00011151                0.36991326                1.28219173                5.89159579                0.45049353
               6.08791951                5.00951042                3.02750557                0.00010000               -0.50353612               -0.01971070                1.27027726                1.15103117                6.61160306                0.86952408
               7.07940308                5.01276360                3.05849697                0.15119405               -0.66312509                0.00672315                1.78687472                0.17864587                4.44879984                1.72631377
               8.07465701                5.00169337                3.02908423                0.45841755               -0.23299492                0.10936037                0.16811432               -0.35840841                0.93803662                1.02779900
               9.07474319                4.99540778                2.97968187                1.00000000                0.08819457                0.15057210               -0.37908901               -0.08864150                0.01186716                0.47742255
              10.07642090                4.99117612                2.93109043                1.00000000                0.16777156                0.17240622               -0.95764910               -0.03307595               -0.02931303               -0.25062474
               0.06812500                6.00877596                3.04188735                1.00000000               -0.22974706               -0.15035705                1.23894819               -0.06298161                0.06871898                0.39476698
               1.06582753                6.00548785                2.99945180                0.79013337               -0.03767687               -0.04528887                0.10813037               -0.00041425                0.10447318               -0.15442290
               2.06737146                6.00181255                2.95737875                0.09257508                0.46960827                0.06324655               -0.73304380                0.17877335                2.38566842               -0.61935608
               3.07521969                6.00044310                2.96134693                0.00010000                1.20228961                0.18066927               -1.26567636                0.71590938                5.75159419                0.12650204
               4.09141725                6.00353918                2.99334286                0.00010000                1.15870475                0.01141165               -0.50098399                1.05588769                6.83541769                0.25030144
               5.09839379                6.00580705                3.01394371                0.00010000                0.20283635               -0.11340372                0.60990419                1.06900442                6.65020518                0.43136896
               6.09547398                6.00860772                3.03785075                0.00010000               -0.68801622               -0.17309841                1.77681501                0.98516627                7.74456992                0.84424265
               7.08463346                6.01201904                3.08085002                0.16094381               -0.79572538               -0.18021813                2.26629132                0.16912426                5.13933044                1.66907698
               8.07955947                6.00238261                3.04745504                0.47503555               -0.28341108                0.01301653                0.31791126               -0.29263765                0.92606731                0.92496528
               9.07896524                5.99672567                2.99350806                1.00000000                0.03556717                0.09790832               -0.18153336               -0.07769192               -0.03467802                0.46472558
              10.08027081                5.99274688                2.94126267                1.00000000                0.13055739                0.13815764               -0.82458889               -0.03293580               -0.02856586               -0.13804418
               0.07035714                7.00749915                3.03651720                1.00000000               -0.14552785               -0.12142597                1.03366439               -0.05183826                0.06959420                0.30817154
               1.06890186                7.00536621                2.99134554                0.77082647                0.04496463                0.02348448               -0.15997482                0.01818111                0.09027169               -0.12489394
               2.07125643                7.00290508                2.94629709                0.08124422                0.60033060                0.16868410               -0.95882676                0.17049721                3.02257161               -0.49293084
               3.08090847                7.00228546                2.96035834                0.00010000                1.36340809                0.18670042               -1.37759692                0.48415333                6.65533664                0.16021558
               4.09852459                7.00332095                2.99465974                0.00010000                1.24384436               -0.06555506               -0.44782760                0.69796695                7.39694426                0.21297588
               5.10578536                7.00405033                3.01825253                0.00010000                0.14431292               -0.25385120                0.84732415                0.79200275                7.37671898                0.36405400
               6.10141085                7.00604846                3.04828257                0.00010000               -0.83873363               -0.34512774                2.27071519                0.75904715                8.86636378                0.78081839
               7.08901068                7.00915924                3.10337793                0.17271853               -0.86566122               -0.39408147                2.56907374                0.18506275                5.77637105                1.52185687
               8.08409762                7.00195370                3.06498901                0.49615165               -0.30928048               -0.10860024                0.48469320               -0.16728037                0.82958746                0.77338316
               9.08282507                6.99736594                3.00733394                1.00000000               -0.01889275                0.02420268                0.03577880               -0.05213920               -0.07488201                0.40386690
              10.08371977                6.99393927                2.95210120                1.00000000                0.08946948                0.10677566               -0.68264962               -0.04046254               -0.02046192               -0.07537973
               0.07135412                8.00634744                3.03093226                1.00000000               -0.05688978               -0.12332857                0.83575205               -0.04644524                0.07318421                0.22413419
               1.07078522                8.00595754                2.98381803                0.75398744                0.12540176                0.10086797               -0.42989608                0.01964861                0.09521116               -0.08183594
               2.07386215                8.00518623                2.93691063                0.07132387                0.68508312                0.30462401               -1.19549649                0.05089218                3.54944277               -0.28379561
               3.08448688                8.00417711                2.95906309                0.00010000                1.48747803                0.15780362               -1.43145985                0.01705314                7.42319244                0.06306179
               4.10361171                8.00222808                2.99554068                0.00010000                1.35097288               -0.19264718               -0.41284994                0.26002541                7.93491755                0.10970489
               5.11150634                8.00073003                3.02206235                0.00010000                0.09671525               -0.41706892                1.05914588                0.48398136                8.08451254                0.26596830
               6.10554602                8.00170517                3.05816543                0.00409757               -0.95384306               -0.52750108                2.72500907                0.49721164                9.93856749                0.70133270
               7.09242948                8.00413741                3.12440071                0.18644399               -0.87694293               -0.52318384                2.55857749                0.20907201                6.37582722                1.14646784
               8.08800716                8.00021060                3.08044855                0.52138102               -0.32463000               -0.22894112                0.67445228               -0.02212532                0.68262198                0.51648258
               9.08593688                7.99720973                3.02024480                1.00000000               -0.08461294               -0.06382072                0.28125468               -0.03698158               -0.09399492                0.30602984
              10.08631490                7.99488239                2.96278504                1.00000000                0.03780225                0.09836654               -0.54111487               -0.06264032               -0.00691992               -0.06214848
               0.07020803                9.00503258                3.02513132                1.00000000                0.02480097               -0.13666158                0.64857656               -0.05379136                0.08453882                0.14797281
               1.07045604                9.00738356                2.97687547                0.70691918                0.19233355                0.19104157               -0.71945557                0.00703273                0.18656392               -0.04976213
               2.07405470                9.00899756                2.93044423                0.05597656                0.68758188                0.38626708               -1.50949472               -0.21103137                3.90501660               -0.05559398
               3.08420768                9.00544153                2.95660961                0.00010000                1.65587399               -0.04151233               -1.37339906               -0.37788789                8.00598464               -0.07053609
               4.10717218                8.99946801                2.99569819                0.00010000                1.58901100               -0.36681176               -0.42592718               -0.07230710                8.48858657               -0.01360901
               5.11598790                8.99570896                3.02510040                0.00010000                0.03877580               -0.50278933                1.21736819                0.20726102                8.79735499                0.15861903
               6.10794770                8.99549843                3.06721930                0.00320261               -1.06506051               -0.62041764                3.11995558                0.30478492               10.74002144                0.50419192
               7.09468669                8.99869556                3.13910023                0.18943313               -0.86824481               -0.54255483                2.15432091                0.22820539                6.83373356                0.58051000
               8.09058280                8.99737487                3.09162789                0.52606311               -0.36365184               -0.24811766                0.89915912                0.07239615                0.70519814                0.21276695
               9.08741365                8.99608953                3.03167340                1.00000000               -0.17305873               -0.16086547                0.61813917               -0.03702256               -0.02808616                0.19970429
              10.08712163                8.99590661                2.97237460                1.00000000               -0.02920246                0.08710570               -0.41520805               -0.07827369               -0.01798594               -0.09235044
               0.06557631               10.00361421                3.01859268                1.00000000                0.13845794               -0.14183694                0.38976652                0.15324457                0.22145261                0.14279030
               1.06696089               10.00977837                2.97035672                0.81541903                0.30036234                0.23948056               -1.04081301                0.11535332                0.43777974               -0.05581247
               2.07158356               10.01291157                2.92615138                0.51718816                0.97488889                0.39140117               -1.82213465               -0.56868955                4.28442608                0.00031905
               3.08645867               10.00334686                2.95519975                0.43926512                2.01572916               -0.20946668               -1.36771796               -0.67588691                8.49739307               -0.31125779
               4.11189814                9.99489185                2.99604876                0.42860824                1.65812322               -0.45761643               -0.51981375               -0.16103495                8.76779029               -0.10780663
               5.11962113                9.99067424                3.02655714                0.44866258               -0.16215164               -0.50347169                1.19616160                0.08357209                9.05554349                0.15836787
               6.10865511                9.98929681                3.07094837                0.49606619               -1.22519940               -0.62016208                3.22666902                0.20134502               11.22483222                0.68412776
               7.09511715                9.99328631                3.14642724                0.58365939               -0.82969978               -0.54092483                2.01937026                0.34061768                7.33807700                0.36191438
               8.09206111                9.99524825                3.09923091                0.74212118               -0.42262262               -0.21266238                1.16924567                0.18313658                0.91314510                0.06267730
               9.08666469                9.99399242                3.04121638                1.00000000               -0.34729212               -0.20971115                1.04433570               -0.00608272                0.23401749                0.24030615
              10.08511527                9.99662451                2.98120259                1.00000000               -0.15494219                0.07179031               -0.13910452                0.06257377                0.15141213               -0.17739778
               0.05590198                0.04644027                4.09865949                1.00000000               -0.59450710               -0.69863729                2.44908663               -0.18770183               -0.36920105                0.42937955
               1.04995691                0.02986355                4.06642834                1.00000000               -0.45079189               -0.46368209                1.66423142               -0.15071574               -0.36487640               -0.01702862
               2.04688614                0.01318378                4.03408117                0.72485144               -0.07044992               -0.26525789                0.89707469               -0.00246712               -0.19991941               -0.37156504
               3.04854791               -0.00036846                4.00518329                0.53048628                0.46884568               -0.12081182                0.21408013                0.24433027                0.73880788               -0.07082589
               4.05626306               -0.00538303                3.99107246                0.44874605                0.77510372               -0.09316960               -0.18820979                0.26800832                2.34218281               -0.03768576
               5.06404998               -0.00083303                3.99249454                0.45137031                0.39163196               -0.04940759               -0.30676257                0.13449020                3.14254299                0.02099429
               6.06409570                0.00328164                3.99210655                0.53220675               -0.14580235                0.09949355               -0.45372926                0.20839913                2.31634256                0.06016086
               7.06113394               -0.00181207                3.97571391                0.69962418               -0.12433601                0.25012582               -0.84781508                0.19937639                0.89803678                0.07278818
               8.06160898               -0.01496467                3.94664562                0.97619472                0.26567360                0.41672508               -1.45609846                0.03959227                0.02840828                0.24354894
               9.06644741               -0.03096248                3.91237946                1.00000000                0.61543561                0.62321471               -2.19634161               -0.10937187               -0.22423733                0.06920461
              10.07391769               -0.04664622                3.87770029                1.00000000                0.74702773                0.83674038               -2.93325392               -0.17763076               -0.24754670               -0.33535771
               0.07060168                1.03945390                4.08902130                1.00000000               -0.55236874               -0.64312964                2.22872901               -0.07654757               -0.00431792                0.58275943
               1.06507800                1.02522673                4.05628330                1.00000000               -0.43121052               -0.41938552                1.42548628               -0.05181169                0.04352541               -0.02750827
               2.06197747                1.01053120                4.02431466                0.32151161               -0.24016882               -0.22473097                0.64165126                0.09642515                0.55220660               -0.61428387
               3.06027462                0.99842343                4.00199352                0.00039187               -0.14010242               -0.04381050                0.07039527                0.46114829                1.53202228               -0.72439138
               4.05917543                0.99368527                3.99044602                0.00010000                0.03939661                0.27538309               -0.28484986                1.25003727                2.70502425                0.06127429
               5.06106255                0.99867290                3.99299689                0.00010000                0.37468914                0.12347922               -0.27873716                1.56026519                3.32881941                0.13537416
               6.06666921                1.00427657                3.99366606                0.02357598                0.55941525                0.02016734               -0.30016688                1.29052251                2.64989764                0.20099261
               7.07225086                1.00068919                3.97949602                0.28093935                0.49554465                0.23569123               -0.61399867                0.64612685                1.55153804                0.73921295
               8.07658010                0.98920258                3.95551567                0.73059460                0.44718029                0.35454262               -1.13930700                0.19729429                0.73299724                0.57318444
               9.08119446                0.97526967                3.92281953                1.00000000                0.56225088                0.56307736               -1.85377887                0.01759516                0.20422747                0.14469686
              10.08782512                0.96172119                3.88750359                1.00000000                0.66306555                0.75797031               -2.60619446               -0.05928373                0.05349884               -0.52417788
               0.08282537                2.03357768                4.08224260                1.00000000               -0.49819978               -0.53015744                2.01807186               -0.08153657                0.06264514                0.72396288
               1.07784337                2.02147584                4.04579543                0.93276460               -0.36037106               -0.33654263                1.17529156               -0.05920077                0.09295747               -0.07989723
               2.07561795                2.00868916                4.00975651                0.15910490               -0.16132820               -0.15577195                0.34150269                0.14094091                0.71267781               -0.89191061
               3.07461681                1.99875533                3.98620303                0.00010000                0.26981918                0.07689326               -0.26753654                1.02437070                2.78112149               -1.30960539
               4.08101433                2.00012463                3.99240846                0.00010000                0.50235905                0.44150671               -0.30533188                2.06798313                4.10427204                0.04358278
               5.08466399                2.00163656                3.99648820                0.00010000                0.34377615                0.27012454               -0.24034733                2.28921895                3.87137514                0.32072547
               6.08788985                2.00368499                3.99818722                0.00010000                0.22332412                0.04184432               -0.14586519                2.01441413                3.66324467                0.60423356
               7.08913047                2.00290175                3.99642646                0.13520807                0.15422621                0.23056408               -0.08276855                1.07464000                2.39960693                1.69424787
               8.09097438                1.99212618                3.97016641                0.44346094                0.25751168                0.26587929               -0.68380813                0.26988095                0.94941604                1.21040521
               9.09428070                1.98029907                3.93480540                1.00000000                0.44272992                0.42251598               -1.42099039                0.07155842                0.27247197                0.24718820
              10.09982898                1.96851319                3.89493523                1.00000000                0.55482732                0.57737891               -2.15061041               -0.04562405                0.04603496               -0.72018008
               0.09317463                3.02885075                4.07544212                1.00000000               -0.43921347               -0.42266529                1.80504055               -0.07094072                0.06092113                0.69011011
               1.08878250                3.01849588                4.03470814                0.87630441               -0.28289179               -0.26294831                0.91790528               -0.04545291                0.10828646               -0.13414518
               2.08751680                3.00741576                3.99471711                0.12914147                0.02720346               -0.10509242                0.02156209                0.19175892                0.96163985               -0.96241720
               3.08932657                2.99996129                3.97152541                0.00010000                0.50685346                0.12296663               -0.36100356                1.14245969                3.81283865               -0.89432313
               4.09765386                3.00251541                3.98920019                0.00010000                0.69800052                0.18478752               -0.34516405                1.76894831                5.45593921               -0.10893587
               5.10328658                3.00407539                4.00085639                0.00010000                0.40192140                0.18509481               -0.11253952                1.83258282                5.03782367                0.42109822
               6.10569229                3.00511346                4.01012178                0.00010000                0.10079427                0.12593081                0.14806690                1.67893135                5.10680429                1.01876667
               7.10530246                3.00530047                4.02073462                0.14099804               -0.05559447                0.17906486                0.30457714                0.90935024                3.36764838                1.98159387
               8.10458040                2.99452016                3.99098919                0.43206008                0.04680795                0.16332438               -0.22454570                0.17141345                0.83180858                1.50272248
               9.10623862                2.98371999                3.94778161                0.97029345                0.29519966                0.26021905               -0.93416935                0.05900407                0.06712514                0.32926924
              10.11048440                2.97326877                3.90282914                1.00000000                0.42457760                0.38275263               -1.58037076               -0.04121985                0.04714973               -0.68473085
               0.10211630                4.02512437                4.06833098                1.00000000               -0.37470033               -0.33280229                1.59057698               -0.05614482                0.06107281                0.63540227
               1.09836930                4.01621687                4.02348769                0.83995365               -0.20642956               -0.19668794                0.67530054               -0.02519811                0.11061283               -0.16360532
               2.09798771                4.00658731                3.97937229                0.11345191                0.19985298               -0.05888276               -0.24426715                0.23757634                1.45519180               -0.98026558
               3.10236636                4.00121467                3.96178525                0.00010000                0.71457455                0.13336946               -0.47068536                1.10011007                4.93318355               -0.39340704
               4.11227920                4.00382038                3.98719485                0.00010000                0.81756165                0.10092901               -0.36522436                1.58775688                6.60019106                0.06030062
               5.11871759                4.00533845                4.00629920                0.00010000                0.39820988                0.07699606                0.06477742                1.56378386                6.21993668                0.51165494
               6.12024340                4.00620360                4.02412845                0.00010000               -0.04034101                0.05596358                0.51785518                1.40401853                6.50448263                1.10268377
               7.11791077                4.00648305                4.04564290                0.15060490               -0.21301360                0.05641990                0.69160380                0.63416875                4.16267374                1.93953394
               8.11598313                3.99539267                4.01092663                0.44466977               -0.05992937                0.06057663                0.02498957                0.02331574                0.76075148                1.40415302
               9.11671218                3.98550345                3.96143572                0.98376294                0.19619499                0.14002619               -0.58852329                0.02522040                0.00898301                0.43151323
              10.11990703                3.97616824                3.91151238                1.00000000                0.31948437                0.23916317               -1.20536120               -0.03922879                0.04326591               -0.53288542
               0.10986674                5.02219470                4.06105879                1.00000000               -0.30511420               -0.26289686                1.37597217               -0.04775533                0.05836071                0.57936993
               1.10681559                5.01456212                4.01223097                0.80818004               -0.12981037               -0.13374236                0.43270792               -0.01030179                0.10890748               -0.17372236
               2.10727053                5.00623811                3.96418097                0.09870727                0.36400537               -0.00117548               -0.50341905                0.27393258                2.10737882               -0.93845223
               3.11409570                5.00262868                3.95568490                0.00010000                0.90073443                0.15102756               -0.58893799                1.03954884                6.10317839               -0.04528125
               4.12528522                5.00453399                3.98718330                0.00010000                0.90416663                0.04273234               -0.36222836                1.38297101                7.58479485                0.21098997
               5.13217903                5.00561531                4.01270916                0.00010000                0.36714243               -0.02417587                0.27310786                1.35059329                7.30583189                0.56454083
               6.13262806                5.00623273                4.03869770                0.00010000               -0.16911316               -0.06178749                0.90048903                1.20001779                7.83158749                1.10207437
               7.12879677                5.00642887                4.07076806                0.15975478               -0.33008731               -0.06939725                1.01548906                0.49980818                4.91002688                1.88695706
               8.12602632                4.99573170                4.03095916                0.45817387               -0.14146584                0.00815094                0.22040632               -0.04303293                0.71493429                1.33982963
               9.12596745                4.98652051                3.97619550                1.00000000                0.11719590                0.08698240               -0.36288821               -0.00457425               -0.01838860                0.50207713
              10.12837024                4.97805203                3.92160521                1.00000000                0.24027837                0.17455144               -0.98760193               -0.04172838                0.03071516               -0.36965520
               0.11642637                6.01986644                4.05367207                1.00000000               -0.23065113               -0.21240644                1.16248624               -0.04592406                0.05478772                0.51898199
               1.11411986                6.01354203                4.00116505                0.78074327               -0.05132853               -0.06743411                0.18044814               -0.00194303                0.10461937               -0.16329137
               2.11539980                6.00656380                3.94948141                0.08465636                0.53707996                0.07968039               -0.77832806                0.28041229                2.87091583               -0.85379766
               3.12486146                6.00423522                3.95267487                0.00010000                1.07760978                0.15442151               -0.66553433                0.91566226                7.29431733                0.17669255
               4.13695199                6.00467503                3.98844142                0.00010000                0.95846276               -0.02100051               -0.33601834                1.12498211                8.42982969                0.26980522
               5.14403071                6.00485494                4.01961293                0.00010000                0.32391009               -0.13378818                0.49344349                1.12202722                8.32398478                0.56591354
               6.14343020                6.00496785                4.05342817                0.00156019               -0.28113716               -0.19413547                1.26310475                1.02071887                9.12800704                1.06681823
               7.13840797                6.00509511                4.09596691                0.16927934               -0.41996867               -0.19951307                1.27286539                0.43386602                5.62795594                1.80884979
               8.13503082                5.99555569                4.05113809                0.47378072               -0.20538017               -0.05219232                0.41260491               -0.04364203                0.66273742                1.24695992
               9.13430036                5.98724310                3.99186850                1.00000000                0.04893023                0.05219747               -0.16514034               -0.01249428               -0.03002515                0.51730506
              10.13600943                5.97965927                3.93316300                1.00000000                0.17090616                0.15389186               -0.82147179               -0.04369885                0.01910727               -0.24749301
               0.12159707                7.01794657                4.04618986                1.00000000               -0.15177108               -0.18005191                0.95293864               -0.04968913                0.05243278                0.45764740
               1.12007936                7.01321343                3.99045509                0.75510602                0.02942531                0.00532484               -0.08251748               -0.00180963                0.10482569               -0.13683664
               2.12218558                7.00783172                3.93566446                0.07056291                0.71091795                0.18715793               -1.07133596                0.21366821                3.65525417               -0.72216069
               3.13429772                7.00571711                3.95125350                0.00010000                1.24897803                0.12554589               -0.72002801                0.66756125                8.45481008                0.23211749
               4.14716514                7.00411398                3.99007984                0.00010000                1.00145153               -0.11030301               -0.29971575                0.79903766                9.19915556                0.23668120
               5.15432675                7.00293955                4.02640240                0.00010000                0.28185651               -0.25481173                0.70578548                0.86731222                9.30438948                0.51774799
               6.15280227                7.00235002                4.06771034                0.00565895               -0.37202492               -0.32308566                1.58010641                0.84380017               10.39468840                0.98301300
               7.14688625                7.00243861                4.12031635                0.17870920               -0.48983929               -0.31721948                1.45566385                0.39935916                6.30399657                1.62729323
               8.14300549                6.99468785                4.07066609                0.49042382               -0.26361364               -0.12903004                0.62362982               -0.01080159                0.60799347                1.08291092
               9.14161398                6.98756446                4.00770969                1.00000000               -0.01707857                0.00344874                0.04242803               -0.01456727               -0.02751793                0.46966571
              10.14266391                6.98112987                3.94542332                1.00000000                0.10499318                0.14153283               -0.66756330               -0.04835082                0.01148859               -0.19895075
               0.12489887                8.01626540                4.03859175                1.00000000               -0.07003435               -0.15974054                0.74880214               -0.05970608                0.06044236                0.40563125
               1.12419852                8.01364852                3.98019107                0.72387707                0.11353098                0.09095321               -0.36497037               -0.01344232                0.13331085               -0.11220436
               2.12716949                8.01030696                3.92322142                0.05486781                0.88659492                0.32678992               -1.40700600                0.03035925                4.38443281               -0.53007921
               3.14193042                8.00674614                3.94995578                0.00010000                1.42704134                0.03863841               -0.77364539                0.29602334                9.54121076                0.15871705
               4.15571031                8.00246897                3.99119746                0.00010000                1.06052445               -0.24694474               -0.27103546                0.45059777                9.94884554                0.12889461
               5.16314091                7.99975870                4.03244459                0.00010000                0.25484124               -0.36949385                0.88547562                0.60803210               10.25518703                0.42419233
               6.16080714                7.99850614                4.08059432                0.00734423               -0.45417935               -0.41224711                1.82642003                0.68958141               11.55934190                0.82579709
               7.15405732                7.99875072                4.14150037                0.18484540               -0.55591021               -0.40916012                1.55715695                0.36362732                6.92717430                1.23291253
               8.14968893                7.99297509                4.08842692                0.50231189               -0.32451600               -0.22759975                0.87698035                0.00475150                0.63166212                0.81302442
               9.14756700                7.98731207                4.02297086                1.00000000               -0.08886657               -0.06544890                0.28149461               -0.02167072                0.01049101                0.38231443
              10.14791160                7.98248993                3.95754398                1.00000000                0.03445989                0.12295670               -0.50591398               -0.05379181                0.00638539               -0.22084237
               0.12563670                9.01475176                4.03082799                1.00000000                0.01322484               -0.13662795                0.54361540               -0.06720121                0.07918047                0.31520245
               1.12576895                9.01503250                3.97012527                0.66362108                0.20292241                0.20002267               -0.68857253               -0.02424242                0.25055353               -0.10227120
               2.12969515                9.01436752                3.91280347                0.03187347                1.11436167                0.51468362               -1.84436199               -0.32815808                5.07563473               -0.31217473
               3.14805619                9.00648988                3.94826049                0.00010000                1.67346900               -0.21355310               -0.83045986               -0.04824749               10.54733234                0.04799843
               4.16316453                8.99917508                3.99127368                0.00010000                1.11970194               -0.33471931               -0.26650815                0.16685010               10.65298625                0.01357719
               5.17045022                8.99554967                4.03691961                0.00010000                0.22186758               -0.44299672                0.99470536                0.37047983               11.09727347                0.27511808
               6.16760188                8.99410508                4.09066271                0.00259746               -0.53801852               -0.46285152                1.94154908                0.47172040               12.49101865                0.54052093
               7.15968985                8.99425540                4.15632757                0.17759689               -0.65313625               -0.49002569                1.72726623                0.27906819                7.50084507                0.65697563
               8.15453916                8.99013586                4.10291845                0.48935725               -0.40120644               -0.36045318                1.25541230               -0.01013830                0.89953587                0.46545353
               9.15166572                8.98625549                4.03736225                1.00000000               -0.16533950               -0.16357715                0.57665903               -0.03299429                0.15766078                0.27242486
              10.15123237                8.98358900                3.96894482                1.00000000               -0.04333566                0.08503834               -0.30799360               -0.05879583                0.00380484               -0.24148868
               0.12299337               10.01353284                4.02163767                1.00000000                0.11045508               -0.12189258                0.27866303                0.14728064                0.24589284                0.25925800
               1.12409792               10.01764898                3.96002291                0.80103311                0.30777857                0.26164768               -1.03368989                0.18628701                0.52279718               -0.09294581
               2.12914894               10.02060064                3.90410179                0.50641238                1.60299905                0.62331204               -2.26310096               -0.81331584                5.72817687               -0.11922428
               3.15615790               10.00247507                3.94631972                0.43605040                2.04192908               -0.40148049               -0.98534359               -0.43113079               11.35659187               -0.03962148
               4.16998753                9.99577458                3.99043218                0.42916284                0.97313019               -0.34005008               -0.34980626                0.10348402               11.08492718                0.02818062
               5.17562051                9.99089877                4.03865940                0.45050215                0.07741418               -0.46509013                1.02479079                0.19075475               11.59987465                0.18999897
               6.17153581                9.98924911                4.09552835                0.49743901               -0.60062984               -0.48559723                2.05802081                0.29596443               13.17165000                0.37146949
               7.16360791                9.98895020                4.16513004                0.58126222               -0.70248616               -0.53052006                1.96214501                0.21765149                8.17336532                0.34260126
               8.15748609                9.98576602                4.11429388                0.73066921               -0.50769698               -0.43698334                1.62193100                0.04920916                1.34846450                0.17973973
               9.15345397                9.98404053                4.05056757                1.00000000               -0.27087166               -0.22149539                0.91106140                0.10005833                0.46995515                0.20565961
              10.15206865                9.98419070                3.98069072                1.00000000               -0.13853189                0.06016943               -0.03096197                0.09864488                0.17181042               -0.23789450
               0.08831272                0.06168415                5.12292164                1.00000000               -0.58698173               -0.68528518                2.39928816               -0.17100508               -0.39748261                0.46330440
               1.08244291                0.04097507                5.08299201                1.00000000               -0.44816329               -0.46456928                1.65378740               -0.13264781               -0.38731376               -0.02581814
               2.07934946                0.02018208                5.04310965                0.71785133               -0.06307387               -0.27719552                0.91991460                0.02336028               -0.17420530               -0.42768005
               3.08118143                0.00283334                5.00752047                0.52569316                0.51189386               -0.13431274                0.25925833                0.28467395                0.92330384               -0.06848220
               4.08958733               -0.00463487                4.98935939                0.44767356                0.85240991               -0.12333886               -0.15184305                0.29983760                2.75724056               -0.03839755
               5.09822963               -0.00128352                4.98931218                0.45230125                0.45960997               -0.07795721               -0.32447633                0.14563056                3.62623711                0.01570223
               6.09877953                0.00151755                4.98721487                0.53299968               -0.10014385                0.08620591               -0.52347156                0.22738786                2.65381397                0.05612448
               7.09622675               -0.00609279                4.96679305                0.69794349               -0.08323006                0.25089166               -0.93864965                0.21490384                1.03786687                0.07150230
               8.09711493               -0.02272986                4.93156383                0.97308395                0.29318879                0.43355287               -1.53880340                0.05604100                0.02639615                0.26395286
               9.10209053               -0.04248713                4.89028406                1.00000000                0.61828303                0.61234793               -2.20063268               -0.08795573               -0.27556696                0.08627112
              10.10948059               -0.06199861                4.84882246                1.00000000                0.73900679                0.78803397               -2.84233868               -0.15686218               -0.29548518               -0.37487541
               0.10731175                1.05483129                5.11102951                1.00000000               -0.54442883               -0.63662693                2.17595411               -0.06527217               -0.00576687                0.62560808
               1.10186746                1.03632937                5.07054495                1.00000000               -0.43289141               -0.42404457                1.42746752               -0.03643546                0.04728520               -0.04722354
               2.09865392                1.01741012                5.03096120                0.30054865               -0.27154100               -0.23974963                0.68972451                0.13015988                0.66193000               -0.69697520
               3.09643664                1.00149021                5.00298235                0.00010000               -0.20048921               -0.06594385                0.12936339                0.54854090                1.84116179               -0.82008205
               4.09464414                0.99413174                4.98795577                0.00010000                0.00865378                0.29407387               -0.21866149                1.39510056                3.28364024                0.10204630
               5.09660972                0.99793691                4.99019821                0.00010000                0.44069548                0.10012227               -0.27908845                1.71928974                4.04473549                0.14478863
               6.10345805                1.00237961                4.99037861                0.01937174                0.69448880               -0.03526206               -0.36492973                1.40809454                3.17182795                0.19168207
               7.11049949                0.99641613                4.97299457                0.26720538                0.62072335                0.23952848               -0.70234041                0.74256152                1.81462090                0.84393894
               8.11587252                0.98160567                4.94339237                0.70666399                0.51729240                0.38875688               -1.25076400                0.24301391                0.82010156                0.63424501
               9.12084534                0.96363635                4.90433696                1.00000000                0.57754654                0.54930241               -1.84924756                0.02577089                0.22847641                0.19305995
              10.12742345                0.94588173                4.86235133                1.00000000                0.65781040                0.70704048               -2.47668312               -0.06123979                0.07699186               -0.50337372
               0.12401112                2.04895161                5.10213009                1.00000000               -0.48757490               -0.53926838                1.96752077               -0.07182168                0.06088177                0.77525267
               1.11913537                2.03249418                5.05768091                0.91402451               -0.36096519               -0.34861345                1.19344203               -0.04375476                0.09329911               -0.11447414
               2.11679182                2.01538708                5.01367007                0.14218875               -0.18523704               -0.17394791                0.42524405                0.17529319                0.80715587               -1.01541463
               3.11543063                2.00151446                4.98370755                0.00010000                0.21254158                0.10202974               -0.19710529                1.18564387                3.29176390               -1.38695152
               4.12104265                2.00124660                4.98985546                0.00010000                0.44684582                0.49031177               -0.21454086                2.31190481                4.91383057                0.05790659
               5.12436755                2.00071893                4.99410863                0.00010000                0.37097805                0.25649434               -0.23426724                2.50573954                4.69179780                0.35927015
               6.12846221                2.00081231                4.99643766                0.00010000                0.37421886               -0.02963730               -0.22762387                2.25148671                4.46484474                0.67575545
               7.13185192                1.99869778                4.99452685                0.12437891                0.31463929                0.17730157               -0.28559072                1.29645168                2.92715454                1.95371880
               8.13475499                1.98504528                4.96233934                0.42446620                0.32389787                0.29153517               -0.84979063                0.32951727                1.01794660                1.38659318
               9.13832988                1.96849891                4.92067174                1.00000000                0.45050163                0.41478631               -1.42091983                0.04806879                0.31186421                0.34832466
              10.14376503                1.95214220                4.87398451                1.00000000                0.54351458                0.54409426               -2.06967038               -0.05681930                0.05297244               -0.59342047
               0.13879018                3.04404593                5.09322838                1.00000000               -0.42332887               -0.44578667                1.75859988               -0.06826683                0.04646536                0.74400356
               1.13455689                3.02935711                5.04402318                0.86510816               -0.28253412               -0.27911245                0.93698295               -0.03949891                0.09264826               -0.16873680
               2.13313950                3.01393116                4.99545994                0.11656755               -0.01334461               -0.11766637                0.10977748                0.26600637                1.19598012               -1.07325825
               3.13429000                3.00353081                4.96858456                0.00010000                0.42691355                0.18884297               -0.19079584                1.30815795                4.48723302               -0.85445391
               4.14167777                3.00393797                4.98650669                0.00010000                0.64344002                0.20765144               -0.22222485                1.94601484                6.37075525               -0.10610738
               5.14715880                3.00306680                4.99964916                0.00010000                0.44155804                0.17331095               -0.12385601                2.00570683                6.01421214                0.50951770
               6.15050893                3.00178687                5.01082781                0.00010000                0.25183809                0.08336859                0.00347704                1.90388264                6.01497419                1.19269379
               7.15219556                2.99996216                5.02245533                0.13365949                0.10763987                0.09720175                0.04969391                1.17481797                3.93058471                2.21956935
               8.15266173                2.98743637                4.98844197                0.41982713                0.12571163                0.16316101               -0.31232008                0.30044690                0.92807988                1.59902118
               9.15470980                2.97193207                4.93797151                0.96640217                0.31693799                0.27158416               -0.99811183                0.04060495                0.07287934                0.39333782
              10.15900049                2.95676362                4.88632138                1.00000000                0.42906929                0.38613881               -1.65074935               -0.04604553                0.01640121               -0.56491750
               0.15202343                4.04003587                5.08400617                1.00000000               -0.35632686               -0.36466633                1.54787268               -0.05873425                0.04773899                0.69551355
               1.14846016                4.02691193                5.03032928                0.83305470               -0.20425927               -0.21184688                0.68721488               -0.02781571                0.09551732               -0.18363212
               2.14793824                4.01303376                4.97728822                0.10298875                0.15634108               -0.05845922               -0.17889518                0.32848818                1.82175467               -1.06147858
               3.15158698                4.00529132                4.95838348                0.00010000                0.62443569                0.16730050               -0.21636276                1.27270170                5.75520598               -0.38724863
               4.16042695                4.00539963                4.98471310                0.00010000                0.75229054                0.10639880               -0.19152511                1.73292387                7.67290643                0.08810377
               5.16663279                4.00418515                5.00671877                0.00010000                0.46087730                0.06143482                0.02526827                1.69986439                7.38757252                0.63790707
               6.16964450                4.00247968                5.02784003                0.00010000                0.15329937                0.02326598                0.27406451                1.62200456                7.55147643                1.33364010
               7.16969878                4.00064182                5.05087536                0.14540916               -0.04252398                0.01082841                0.41573457                0.94877108                4.71146376                2.19799687
               8.16879402                3.98830850                5.01133164                0.43576898                0.00579794                0.04210639                0.01041736                0.20776541                0.83101509                1.41125200
               9.16981474                3.97393060                4.95509393                0.98511415                0.21935034                0.15422360               -0.65505819                0.02880217                0.00488807                0.41558219
              10.17318103                3.95986498                4.89860567                1.00000000                0.33662914                0.26843899               -1.30658831               -0.04579689                0.00291467               -0.52478745
               0.16386339                5.03675260                5.07462507                1.00000000               -0.28606938               -0.30056764                1.33830383               -0.05267573                0.04634522                0.65281429
               1.16100270                5.02512017                5.01663845                0.80144025               -0.12667624               -0.14570137                0.44107707               -0.01701052                0.09897494               -0.18807391
               2.16132987                5.01276198                4.95937401                0.08875205                0.31877306                0.01096720               -0.45817898                0.35491828                2.59849016               -1.02257829
               3.16737816                5.00687682                4.95159873                0.00010000                0.80562781                0.15585097               -0.27972305                1.19315103                7.10092116               -0.03886026
               4.17744242                5.00606595                4.98498699                0.00010000                0.83489393                0.03195564               -0.15986814                1.50337551                8.85927263                0.26036035
               5.18407604                5.00429550                5.01499934                0.00010000                0.45249658               -0.03765376                0.19333375                1.47200875                8.69206452                0.71708317
               6.18649235                5.00225219                5.04551535                0.00010000                0.06330666               -0.07741178                0.55433813                1.39594342                9.00014842                1.34975698
               7.18534217                5.00017873                5.07880675                0.15527426               -0.14820493               -0.09970358                0.71302462                0.79051014                5.41507434                2.13618339
               8.18352826                4.98827850                5.03349235                0.45014054               -0.08064053               -0.03468142                0.25220958                0.14782143                0.76785253                1.36021699
               9.18372936                4.97501654                4.97242411                1.00000000                0.13437683                0.08134962               -0.39198372                0.01894913               -0.00342557                0.46148490
              10.18621579                4.96213240                4.91133839                1.00000000                0.24864325                0.20569660               -1.04732514               -0.04426855                0.00263190               -0.43104602
               0.17423478                6.03402452                5.06513707                1.00000000               -0.21242065               -0.25100965                1.12951957               -0.05206542                0.04312875                0.61291901
               1.17211057                6.02399790                5.00306076                0.77191247               -0.04774100               -0.07583571                0.18734794               -0.01251732                0.10036541               -0.17857103
               2.17327996                6.01325310                4.94181219                0.07428796                0.50177299                0.09799394               -0.75147434                0.33218396                3.50611387               -0.95842200
               3.18214603                6.00840834                4.94803625                0.00010000                0.98979161                0.13850404               -0.34909594                1.04983894                8.48661313                0.19300362
               4.19307579                6.00603874                4.98662249                0.00010000                0.88703493               -0.03837058               -0.12939763                1.24700549                9.90683323                0.34226799
               5.19988673                6.00343207                5.02381258                0.00010000                0.43021739               -0.13609329                0.36129369                1.25296538                9.92262348                0.72959089
               6.20168014                6.00093145                5.06311284                0.00010000               -0.02020309               -0.18548081                0.81451534                1.20569914               10.39365193                1.30653313
               7.19948267                5.99864774                5.10630733                0.16411878               -0.23837510               -0.20035392                0.96118192                0.67380579                6.10707688                2.04069944
               8.19691263                5.98761487                5.05570714                0.46440991               -0.15714217               -0.09777069                0.47728390                0.11228741                0.72666152                1.30778692
               9.19633982                5.97555759                4.99020526                1.00000000                0.05756591                0.03201745               -0.16812779                0.00760827               -0.00223125                0.48776000
              10.19806395                5.96397891                4.92483323                1.00000000                0.17241296                0.17234427               -0.84527056               -0.04254417                0.00689909               -0.34797462
               0.18287533                7.03173241                5.05557598                1.00000000               -0.13515536               -0.21012928                0.92072942               -0.05641775                0.04248199                0.57776447
               1.18152377                7.02360345                4.98969520                0.74210311                0.03438880                0.00226866               -0.08146203               -0.01496734                0.10974743               -0.16152568
               2.18356310                7.01472186                4.92487037                0.05905126                0.70327597                0.20962657               -1.07197610                0.22747944                4.45178580               -0.86645634
               3.19558929                7.00964690                4.94595778                0.00010000                1.18978497                0.09680587               -0.45597700                0.78828518                9.84946352                0.23819592
               4.20735880                7.00529854                4.98866542                0.00010000                0.93266746               -0.12133057               -0.10551023                0.94753752               10.86779520                0.32926595
               5.21424264                7.00157363                5.03236824                0.00010000                0.40159318               -0.23677048                0.51399273                1.02852617               11.09370083                0.67156233
               6.21539067                6.99854257                5.07988470                0.00247331               -0.10538885               -0.28313548                1.04656343                1.02974839               11.72741667                1.18847269
               7.21213486                6.99617165                5.13249121                0.17119785               -0.32632534               -0.29316496                1.18124664                0.57191091                6.79062537                1.82604178
               8.20886416                6.98632309                5.07746160                0.47722334               -0.23086895               -0.16980675                0.71937513                0.08712567                0.73158163                1.18857943
               9.20751749                6.97565689                5.00818250                1.00000000               -0.01709437               -0.01770670                0.05530718               -0.00269974                0.01332621                0.46835735
              10.20852227                6.96557928                4.93874994                1.00000000                0.10047859                0.14825703               -0.66530252               -0.04614014                0.00338117               -0.31450772
               0.18936433                8.02982194                5.04590830                1.00000000               -0.05425548               -0.17208481                0.70907762               -0.06177896                0.05282890                0.54711499
               1.18882177                8.02404327                4.97651862                0.70539934                0.12108856                0.09514253               -0.37481436               -0.02042248                0.14804731               -0.16184967
               2.19178610                8.01744563                4.90877051                0.04155899                0.92566397                0.35759147               -1.44373730                0.00851302                5.35457290               -0.75840823
               3.20733505                8.01034446                4.94359018                0.00010000                1.41568546                0.01953316               -0.62665001                0.36306640               11.12577689                0.14874583
               4.22009981                8.00361213                4.99011997                0.00010000                0.99390831               -0.23968523               -0.09751616                0.62830945               11.78048511                0.24836164
               5.22721322                7.99869666                5.03977187                0.00010000                0.37886375               -0.32885577                0.63293915                0.79791481               12.19342543                0.53488489
               6.22767708                7.99526874                5.09469383                0.00313656               -0.20364257               -0.35838740                1.24323527                0.85286148               12.95118586                0.95676024
               7.22314037                7.99278445                5.15554385                0.17378112               -0.42535894               -0.39831265                1.43343799                0.46314915                7.48842143                1.42613718
               8.21916990                7.98421873                5.09798816                0.48336739               -0.30553674               -0.27530524                1.01808025                0.05468455                0.85340161                0.99988180
               9.21702963                7.97520346                5.02587469                1.00000000               -0.09367660               -0.08577883                0.30404579               -0.01258374                0.06741688                0.41852843
              10.21729637                7.96694405                4.95266676                1.00000000                0.02667398                0.11754056               -0.47394182               -0.05042545                0.00696408               -0.33345050
               0.19319707                9.02829071                5.03600363                1.00000000                0.02945549               -0.13209619                0.48947467               -0.06047259                0.05996219                0.44101196
               1.19349163                9.02550630                4.96310402                0.64801945                0.21175511                0.20404564               -0.70121740               -0.01430438                0.23934596               -0.16941157
               2.19743218                9.02187369                4.89355699                0.01904532                1.15962449                0.52424064               -1.89308496               -0.37022760                6.19972037               -0.56905870
               3.21668412                9.01003756                4.94000041                0.00010000                1.70703059               -0.19542356               -0.86711518               -0.07218941               12.22917218                0.04929304
               4.23157279                9.00050483                4.99036803                0.00010000                1.09301073               -0.32368399               -0.11263896                0.30580732               12.61162782                0.13424005
               5.23854433                8.99499651                5.04499451                0.00010000                0.33936628               -0.38510090                0.70357764                0.50896133               13.15551973                0.30963705
               6.23836011                8.99137482                5.10605028                0.00010000               -0.30482406               -0.41369063                1.39430862                0.55746319               13.99810200                0.55140060
               7.23244785                8.98820540                5.17364555                0.16818948               -0.54106369               -0.51255291                1.80197237                0.30603590                8.25028649                0.85076824
               8.22753884                8.98081698                5.11673614                0.47323792               -0.39536781               -0.40632738                1.42300055                0.00794450                1.19247441                0.67857673
               9.22454050                8.97394132                5.04320658                1.00000000               -0.17531316               -0.17542492                0.59300901               -0.01247830                0.18010372                0.32862262
              10.22403258                8.96793009                4.96621473                1.00000000               -0.05079196                0.07153849               -0.25437586               -0.05068169                0.00073585               -0.32083618
               0.19372369               10.02718001                5.02416594                1.00000000                0.12290210               -0.11106992                0.22729257                0.14707899                0.26915225                0.35630130
               1.19495271               10.02812419                4.94968292                0.79935550                0.30632997                0.26178812               -1.01836157                0.18362984                0.56065425               -0.17318685
               2.19985029               10.02793044                4.88088936                0.50142461                1.61537037                0.60567578               -2.25177196               -0.84259849                6.99729434               -0.46364144
               3.22726012               10.00643599                4.93549288                0.43401424                2.07033570               -0.36015735               -1.11085705               -0.48199951               13.07891742                0.03851405
               4.24125700                9.99713845                4.98905263                0.42937554                0.96311691               -0.33663789               -0.17613794                0.19635440               13.24362578                0.07574841
               5.24652246                9.99099465                5.04705296                0.45171614                0.21802306               -0.40018685                0.73407495                0.29063598               13.83991615                0.19663203
               6.24561746                9.98699493                5.11210878                0.49825019               -0.33517653               -0.43798956                1.51548743                0.30267222               14.84714800                0.31153182
               7.23981893                9.98253339                5.18567014                0.58023715               -0.60122945               -0.56720092                2.09891918                0.19197046                9.05505518                0.51114242
               8.23359288                9.97609219                5.13166953                0.72854898               -0.50759852               -0.47247944                1.74267622                0.06348211                1.75553426                0.46648113
               9.22966696                9.97169496                5.05943761                1.00000000               -0.26438448               -0.22463582                0.88562080                0.12677761                0.51927785                0.26881280
              10.22830519                9.96837482                4.98058335                1.00000000               -0.13617696                0.04447270                0.00273694                0.09524713                0.18716143               -0.29200045
               0.12781158                0.07949062                6.14664525                1.00000000               -0.57889549               -0.67330044                2.34885316               -0.16053980               -0.43638760                0.49914243
               1.12202263                0.05424132                6.09950408                1.00000000               -0.44690002               -0.46479650                1.65022498               -0.12123847               -0.42333331               -0.03192532
               2.11887358                0.02892708                6.05247946                0.71393688               -0.06291886               -0.28957996                0.95576801                0.04534870               -0.17736589               -0.47508261
               3.12076425                0.00733813                6.01036846                0.52217545                0.53712866               -0.15034247                0.31353545                0.32036264                1.05881734               -0.06727479
               4.12961615               -0.00334374                5.98803560                0.44674715                0.89774994               -0.14261333               -0.11193936                0.32016453                3.09651604               -0.04657106
               5.13871925               -0.00229103                5.98600501                0.45270922                0.50374793               -0.09367478               -0.33589174                0.15253667                4.02915090                0.00911514
               6.13969111               -0.00192336                5.98163712                0.53278369               -0.05884686                0.08107806               -0.58746996                0.23712574                2.92934746                0.05123004
               7.13754231               -0.01278508                5.95694092                0.69620286               -0.05226164                0.26192462               -1.01819764                0.22775413                1.12494779                0.07138454
               8.13864588               -0.03334269                5.91586955                0.97216244                0.30675676                0.44546582               -1.58398128                0.07149941               -0.00067124                0.26816316
               9.14367745               -0.05734284                5.86836681                1.00000000                0.61426601                0.60860309               -2.18236293               -0.08018058               -0.32017750                0.10726321
              10.15093120               -0.08120147                5.82085352                1.00000000                0.72537539                0.76931277               -2.76737291               -0.14536180               -0.33191874               -0.38180871
               0.15145548                1.07275762                6.13254038                1.00000000               -0.53634660               -0.63033778                2.12876053               -0.05993697               -0.00938579                0.66854380
               1.14609201                1.04959336                6.08483265                1.00000000               -0.43384068               -0.42666011                1.42878349               -0.02897954                0.04737066               -0.05678990
               2.14277866                1.02603128                6.03810915                0.28789796               -0.29943622               -0.25224759                0.73628554                0.15510975                0.74729625               -0.76028062
               3.14010329                1.00583471                6.00458079                0.00010000               -0.25731428               -0.09620153                0.18858523                0.63506414                2.11631337               -0.90879203
               4.13763238                0.99523012                5.98607279                0.00010000               -0.02844332                0.30377915               -0.16473433                1.51056136                3.79499691                0.13843942
               5.13953442                0.99677223                5.98741512                0.00010000                0.48385095                0.08310172               -0.28311506                1.84279010                4.65542812                0.14762944
               6.14730940                0.99888742                5.98636747                0.01560466                0.79975479               -0.06628725               -0.43519911                1.50696768                3.61667774                0.17592325
               7.15552952                0.98983416                5.96544921                0.25755458                0.71651768                0.26502308               -0.79446364                0.82270588                2.01882007                0.91892250
               8.16163975                0.97111197                5.93050039                0.69208174                0.56377568                0.40755639               -1.30961399                0.27257844                0.88977594                0.67883646
               9.16680503                0.94874319                5.88583457                1.00000000                0.58482302                0.54869213               -1.85242551                0.02875298                0.25894196                0.25859409
              10.17333621                0.92649166                5.83796992                1.00000000                0.65311812                0.69380984               -2.42385966               -0.05856895                0.09573848               -0.47241260
               0.17294135                2.06688386                6.12159302                1.00000000               -0.47719810               -0.54514370                1.92672701               -0.06463104                0.06530908                0.82683255
               1.16816937                2.04570812                6.06966427                0.89714545               -0.36034617               -0.35602938                1.20073030               -0.03449246                0.10105701               -0.13762531
               2.16573443                2.02388213                6.01826139                0.12953911               -0.19513408               -0.18494140                0.48454801                0.19011667                0.88930168               -1.11994984
               3.16426669                2.00541410                5.98226093                0.00010000                0.15777173                0.11807866               -0.09925046                1.33854502                3.74507345               -1.38929000
               4.16888986                2.00273184                5.98811764                0.00010000                0.38255297                0.51527508               -0.14401391                2.51644483                5.63426864                0.10093131
               5.17191775                1.99937101                5.99180285                0.00010000                0.39393322                0.24416865               -0.23375666                2.68671717                5.40078876                0.39204196
               6.17676853                1.99675090                5.99363475                0.00010000                0.49270657               -0.06612293               -0.32154610                2.45102915                5.12772495                0.72258924
               7.18177188                1.99251538                5.99071464                0.11493067                0.42099456                0.17545927               -0.44708563                1.44140090                3.28751690                2.08185872
               8.18518842                1.97480844                5.95317060                0.40912591                0.35504682                0.31981579               -0.95345211                0.35508438                1.12674205                1.54700945
               9.18887282                1.95363101                5.90638700                0.99550449                0.45372340                0.42106840               -1.44090339                0.04390278                0.37244076                0.46188998
              10.19426289                1.93267473                5.85354182                1.00000000                0.53900701                0.54287991               -2.03508640               -0.05680360                0.06947881               -0.51431721
               0.19251434                3.06185474                6.11061411                1.00000000               -0.41104403               -0.46229566                1.72043005               -0.06402176                0.03976109                0.79854553
               1.18840390                3.04247277                6.05344780                0.85141642               -0.28196600               -0.28895820                0.94613326               -0.03470327                0.08248767               -0.19750824
               2.18687502                3.02233245                5.99691266                0.10575188               -0.01897111               -0.12192250                0.17208392                0.31788405                1.47031784               -1.19050767
               3.18802448                3.00819628                5.96770949                0.00010000                0.35646750                0.25207119               -0.01504661                1.44910384                5.15307668               -0.71194963
               4.19400437                3.00553562                5.98475570                0.00010000                0.56126143                0.21851593               -0.14008247                2.09857474                7.16614630               -0.06128604
               5.19924971                3.00165560                5.99837927                0.00010000                0.45906199                0.16877046               -0.13380833                2.17268511                6.87202132                0.59070912
               6.20318561                2.99756496                6.01019132                0.00010000                0.35251430                0.07189821               -0.11310487                2.10177826                6.80435905                1.32276030
               7.20629999                2.99334335                6.02172850                0.12531900                0.22201020                0.07880929               -0.17570327                1.34099387                4.46971785                2.39521301
               8.20762581                2.97750829                5.98474279                0.40823596                0.17584031                0.18794410               -0.41632367                0.35088263                1.11258631                1.76483682
               9.20981680                2.95716456                5.92781937                0.95396183                0.32434388                0.28657481               -1.03417072                0.02520352                0.07481933                0.47648949
              10.21411269                2.93734926                5.86981415                1.00000000                0.42958928                0.39903782               -1.65729169               -0.04758286                0.02538211               -0.50142651
               0.21042485                4.05763795                6.09928843                1.00000000               -0.34272589               -0.38673284                1.51031694               -0.05827198                0.03908621                0.75762618
               1.20699759                4.03992896                6.03723198                0.82341212               -0.20281261               -0.22018095                0.69218821               -0.02760076                0.08217714               -0.20290147
               2.20636860                4.02144368                5.97579438                0.09392861                0.15239996               -0.05349425               -0.12737390                0.39658005                2.25801544               -1.16002668
               3.21004559                4.01045553                5.95745799                0.00010000                0.55167193                0.20012147               -0.02312928                1.40675714                6.63475888               -0.30539240
               4.21740204                4.00710216                5.98336434                0.00010000                0.66482581                0.11480900               -0.09883802                1.86782910                8.59136699                0.15058538
               5.22334211                4.00274642                6.00680456                0.00010000                0.48571507                0.06037798               -0.00587124                1.86644835                8.39562722                0.75303839
               6.22711634                3.99818886                6.02960974                0.00010000                0.26531625                0.01950463                0.11762009                1.84915794                8.48588222                1.50627022
               7.22864844                3.99409157                6.05395759                0.13828557                0.06342588                0.01886078                0.21609051                1.15998590                5.30980344                2.41586797
               8.22838486                3.97856732                6.01113498                0.42705421                0.04437404                0.05261257               -0.04781457                0.27055670                1.00105662                1.45420711
               9.22953592                3.95936250                5.94833456                0.97904214                0.22784880                0.17371591               -0.69945601                0.01621367                0.00589266                0.43121811
              10.23294184                3.94065549                5.88538061                1.00000000                0.34059194                0.29271444               -1.34458846               -0.04662029                0.00453114               -0.52681922
               0.22676688                5.05412008                6.08782486                1.00000000               -0.27207265               -0.32320193                1.30163796               -0.05425797                0.04074001                0.72739700
               1.22404616                5.03806915                6.02105251                0.79276185               -0.12434148               -0.15075498                0.44071906               -0.02015339                0.09009405               -0.20351820
               2.22428005                5.02126257                5.95501739                0.08040289                0.32274915                0.02276616               -0.41838029                0.41537738                3.17332849               -1.12322346
               3.23050114                5.01219871                5.95009043                0.00010000                0.73950028                0.16403569               -0.09930712                1.31535322                8.18898933                0.00256392
               4.23907006                5.00783180                5.98398593                0.00010000                0.74954137                0.03698978               -0.06981840                1.62873639                9.93806718                0.32523692
               5.24549197                5.00286316                6.01657583                0.00010000                0.48767798               -0.03342811                0.13249199                1.63869848                9.86482615                0.85244909
               6.24882362                4.99795506                6.04978447                0.00010000                0.18146404               -0.07298508                0.36133259                1.62747785               10.04927186                1.54011380
               7.24912125                4.99372056                6.08502856                0.14859434               -0.05288042               -0.09334638                0.55630054                0.99561288                6.03370998                2.33314607
               8.24776601                4.97856054                6.03600335                0.44232978               -0.05341700               -0.04125734                0.23926207                0.20997883                0.92366836                1.37722804
               9.24805291                4.96063888                5.96835583                1.00000000                0.14141522                0.09387039               -0.42066960                0.01183699               -0.00199152                0.43310933
              10.25059432                4.94320355                5.90065871                1.00000000                0.25414070                0.23163724               -1.08376360               -0.04605182                0.00075629               -0.49762901
               0.24144156                6.05117391                6.07626246                1.00000000               -0.19895114               -0.26947261                1.09317688               -0.05393577                0.04020320                0.70194802
               1.23945204                6.03691386                6.00491201                0.76214892               -0.04474815               -0.07720432                0.18235365               -0.01705756                0.09677014               -0.19998577
               2.24054659                6.02189900                5.93445192                0.06606749                0.51656885                0.11408504               -0.72240428                0.37505195                4.21855558               -1.08233228
               3.24978342                6.01373624                5.94569295                0.00010000                0.93828637                0.13641936               -0.21254783                1.14668753                9.77880687                0.19646545
               4.25931232                6.00784195                5.98585347                0.00010000                0.81047025               -0.03149961               -0.05900834                1.36910722               11.15246143                0.41109164
               5.26599283                6.00207785                6.02683880                0.00010000                0.47480858               -0.12258233                0.26518529                1.41883673               11.25602962                0.87010597
               6.26880849                5.99672916                6.06971848                0.00010000                0.09811925               -0.17082843                0.59244617                1.42753976               11.53728140                1.49192942
               7.26795521                5.99222464                6.11519055                0.15706260               -0.15711852               -0.19988222                0.85263306                0.85068130                6.75080183                2.22731837
               8.26566612                5.97774218                6.06068377                0.45594134               -0.14127821               -0.11910605                0.50299124                0.15975439                0.88817940                1.34448520
               9.26512965                5.96123991                5.98850594                1.00000000                0.06126711                0.03116485               -0.17463841                0.00426595                0.00459944                0.45554674
              10.26689146                5.94528823                5.91625759                1.00000000                0.17618162                0.19013190               -0.86712368               -0.04505056                0.00423607               -0.44739732
               0.25420827                7.04873063                6.06460445                1.00000000               -0.12283570               -0.21969330                0.88135596               -0.05589362                0.04183750                0.67934183
               1.25297992                7.03652507                5.98882585                0.73027032                0.03752196                0.00444209               -0.09054085               -0.01705752                0.11166040               -0.19761964
               2.25495871                7.02354427                5.91422494                0.05076429                0.72560107                0.22765867               -1.05233901                0.25224099                5.28870116               -1.03310538
               3.26749194                7.01492710                5.94213396                0.00010000                1.15759376                0.09710918               -0.39211672                0.84853111               11.33804326                0.18285251
               4.27811059                7.00720181                5.98796963                0.00010000                0.87447779               -0.10541784               -0.07008414                1.06552115               12.28842318                0.39831351
               5.28498149                7.00041151                6.03668226                0.00010000                0.45585215               -0.21238658                0.38214750                1.18897057               12.57453178                0.80033723
               6.28722763                6.99453849                6.08864161                0.00010000                0.00701820               -0.26266987                0.81015607                1.22808942               12.96590368                1.35501007
               7.28512186                6.98972292                6.14394129                0.16325342               -0.26409021               -0.30527596                1.14612817                0.71080701                7.48945406                2.02845363
               8.28194583                6.97617842                6.08505360                0.46713574               -0.22648428               -0.20219949                0.77809590                0.11496285                0.91679876                1.27680953
               9.28059217                6.96126218                6.00881583                1.00000000               -0.01745835               -0.02906746                0.06653876               -0.00325689                0.02634891                0.45631439
              10.28159666                6.94700619                5.93211727                1.00000000                0.10044876                0.15339492               -0.66483038               -0.04683476                0.00343943               -0.41929531
               0.26473481                8.04678005                6.05277331                1.00000000               -0.04375551               -0.17081307                0.66241084               -0.05639058                0.05142647                0.65426235
               1.26429726                8.03700270                5.97269478                0.69199709                0.12272846                0.09774481               -0.38281719               -0.01526433                0.14700593               -0.21952842
               2.26718938                8.02645217                5.89434667                0.03337162                0.93996205                0.36616121               -1.42167795                0.02550908                6.29524871               -0.98003876
               3.28309650                8.01567842                5.93742278                0.00010000                1.39744730                0.03229701               -0.64450076                0.38090386               12.80487243                0.04499943
               4.29513833                8.00573360                5.98924714                0.00010000                0.96695305               -0.21372941               -0.10837815                0.72220486               13.38555732                0.30604283
               5.30243556                7.99783012                6.04510338                0.00010000                0.44602711               -0.29750980                0.47533141                0.93195199               13.81103808                0.63168332
               6.30405887                7.99147576                6.10545903                0.00010000               -0.09520688               -0.34101741                1.01835087                0.99871237               14.32196880                1.08133568
               7.30053142                7.98611912                6.17016913                0.16573589               -0.38163744               -0.42892217                1.49472322                0.55551445                8.29021059                1.68203653
               8.29642612                7.97369819                6.10878852                0.47238570               -0.31473404               -0.30761970                1.09895089                0.07106146                1.05527371                1.16010914
               9.29423674                7.96065856                6.02905178                1.00000000               -0.09796857               -0.09985794                0.32476041               -0.00725094                0.07259908                0.43892132
              10.29446675                7.94835613                5.94806514                1.00000000                0.02300088                0.11247495               -0.45294070               -0.04853631                0.00736079               -0.42266519
               0.27263515                9.04531437                6.04061748                1.00000000                0.03673495               -0.12229005                0.43609580               -0.05305921                0.05169526                0.53182755
               1.27300250                9.03847996                5.95610093                0.63928146                0.20790101                0.20123696               -0.69151292               -0.00782779                0.22557700               -0.23483843
               2.27679317                9.03086749                5.87494177                0.01245718                1.14130458                0.51054480               -1.81862705               -0.34057189                7.23441972               -0.78514669
               3.29582859                9.01557304                5.93091819                0.00010000                1.68049061               -0.17090067               -0.92409812               -0.07318924               14.14557264               -0.04312521
               4.31040299                9.00292722                5.98902090                0.00010000                1.10248864               -0.29066265               -0.17179455                0.35249568               14.40535980                0.16827471
               5.31787837                8.99446132                6.05099116                0.00010000                0.42549490               -0.35578050                0.53765884                0.58590187               14.90219104                0.35850124
               6.31891288                8.98771814                6.11854889                0.00010000               -0.19343215               -0.40565114                1.20051245                0.62429392               15.57110443                0.61707503
               7.31400972                8.98114448                6.19236702                0.16337025               -0.50426342               -0.54976223                1.90466035                0.34623656                9.20148693                1.08130637
               8.30882762                8.97002602                6.13137846                0.46655914               -0.41102564               -0.42346572                1.46201503                0.02618591                1.38144002                0.84418909
               9.30578921                8.95926502                6.04922243                1.00000000               -0.17984099               -0.18519150                0.60621581               -0.00406892                0.16089257                0.37022599
              10.30523080                8.94925568                5.96385730                1.00000000               -0.05584161                0.06286548               -0.22456604               -0.04825085               -0.00356310               -0.38163336
               0.27734244               10.04433425                6.02618352                1.00000000                0.12451374               -0.09801255                0.18087410                0.14004860                0.30686036                0.43027477
               1.27858758               10.04102744                5.93965568                0.79952557                0.29712135                0.25474768               -0.98433308                0.17494915                0.60500232               -0.23473687
               2.28328487               10.03666307                5.85906635                0.49928627                1.54927009                0.57955784               -2.12155718               -0.78918176                8.16268212               -0.63526807
               3.30957298               10.01226041                5.92410257                0.43311441                2.00075466               -0.33126280               -1.13294071               -0.46269746               15.18906205               -0.02659326
               4.32329996                9.99992034                5.98690942                0.42963092                0.98948488               -0.30068806               -0.25031619                0.21240306               15.21962242                0.10610203
               5.32936268                9.99071451                6.05334090                0.45240692                0.32808116               -0.37468025                0.56352012                0.32055125               15.75093903                0.20686274
               6.32986159                9.98336274                6.12583810                0.49860738               -0.21072049               -0.43554003                1.32285907                0.31533845               16.58583560                0.33091276
               7.32514827                9.97512387                6.20710843                0.58015200               -0.55161439               -0.60206035                2.16559301                0.20716127               10.13472024                0.68791482
               8.31882930                9.96522887                6.14914740                0.72897218               -0.51112839               -0.47971517                1.73566438                0.09171128                2.02066326                0.60198010
               9.31492570                9.95695473                6.06827999                1.00000000               -0.26544494               -0.23102881                0.88686399                0.13287751                0.54288011                0.30989027
              10.31352040                9.94961344                5.98074546                1.00000000               -0.14053021                0.03577546                0.02913493                0.09483149                0.20525100               -0.33419292
               0.17386730                0.09987673                7.16989870                1.00000000               -0.57252724               -0.66223244                2.30538653               -0.15250965               -0.47962606                0.54026314
               1.16814203                0.06967943                7.11599651                1.00000000               -0.44647685               -0.46460360                1.64839482               -0.11237674               -0.46722959               -0.03423263
               2.16493777                0.03942104                7.06222501                0.71214104               -0.06701976               -0.29984637                0.99099377                0.06058150               -0.19921061               -0.51673813
               3.16680164                0.01306318                7.01379118                0.52017264                0.54716664               -0.16412767                0.36932318                0.34667725                1.15007431               -0.06975497
               4.17588110               -0.00164069                6.98712060                0.44623086                0.92047433               -0.15408350               -0.07214873                0.33363436                3.35768675               -0.05465919
               5.18521112               -0.00392143                6.98259435                0.45293867                0.52747397               -0.09869110               -0.34397135                0.15735582                4.34673585                0.00295668
               6.18643058               -0.00691854                6.97546547                0.53252391               -0.03589263                0.08189890               -0.63653958                0.24468067                3.13665236                0.04977118
               7.18449327               -0.02168169                6.94642909                0.69518438               -0.03774828                0.27025379               -1.06967576                0.23948307                1.17957474                0.07464104
               8.18567561               -0.04662827                6.89988421                0.97206987                0.31048709                0.45096245               -1.60414771                0.08092000               -0.02654149                0.27670066
               9.19070301               -0.07527740                6.84663681                1.00000000                0.60965955                0.60654337               -2.16723752               -0.07680243               -0.35803705                0.12662128
              10.19786880               -0.10386760                6.79347500                1.00000000                0.71657925                0.76127702               -2.72289604               -0.13914878               -0.36015137               -0.38932244
               0.20253951                1.09325440                7.15360472                1.00000000               -0.52933958               -0.62310981                2.08669146               -0.05672591               -0.01420942                0.71851298
               1.19724611                1.06503339                7.09912062                1.00000000               -0.43438986               -0.42764542                1.42813623               -0.02428621                0.04484925               -0.06121374
               2.19385171                1.03642257                7.04568691                0.28096760               -0.32234196               -0.26182278                0.77553633                0.17159643                0.81510323               -0.81521402
               3.19079927                1.01142190                7.00675406                0.00010000               -0.30709803               -0.12316064                0.24312735                0.70350597                2.34799665               -0.98173454
               4.18770975                0.99681848                6.98466108                0.00010000               -0.06878311                0.31115057               -0.12291239                1.59873769                4.22960128                0.17632895
               5.18942361                0.99509166                6.98453590                0.00010000                0.50238834                0.07585273               -0.29405383                1.93685332                5.16518197                0.14991825
               6.19775751                0.99390045                6.98167463                0.01320917                0.86596804               -0.08206079               -0.49427630                1.58017666                3.98074804                0.15875484
               7.20674297                0.98102085                6.95710530                0.25168293                0.77625781                0.28686748               -0.85959069                0.87770179                2.18651768                0.97232787
               8.21328267                0.95788135                6.91720009                0.68281518                0.59058405                0.41856715               -1.34235529                0.28545221                0.95222360                0.71908770
               9.21855465                0.93078803                6.86728845                1.00000000                0.58924231                0.55146593               -1.85771889                0.02841418                0.28553663                0.32124038
              10.22506752                0.90374517                6.81387413                1.00000000                0.65128666                0.69396143               -2.40438675               -0.05547850                0.10992337               -0.44437447
               0.22917480                2.08741453                7.14066463                1.00000000               -0.46866676               -0.54664888                1.88924190               -0.05987466                0.07194856                0.88597897
               1.22448814                2.06112652                7.08169552                0.88280719               -0.35968081               -0.35970838                1.20349358               -0.02839781                0.11158229               -0.15616545
               2.22198119                2.03418458                7.02336103                0.12114838               -0.20061436               -0.19172763                0.52927406                0.19529505                0.97166205               -1.21882560
               3.22047585                2.01059996                6.98172254                0.00010000                0.11024537                0.13364274               -0.01954483                1.45534852                4.14704844               -1.33723919
               4.22418610                2.00458233                6.98697518                0.00010000                0.31951848                0.53235357               -0.09558502                2.68084170                6.26427134                0.15669987
               5.22686622                1.99759562                6.98943349                0.00010000                0.39594119                0.23938061               -0.24005742                2.82989587                5.99184793                0.42364177
               6.23210492                1.99144024                6.99000674                0.00010000                0.56000935               -0.08166839               -0.38968393                2.59746999                5.66882456                0.75134458
               7.23806641                1.98405566                6.98558514                0.10801772                0.47562779                0.18013105               -0.54892449                1.52991501                3.58864702                2.13552750
               8.24161748                1.96174307                6.94327030                0.39672162                0.36705341                0.34436922               -1.00919119                0.36180871                1.24682890                1.70892899
               9.24540747                1.93575192                6.89185367                0.97500709                0.46137428                0.43631356               -1.48064007                0.04243668                0.44399898                0.57030876
              10.25084496                1.91001163                6.83328278                1.00000000                0.54374865                0.55755624               -2.04906085               -0.05147643                0.09467972               -0.45892972
               0.25391803                3.08232142                7.12763698                1.00000000               -0.40099287               -0.47184408                1.68547305               -0.06105774                0.03685645                0.85763129
               1.24990810                3.05783922                7.06294584                0.83741607               -0.28169331               -0.29386687                0.95109637               -0.03118954                0.07839667               -0.22699774
               2.24828416                3.03258802                6.99890162                0.09766622               -0.01998034               -0.12280450                0.21957021                0.35734424                1.77351046               -1.31363436
               3.24950850                3.01409476                6.96828363                0.00010000                0.30233782                0.31012836                0.08677428                1.55569381                5.75095681               -0.54083559
               4.25433092                3.00746555                6.98370504                0.00010000                0.48275553                0.22993881               -0.08509447                2.22530697                7.83974221                0.00073643
               5.25916361                2.99987927                6.99697299                0.00010000                0.44579766                0.17268635               -0.14533281                2.31176272                7.60044966                0.66198714
               6.26324687                2.99226708                7.00856571                0.00010000                0.39374197                0.07858467               -0.19510783                2.24242011                7.45357463                1.41987703
               7.26703845                2.98462347                7.01894126                0.11821015                0.27878569                0.08017298               -0.33778425                1.44024264                4.97200281                2.50286717
               8.26882259                2.96476873                6.98011550                0.39696454                0.20481880                0.21945074               -0.49719145                0.38557715                1.34330560                1.95376642
               9.27113482                2.93951431                6.91728810                0.93716068                0.33479893                0.31332899               -1.08678980                0.02035199                0.08993282                0.55949139
              10.27551857                2.91489630                6.85317555                1.00000000                0.43837451                0.42362028               -1.69879306               -0.04507193                0.03768971               -0.47768691
               0.27691805                4.07797765                7.11421250                1.00000000               -0.33202978               -0.39974542                1.47551939               -0.05760367                0.03264866                0.82180100
               1.27359775                4.05524918                7.04417304                0.81230643               -0.20227526               -0.22347246                0.69456398               -0.02726035                0.07267913               -0.22828985
               2.27287254                4.03172849                6.97474074                0.08697500                0.15572224               -0.04740257               -0.08722266                0.45138499                2.72471324               -1.27383117
               3.27671220                4.01680253                6.95792090                0.00010000                0.50175883                0.22991890                0.06566844                1.50667579                7.44828434               -0.24171041
               4.28290772                4.00918110                6.98273634                0.00010000                0.57938736                0.13080074               -0.04645092                1.98171342                9.37648006                0.22355834
               5.28829994                4.00104935                7.00660135                0.00010000                0.46507000                0.07154837               -0.02867465                2.01206286                9.25311925                0.84820436
               6.29220912                3.99301194                7.03019243                0.00010000                0.30348321                0.03393182                0.02218324                2.01939816                9.30147585                1.63373720
               7.29436961                3.98565912                7.05519717                0.13163071                0.11145327                0.04926077                0.05910394                1.29395940                5.91266447                2.59920439
               8.29443818                3.96613208                7.01037535                0.41769869                0.06586727                0.07527683               -0.10287640                0.31055686                1.22190242                1.53887314
               9.29568695                3.94201850                6.94110481                0.96742191                0.23706778                0.19965201               -0.74723273                0.01256501                0.00328200                0.46439043
              10.29917954                3.91848404                6.87171390                1.00000000                0.34925887                0.32032707               -1.39058095               -0.04811660                0.00599025               -0.54388379
               0.29822289                5.07432652                7.10065783                1.00000000               -0.26108357               -0.33468770                1.26534517               -0.05458990                0.03618121                0.80046473
               1.29561205                5.05336978                7.02545283                0.78323154               -0.12321862               -0.15121691                0.43863289               -0.02138954                0.08396477               -0.22736358
               2.29575852                5.03163997                6.95100640                0.07429572                0.32886737                0.03352068               -0.38602213                0.46604699                3.76615291               -1.23915701
               3.30218940                5.01869313                6.94961258                0.00010000                0.69799270                0.17457954               -0.04534542                1.40250127                9.19848123                0.00050030
               4.30971837                5.01008157                6.98359062                0.00010000                0.66923134                0.05478875               -0.03128116                1.73442764               10.87516592                0.38483093
               5.31557403                5.00131024                7.01764918                0.00010000                0.46533480               -0.01607928                0.09393773                1.78532586               10.86554227                0.95809125
               6.31902507                4.99294572                7.05274200                0.00010000                0.21117310               -0.05495234                0.26066761                1.80816733               11.00787276                1.68343353
               7.31979749                4.98560869                7.08993276                0.14229057               -0.01753584               -0.06888706                0.44161715                1.12461816                6.68768316                2.49182560
               8.31867435                4.96627427                7.03827760                0.43406187               -0.03816598               -0.03388791                0.21392140                0.24106519                1.13001457                1.41731253
               9.31903417                4.94350735                6.96401072                0.99273407                0.14754065                0.10950116               -0.45073132                0.00998006                0.00217689                0.43067207
              10.32162516                4.92130284                6.88966312                1.00000000                0.25909928                0.25441808               -1.11825236               -0.04715897                0.00441776               -0.55244329
               0.31773973                6.07128389                7.08700061                1.00000000               -0.18832235               -0.27590604                1.05419397               -0.05358589                0.03801153                0.78222507
               1.31585651                6.05222484                7.00670784                0.75250425               -0.04348024               -0.07507435                0.17716461               -0.01802747                0.09495773               -0.23050332
               2.31687013                6.03239890                6.92736411                0.06040626                0.52320585                0.12625166               -0.69434740                0.41698887                4.92257651               -1.21851202
               3.32632062                6.02029412                6.94378529                0.00010000                0.90545209                0.14404954               -0.20837917                1.21470173               10.97617516                0.14027521
               4.33497917                6.01027688                6.98544232                0.00010000                0.74108415               -0.01052144               -0.04374726                1.46471225               12.25675236                0.45491115
               5.34114231                6.00072777                7.02911629                0.00010000                0.45474245               -0.09972191                0.20885201                1.55616438               12.40447327                0.97376262
               6.34407402                5.99191289                7.07496177                0.00010000                0.11955551               -0.15217469                0.49380696                1.59891302               12.62348668                1.63429767
               7.34353342                5.98428138                7.12335999                0.15081605               -0.13565927               -0.19232704                0.79176283                0.96279528                7.45425479                2.37751460
               8.34136083                5.96545432                7.06576696                0.44772478               -0.13377155               -0.12598750                0.50617487                0.17891901                1.08810392                1.38774952
               9.34085799                5.94420852                6.98671249                1.00000000                0.06422731                0.03649989               -0.18593190                0.00323449                0.01035029                0.43692557
              10.34264538                5.92357240                6.90749076                1.00000000                0.17873911                0.20414916               -0.88790322               -0.04546170                0.00492894               -0.53408719
               0.33526927                7.06880840                7.07320309                1.00000000               -0.11327768               -0.21948718                0.83856540               -0.05350210                0.04058704                0.76222609
               1.33413649                7.05186829                6.98788438                0.71973499                0.03798728                0.00763945               -0.09560413               -0.01556859                0.11194793               -0.24086248
               2.33602902                7.03416500                6.90382359                0.04544094                0.72344844                0.23645584               -1.02258553                0.28993936                6.08353577               -1.20117199
               3.34860546                7.02157412                6.93811544                0.00010000                1.12749779                0.10830503               -0.42895991                0.89587729               12.72581035                0.07102093
               4.35857897                7.00987114                6.98726374                0.00010000                0.82279189               -0.07975764               -0.08423592                1.14464329               13.58167810                0.42196051
               5.36506130                6.99931580                7.04001119                0.00010000                0.44353693               -0.18531713                0.30889928                1.30554363               13.87618674                0.89091175
               6.36744971                6.98990222                7.09608782                0.00010000                0.02253307               -0.24623570                0.72001456                1.37115208               14.18862160                1.49190047
               7.36551196                6.98176215                7.15541377                0.15711907               -0.25620609               -0.31409675                1.14437048                0.79669818                8.25612444                2.20989955
               8.36232559                6.96375452                7.09302352                0.45853617               -0.22655872               -0.21791368                0.80189439                0.12535459                1.11112889                1.35168796
               9.36098079                6.94423734                7.00951327                1.00000000               -0.01687050               -0.03166180                0.06872712               -0.00108474                0.02939892                0.44684215
              10.36198818                6.92538582                6.92545333                1.00000000                0.10073918                0.15891584               -0.66908772               -0.04657821                0.00246248               -0.50831555
               0.35054990                8.06689415                7.05915652                1.00000000               -0.03613728               -0.16456728                0.61621418               -0.05191047                0.04878072                0.73544508
               1.35018853                8.05237763                6.96886227                0.68148649                0.12065885                0.09901777               -0.38069656               -0.01118724                0.14387432               -0.27627436
               2.35296308                8.03712802                6.88033695                0.02868150                0.91717534                0.36430337               -1.37453639                0.06784395                7.16495941               -1.17895215
               3.36853203                8.02246022                6.93070016                0.00010000                1.35836396                0.04605701               -0.69133396                0.42323429               14.39915388               -0.09171401
               4.38013036                8.00868172                6.98795241                0.00010000                0.93450283               -0.18315481               -0.15007491                0.77946183               14.89042548                0.30820923
               5.38722209                7.99702142                7.04927849                0.00010000                0.44601768               -0.26933904                0.38994257                1.01526606               15.27683031                0.69938564
               6.38905071                7.98698818                7.11506085                0.00010000               -0.08035037               -0.32824890                0.94057671                1.09673318               15.71684370                1.20278867
               7.38561508                7.97799945                7.18543831                0.16057274               -0.38289922               -0.44349622                1.53392046                0.61219635                9.13985018                1.91389905
               8.38139273                7.96109605                7.11996718                0.46426122               -0.32050466               -0.32063204                1.12061449                0.07812398                1.23000151                1.27719038
               9.37920499                7.94357529                7.03236990                1.00000000               -0.09879342               -0.10598592                0.33341584               -0.00233097                0.06627003                0.45138362
              10.37941686                7.92675071                6.94360794                1.00000000                0.02118671                0.11156443               -0.44343322               -0.04728808                0.00713157               -0.49785913
               0.36326410                9.06551705                7.04472554                1.00000000                0.04147833               -0.11203570                0.38934356               -0.04850642                0.04516135                0.59947976
               1.36367888                9.05384864                6.94927376                0.63383832                0.20196052                0.19711567               -0.67315692               -0.00422926                0.21737868               -0.28997524
               2.36730331                9.04145107                6.85718445                0.00969409                1.09187832                0.49239511               -1.73413948               -0.28297123                8.19067902               -0.95133192
               3.38551644                9.02249526                6.92151845                0.00010000                1.61518515               -0.14624339               -0.94008723               -0.02883869               15.96886688               -0.14141236
               4.39960701                9.00620804                6.98693214                0.00010000                1.07718614               -0.25991379               -0.22891463                0.38572632               16.12370215                0.16294891
               5.40706017                8.99392902                7.05574769                0.00010000                0.43996708               -0.32944943                0.44677847                0.62598368               16.53950150                0.39461322
               6.40840635                8.98333725                7.13006053                0.00010000               -0.17060765               -0.39767138                1.13368070                0.67395696               17.17787942                0.69525056
               7.40364801                8.97289222                7.21173876                0.16124032               -0.50470611               -0.55952932                1.93834011                0.37967889               10.16377465                1.26980115
               8.39831223                8.95734188                7.14597644                0.46282422               -0.41842551               -0.42510736                1.45230735                0.03336277                1.53467657                0.94546994
               9.39527950                8.94211763                7.05533090                1.00000000               -0.18103332               -0.18988234                0.61221659               -0.00016297                0.14342640                0.39671662
              10.39469156                8.92761711                6.96172341                1.00000000               -0.05879428                0.05819675               -0.20711585               -0.04693116               -0.00680027               -0.43488213
               0.37291658               10.06465344                7.02778342                1.00000000                0.12533402               -0.08636128                0.14209718                0.13189980                0.33667689                0.48491393
               1.37416992               10.05631995                6.92999626                0.80020145                0.28702253                0.24713027               -0.94951125                0.16522879                0.64977937               -0.28158216
               2.37865703               10.04697592                6.83845822                0.49884977                1.45141834                0.55248539               -2.00803926               -0.70385680                9.23814775               -0.75521757
               3.40319829               10.01953536                6.91283407                0.43302168                1.88770474               -0.29599089               -1.11414825               -0.40643923               17.18785461               -0.07812816
               4.41641113               10.00348345                6.98404631                0.42996255                0.97071344               -0.27245920               -0.30103253                0.22526592               17.11028842                0.10004701
               5.42261256                9.99043243                7.05832336                0.45287402                0.35777589               -0.34965847                0.47155196                0.33280420               17.54669754                0.22695189
               6.42356665                9.97903475                7.13856596                0.49900054               -0.17042653               -0.43024964                1.25749064                0.33485087               18.36175667                0.38330702
               7.41920403                9.96680886                7.22898200                0.58065094               -0.53660335               -0.60833625                2.19143032                0.23355905               11.22490953                0.81742063
               8.41283458                9.95259390                7.16638281                0.72987599               -0.51387633               -0.47479760                1.71441655                0.10067407                2.23722165                0.66978724
               9.40892650                9.93977764                7.07717489                1.00000000               -0.26776568               -0.23399855                0.89174335                0.13073696                0.56615560                0.33885107
              10.40747927                9.92791465                6.98116605                1.00000000               -0.14472361                0.02975394                0.05139254                0.09247132                0.22264332               -0.37296920
               0.22602344                0.12288385                8.19275298                1.00000000               -0.56717105               -0.65218950                2.26822702               -0.14593157               -0.52595624                0.58524324
               1.22035173                0.08730847                8.13247198                1.00000000               -0.44643685               -0.46383889                1.64619013               -0.10525888               -0.51555056               -0.03462011
               2.21709470                0.05166851                8.07229933                0.71146157               -0.07407927               -0.30775339                1.02077391                0.07069826               -0.23377107               -0.55554237
               3.21887014                0.02001727                8.01775492                0.51931526                0.54360080               -0.17486163                0.41977437                0.36257025                1.20578294               -0.07376795
               4.22796672                0.00048211                7.98659262                0.44606851                0.92194765               -0.15799929               -0.03521849                0.34097008                3.55186242               -0.06168373
               5.23730910               -0.00611500                7.97912558                0.45310223                0.53113480               -0.09535505               -0.34677861                0.16012367                4.59016292               -0.00172187
               6.23858942               -0.01334625                7.96890633                0.53233963               -0.02970151                0.08675039               -0.66687013                0.25007075                3.29458614                0.04930843
               7.23671507               -0.03264468                7.93554740                0.69454113               -0.03410391                0.27693579               -1.09824430                0.24722502                1.22028368                0.07822853
               8.23790734               -0.06244044                7.88378660                0.97182983                0.31054226                0.45480719               -1.61359742                0.08592364               -0.04944965                0.28666650
               9.24292591               -0.09611369                7.82502206                1.00000000                0.60722253                0.60648262               -2.16023576               -0.07570730               -0.39289149                0.14482387
              10.25005179               -0.12978619                7.76639560                1.00000000                0.71258753                0.75825770               -2.70239680               -0.13609843               -0.38825564               -0.39828645
               0.26013950                1.11636195                8.17427421                1.00000000               -0.52326942               -0.61563313                2.04983573               -0.05443219               -0.01962291                0.77385310
               1.25490681                1.08267008                8.11339537                1.00000000               -0.43461087               -0.42744425                1.42621989               -0.02090440                0.04121024               -0.06282390
               2.25144728                1.04859098                8.05361988                0.27737274               -0.34088793               -0.26888040                0.80742292                0.18222601                0.87055062               -0.86696006
               3.24808905                1.01826866                8.00944334                0.00010000               -0.35023629               -0.14387607                0.29156132                0.75172464                2.54018466               -1.04589833
               4.24444256                0.99890212                7.98361454                0.00010000               -0.11322673                0.31698833               -0.08916296                1.65802019                4.59234638                0.21600481
               5.24582451                0.99293144                7.98153404                0.00010000                0.49562008                0.07608801               -0.30430833                2.00165971                5.59160679                0.15787616
               6.25435496                0.98752125                7.97648194                0.01177247                0.89549475               -0.08835196               -0.53581808                1.62985972                4.28860176                0.14500916
               7.26373441                0.97012468                7.94825740                0.24806020                0.80730595                0.30173253               -0.90114637                0.90762882                2.33654949                1.02317982
               8.27050108                0.94210763                7.90365329                0.67647356                0.60536529                0.42560245               -1.36363983                0.28877897                1.01563518                0.76383365
               9.27584172                0.90995113                7.84868020                1.00000000                0.59311107                0.55756089               -1.86733951                0.02515756                0.31205253                0.36835562
              10.28236330                0.87779639                7.78988219                1.00000000                0.65215853                0.69904567               -2.40337381               -0.05315091                0.12286260               -0.43856134
               0.29231854                2.11057119                8.15937786                1.00000000               -0.46139248               -0.54512320                1.85516361               -0.05644808                0.07910259                0.95025336
               1.28770461                2.07875959                8.09373414                0.87028159               -0.35889456               -0.36073946                1.20299791               -0.02399478                0.12366037               -0.17204247
               2.28514065                2.04629091                8.02884687                0.11591272               -0.20555567               -0.19554623                0.56363880                0.19701639                1.05188912               -1.31535657
               3.28359350                2.01713975                7.98187003                0.00010000                0.06618433                0.14562778                0.04064900                1.53410556                4.50740727               -1.27735010
               4.28646434                2.00682188                7.98620594                0.00010000                0.25648275                0.54435418               -0.06493593                2.79671460                6.81395559                0.21771106
               5.28872316                1.99540676                7.98700171                0.00010000                0.37645209                0.23980223               -0.24460207                2.93191753                6.49342362                0.45969787
               6.29399338                1.98488671                7.98584107                0.00010000                0.57790521               -0.08722205               -0.43123725                2.69585433                6.13790853                0.77645107
               7.30028126                1.97338997                7.97973615                0.10313163                0.49315418                0.18319922               -0.60408037                1.58203762                3.87000688                2.16837242
               8.30385646                1.94607161                7.93298678                0.38717367                0.37295252                0.36854646               -1.04276184                0.36457805                1.36685828                1.87039572
               9.30774031                1.91503753                7.87677420                0.95642654                0.47209012                0.45760612               -1.52894810                0.04184005                0.50252930                0.66299504
              10.31329826                1.88419472                7.81256061                1.00000000                0.55579520                0.57840080               -2.09213586               -0.04786558                0.11191870               -0.43561343
               0.32263374                3.10545949                8.14432357                1.00000000               -0.39265485               -0.47590328                1.65309089               -0.05850919                0.03612493                0.91839517
               1.31870719                3.07545529                8.07246973                0.82383885               -0.28131469               -0.29517054                0.95194771               -0.02805518                0.07819434               -0.25694426
               2.31700745                3.04468006                8.00130406                0.09205438               -0.02335004               -0.12143160                0.25600004                0.38501430                2.07111973               -1.43991852
               3.31824019                3.02118121                7.96944498                0.00010000                0.25512001                0.35763030                0.12018176                1.62656615                6.30338227               -0.38719895
               4.32210985                3.00978920                7.98305381                0.00010000                0.40789207                0.24329341               -0.05518714                2.31665667                8.42853160                0.06509019
               5.32639803                2.99772749                7.99547261                0.00010000                0.40894927                0.18137819               -0.15281375                2.41064283                8.23023222                0.72799832
               6.33028883                2.98577681                8.00628916                0.00010000                0.38961131                0.09003036               -0.24611679                2.33089169                8.01334157                1.50310316
               7.33419026                2.97378866                8.01497282                0.11250899                0.29281266                0.08470911               -0.42419383                1.50696503                5.45840775                2.58887222
               8.33614509                2.94947856                7.97479896                0.38690863                0.21825728                0.25555372               -0.56056235                0.41867012                1.59679082                2.15364133
               9.33855540                2.91910326                7.90608357                0.91893431                0.34732538                0.34450838               -1.14949880                0.02042670                0.10191796                0.65148401
              10.34309159                2.88936440                7.83583829                1.00000000                0.45361885                0.45477579               -1.76271008               -0.04662575                0.03744166               -0.45698029
               0.35115675                4.10105312                8.12879882                1.00000000               -0.32338044               -0.40591069                1.44275881               -0.05635614                0.02823235                0.88366550
               1.34792294                4.07285617                8.05112326                0.80028600               -0.20208673               -0.22341021                0.69439321               -0.02605777                0.06623448               -0.25838704
               2.34711501                4.04386227                7.97404993                0.08192331                0.15463679               -0.04119986               -0.05392809                0.49360473                3.17844668               -1.39597715
               3.35101568                4.02429236                7.95877136                0.00010000                0.45680885                0.25815545                0.07872303                1.57359108                8.21059820               -0.20925156
               4.35625119                4.01168774                7.98243533                0.00010000                0.49663610                0.15166196               -0.02580296                2.05844507               10.07325483                0.28683082
               5.36094840                3.99903432                8.00623107                0.00010000                0.41494233                0.08912743               -0.04231892                2.11264880               10.00774385                0.92940535
               6.36455004                3.98668732                8.03005340                0.00010000                0.28852027                0.05387910               -0.03445719                2.12292452               10.02931112                1.74297580
               7.36671881                3.97508415                8.05513967                0.12589284                0.11826155                0.08027965               -0.04513013                1.38222125                6.51772929                2.78496316
               8.36691527                3.95118269                8.00907745                0.40851110                0.07720989                0.10183055               -0.15411088                0.34934008                1.48322456                1.65597638
               9.36826301                3.92192769                7.93338990                0.95212866                0.24640924                0.22706901               -0.79644762                0.01315374                0.00430619                0.51498047
              10.37184345                3.89329024                7.85756899                1.00000000                0.35804483                0.35067099               -1.44120053               -0.04943149                0.00640471               -0.55161999
               0.37790051                5.09734127                8.11313177                1.00000000               -0.25236253               -0.33899848                1.23045721               -0.05388972                0.03251239                0.86678545
               1.37537688                5.07098709                8.02982517                0.77275614               -0.12285747               -0.14919645                0.43562957               -0.02102298                0.07932901               -0.25772065
               2.37544336                5.04385606                7.94729695                0.06999482                0.32548302                0.04246486               -0.35731738                0.50814446                4.33140349               -1.36224925
               3.38188654                5.02634432                7.94918353                0.00010000                0.65467140                0.18732629               -0.05678735                1.45897044               10.15368966               -0.04233983
               4.38853679                5.01282244                7.98336031                0.00010000                0.58824469                0.07896563               -0.02503771                1.80154461               11.72722853                0.42227290
               5.39365144                4.99951004                8.01845459                0.00010000                0.40803515                0.00783890                0.07251586                1.88231991               11.76582642                1.04132669
               6.39669749                4.98685439                8.05499782                0.00010000                0.18439384               -0.03090126                0.20591036                1.91843535               11.90001804                1.80739859
               7.39733931                4.97539426                8.09386090                0.13679665               -0.02045715               -0.03951170                0.35851151                1.20885431                7.36298414                2.66818884
               8.39628835                4.95151517                8.04028178                0.42583117               -0.03141938               -0.02157225                0.18598050                0.27054052                1.37326090                1.48761900
               9.39671093                4.92364464                7.95934120                0.97983669                0.15447621                0.12740847               -0.48499915                0.01062510                0.00631472                0.44564038
              10.39937787                4.89637782                7.87829366                1.00000000                0.26669448                0.27630169               -1.15871384               -0.04717860                0.00855525               -0.59986079
               0.40278733                6.09427315                8.09734634                1.00000000               -0.17996267               -0.27610162                1.01627737               -0.05224349                0.03600221                0.85084192
               1.40098770                6.06987225                8.00845530                0.74251319               -0.04333290               -0.07168538                0.17287961               -0.01700409                0.09356870               -0.26653628
               2.40192067                6.04471157                7.92056497                0.05666088                0.51205034                0.13459605               -0.66574010                0.45608210                5.57838101               -1.35570821
               3.41122871                6.02803888                7.94152537                0.00010000                0.85978483                0.15441603               -0.24597056                1.26184679               12.11390976                0.04798614
               4.41911637                6.01326706                7.98497852                0.00010000                0.66670691                0.01542477               -0.05427492                1.52319184               13.28673793                0.46650349
               5.42456285                5.99919110                8.03101584                0.00010000                0.39590805               -0.07212473                0.17976757                1.64159735               13.46294398                1.04917475
               6.42703453                5.98606929                8.07959462                0.00010000                0.08361322               -0.12884878                0.44772128                1.70014043               13.67142560                1.75775627
               7.42623511                5.97429392                8.13102581                0.14559827               -0.14794149               -0.17758342                0.74596364                1.03256420                8.18887515                2.54549226
               8.42407570                5.95075124                8.07080726                0.43990095               -0.13111261               -0.12516064                0.49754866                0.19812499                1.31265659                1.44894977
               9.42361286                5.92447586                7.98478730                1.00000000                0.06789051                0.04484864               -0.20210379                0.00522247                0.01384322                0.43201937
              10.42543351                5.89881627                7.89849953                1.00000000                0.18206493                0.21724318               -0.90830321               -0.04656255                0.00442615               -0.60548200
               0.42565745                7.09181924                8.08137576                1.00000000               -0.10590671               -0.21533250                0.79805412               -0.05100673                0.03900239                0.82937640
               1.42459838                7.06955338                7.98691377                0.70969188                0.03704579                0.01077908               -0.09745671               -0.01323274                0.11168974               -0.28596113
               2.42639836                7.04654798                7.89377323                0.04218448                0.69848069                0.24003485               -0.98718044                0.33046363                6.81499350               -1.35927922
               3.43856799                7.02943264                7.93355477                0.00010000                1.07250232                0.12011284               -0.47342196                0.94091840               14.05023215               -0.05603004
               4.44784841                7.01313093                7.98628492                0.00010000                0.75565779               -0.05188357               -0.10886002                1.19435219               14.81074445                0.41046052
               5.45368115                6.99806754                8.04286024                0.00010000                0.38745338               -0.15548824                0.27358724                1.37236820               15.10546261                0.95262421
               6.45559748                6.98427742                8.10304190                0.00010000               -0.01862513               -0.22552308                0.68450849                1.44882204               15.40154698                1.61253000
               7.45330865                6.97184259                8.16682870                0.15238476               -0.27642872               -0.31109030                1.13293757                0.84607656                9.05456250                2.39795291
               8.45006890                6.94901196                8.10109148                0.45089408               -0.22791520               -0.22310826                0.80473596                0.13589450                1.31198041                1.42674618
               9.44875034                6.92454161                8.01019037                1.00000000               -0.01515521               -0.03036275                0.06390679                0.00096208                0.02899385                0.44147094
              10.44976580                6.90072269                7.91873552                1.00000000                0.10154553                0.16562982               -0.67513208               -0.04690297                0.00289452               -0.58270760
               0.44629892                8.08996650                8.06509759                1.00000000               -0.03046079               -0.15710873                0.57499144               -0.04864291                0.04609743                0.79956777
               1.44599431                8.07008783                7.96508085                0.67248061                0.11758816                0.09965460               -0.37498929               -0.00807238                0.14079553               -0.32873753
               2.44865068                8.04951227                7.86685594                0.02628091                0.87349057                0.35858049               -1.32291283                0.11585110                7.96751916               -1.35036996
               3.46346412                8.03044114                7.92359610                0.00010000                1.28589137                0.05891223               -0.71529848                0.48036851               15.92123581               -0.21909518
               4.47436851                8.01222938                7.98624564                0.00010000                0.86998032               -0.15193155               -0.18008830                0.82197849               16.33252785                0.28418178
               5.48086373                7.99608133                8.05290223                0.00010000                0.39337082               -0.23794157                0.35128332                1.05941499               16.69012684                0.74387522
               6.48223593                7.98155883                8.12427056                0.00010000               -0.12208155               -0.30796903                0.91277074                1.14363525               17.12011375                1.30969743
               7.47842210                7.96807211                8.20084754                0.15704463               -0.40706799               -0.44228870                1.53671678                0.63954531               10.01488551                2.12517604
               8.47409457                7.94628908                8.13120081                0.45776185               -0.32503607               -0.32460881                1.12082773                0.08282991                1.40010958                1.36963502
               9.47192138                7.92386861                8.03572010                1.00000000               -0.09806359               -0.10736254                0.33321767                0.00001118                0.05823160                0.45938010
              10.47213329                7.90212887                7.93919648                1.00000000                0.02119179                0.11386242               -0.44276588               -0.04677504                0.00681378               -0.56414527
               0.46444193                9.08867707                8.04840435                1.00000000                0.04492301               -0.10248637                0.34980008               -0.04549070                0.04028868                0.65288295
               1.46489116                9.07154647                7.94263779                0.62951394                0.19600687                0.19314888               -0.65524242               -0.00217110                0.21283178               -0.33689628
               2.46836207                9.05371959                7.84025898                0.00910093                1.02835412                0.47494598               -1.65654294               -0.21881241                9.07991545               -1.08329205
               3.48545825                9.03061089                7.91211645                0.00010000                1.51428573               -0.11872683               -0.93039409                0.03252892               17.69332395               -0.22064335
               4.49864779                9.01009230                7.98444261                0.00010000                1.00408791               -0.22682212               -0.25322906                0.41728779               17.76718303                0.14417461
               5.50554001                8.99330871                8.05992673                0.00010000                0.39158077               -0.29895637                0.40866755                0.64694904               18.13658003                0.41930894
               6.50647940                8.97811804                8.14122250                0.00010000               -0.20853496               -0.37704083                1.10927566                0.69451284               18.79203662                0.76172581
               7.50136931                8.96299681                8.23113382                0.16019189               -0.52751980               -0.55431554                1.93274046                0.39046319               11.13581952                1.42027207
               8.49592901                8.94251979                8.16042461                0.46029003               -0.42292668               -0.42386031                1.43769491                0.03419109                1.68160154                1.01417834
               9.49291077                8.92239436                8.06146676                1.00000000               -0.18096162               -0.19124208                0.61269878                0.00121761                0.13118458                0.41467205
              10.49230977                8.90299994                7.95971499                1.00000000               -0.06009992                0.05699492               -0.19881155               -0.04655956               -0.00897604               -0.48258249
               0.47965030               10.08791677                8.02902546                1.00000000                0.12580718               -0.07602953                0.10891035                0.12423932                0.36197360                0.52821789
               1.48090837               10.07395080                7.92066545                0.80051344                0.27798618                0.24043325               -0.92005184                0.15644102                0.69256878               -0.31930192
               2.48521002               10.05901119                7.81890557                0.49927478                1.34168093                0.52915987               -1.91270141               -0.60941534               10.23932346               -0.84222153
               3.50774199               10.02806660                7.90181961                0.43341722                1.74032101               -0.25442830               -1.08378203               -0.33753837               19.07459818               -0.11667917
               4.52001644               10.00769294                7.98088877                0.43031690                0.90174950               -0.23993607               -0.31480427                0.23864536               18.91315857                0.09230867
               5.52577698                9.99010221                8.06277194                0.45320120                0.32108211               -0.32065068                0.43984458                0.33995054               19.30297349                0.24374343
               6.52643808                9.97401801                8.15098791                0.49936290               -0.19736823               -0.41000242                1.23973383                0.34004781               20.15048492                0.43088658
               7.52182961                9.95698580                8.25093703                0.58120691               -0.55286200               -0.60110107                2.19301182                0.23572339               12.30974922                0.90690230
               8.51538084                9.93781187                8.18343573                0.73064237               -0.51820163               -0.47079164                1.69923040                0.09808179                2.43332869                0.70712710
               9.51146558                9.92004377                8.08611486                1.00000000               -0.26949462               -0.23505924                0.89460147                0.12832553                0.59085889                0.35937611
              10.50999095                9.90326877                7.98177331                1.00000000               -0.14746295                0.02688328                0.06556964                0.09061777                0.23803204               -0.40707640
               0.28391018                0.14853912                9.21526324                1.00000000               -0.56255133               -0.64325370                2.23614628               -0.14043426               -0.57377915                0.63216878
               1.27828467                0.10714024                9.14892032                1.00000000               -0.44653876               -0.46254819                1.64282254               -0.09950305               -0.56630426               -0.03413025
               2.27497941                0.06566910                9.08264049                0.71120729               -0.08303306               -0.31332692                1.04433905                0.07707242               -0.27645311               -0.59299180
               3.27662401                0.02821098                9.02218667                0.51917995                0.52841388               -0.18221617                0.46255489                0.36906390                1.23451803               -0.07854991
               4.28554768                0.00308180                8.98641623                0.44614994                0.90383353               -0.15565410               -0.00188823                0.34264003                3.69428263               -0.06739906
               5.29470068               -0.00877279                8.97565878                0.45321814                0.51764015               -0.08541528               -0.34443577                0.16049766                4.77893712               -0.00504929
               6.29590049               -0.02108360                8.96212806                0.53215746               -0.03410027                0.09494876               -0.68416075                0.25235501                3.42145552                0.04944686
               7.29401867               -0.04553711                8.92446421                0.69396129               -0.03442624                0.28328032               -1.11540160                0.25115774                1.25430094                0.08183775
               8.29521196               -0.08062832                8.86761226                0.97102854                0.31087572                0.45861637               -1.62255688                0.08805674               -0.07039735                0.29926845
               9.30023619               -0.11969720                8.80343209                1.00000000                0.60723288                0.61002013               -2.16285994               -0.07584856               -0.42645950                0.16000784
              10.30735662               -0.15880651                8.73942706                1.00000000                0.71204333                0.76154485               -2.69913313               -0.13451543               -0.41663250               -0.41498125
               0.32390473                1.14210659                9.19460144                1.00000000               -0.51800758               -0.60844441                2.01804685               -0.05247769               -0.02510359                0.83195221
               1.31872465                1.10251476                9.12764501                1.00000000               -0.43449841               -0.42644595                1.42321881               -0.01815495                0.03716617               -0.06335121
               2.31521476                1.06253583                9.06183537                0.27540316               -0.35581763               -0.27379167                0.83237809                0.18888685                0.91809831               -0.91734062
               3.31160830                1.02638882                9.01258529                0.00010000               -0.38743946               -0.15798295                0.33339572                0.78151725                2.70088985               -1.10676537
               4.30746597                1.00152526                8.98287782                0.00010000               -0.16099741                0.32077443               -0.05972185                1.68850452                4.89579247                0.25423231
               5.30838835                0.99037306                8.97844974                0.00010000                0.46701143                0.08119015               -0.30999651                2.03697637                5.95651280                0.17246024
               6.31680620                0.97986589                8.97095827                0.01084845                0.89571309               -0.08771799               -0.56349030                1.65753958                4.56126178                0.13878279
               7.32630261                0.95729570                8.93908237                0.24565038                0.81831882                0.31223988               -0.92934326                0.91970568                2.47985547                1.07862392
               8.33317257                0.92395784                8.88992729                0.67152308                0.61320934                0.43168134               -1.38099784                0.29059699                1.08095404                0.81212843
               9.33856680                0.88640301                8.82994166                1.00000000                0.59741049                0.56528200               -1.88184344                0.02495675                0.33716963                0.40553851
              10.34512078                0.84880893                8.76580666                1.00000000                0.65539854                0.70748878               -2.41546502               -0.05171188                0.13346619               -0.44790085
               0.36204429                2.13637024                9.17776790                1.00000000               -0.45519654               -0.54191116                1.82470921               -0.05371685                0.08673105                1.01694631
               1.35749233                2.09861132                9.10575548                0.85882200               -0.35806071               -0.36017698                1.20060597               -0.02050589                0.13702517               -0.18713781
               2.35488308                2.06019327                9.03463380                0.11260642               -0.21136997               -0.19746175                0.59056841                0.19782792                1.12868202               -1.41116034
               3.35326493                2.02505132                8.98253552                0.00010000                0.02252283                0.15303143                0.08698813                1.57610584                4.83356882               -1.23576657
               4.35533353                2.00949728                8.98567647                0.00010000                0.19173200                0.55063582               -0.04416446                2.86038224                7.30211555                0.27770038
               5.35709957                1.99285102                8.98454145                0.00010000                0.33975544                0.24184051               -0.24562326                2.99046542                6.93519828                0.50224003
               6.36212864                1.97716205                8.98138199                0.00010000                0.56106332               -0.08745405               -0.45335427                2.75319871                6.56500535                0.80717197
               7.36832083                1.96070769                8.97350353                0.09973729                0.48939746                0.18508525               -0.63571359                1.61187253                4.14595215                2.20728564
               8.37191659                1.92800531                8.92241506                0.37986843                0.37816989                0.38965232               -1.06836609                0.36879148                1.48472712                2.02840083
               9.37588423                1.89160844                8.86127471                0.93975466                0.47969659                0.47626391               -1.56537542                0.04525045                0.55501070                0.74216876
              10.38151052                1.85534326                8.79144006                1.00000000                0.56262926                0.59696845               -2.12789628               -0.04465907                0.12661811               -0.43016601
               0.39834822                3.13126836                9.16069880                1.00000000               -0.38567223               -0.47637353                1.62337948               -0.05623897                0.03659279                0.97875458
               1.39449150                3.09531122                9.08198480                0.81093395               -0.28084571               -0.29426609                0.94999722               -0.02513823                0.08057098               -0.28786237
               2.39273131                3.05858660                9.00402162                0.08820415               -0.03325533               -0.11886016                0.28366642                0.40242685                2.34415343               -1.56808226
               3.39382640                3.02944945                8.97068726                0.00010000                0.20713049                0.39138131                0.12202710                1.66126059                6.81772747               -0.26525181
               4.39687392                3.01253797                8.98260130                0.00010000                0.33532506                0.25569649               -0.04043823                2.36699952                8.97042805                0.12444575
               5.40053290                2.99520987                8.99391672                0.00010000                0.35697885                0.19022328               -0.15663028                2.46580087                8.79580191                0.79216255
               6.40401350                2.97811681                9.00364337                0.00010000                0.35819511                0.10003753               -0.27405298                2.37728160                8.52343083                1.58461623
               7.40769680                2.96099740                9.01045738                0.10810980                0.28170760                0.08813073               -0.46178813                1.55066958                5.92880418                2.66832599
               8.40964765                2.93175089                8.96890425                0.37836347                0.22185270                0.28817447               -0.61155144                0.44333659                1.85116113                2.35272111
               9.41213385                2.89592828                8.89429812                0.90098704                0.35551588                0.37260174               -1.20042852                0.01973552                0.11618111                0.74199460
              10.41675797                2.86074830                8.81792134                1.00000000                0.46241138                0.48265020               -1.81439135               -0.04605155                0.03532670               -0.44205605
               0.43283381                4.12684277                9.14306768                1.00000000               -0.31624783               -0.40768280                1.41233032               -0.05477191                0.02537243                0.94150077
               1.42967133                4.09272600                9.05806091                0.78788046               -0.20202142               -0.22139472                0.69239227               -0.02423758                0.06232497               -0.29210665
               2.42879338                4.05781606                8.97366218                0.07821959                0.14337159               -0.03533286               -0.02635689                0.52249374                3.59795983               -1.52278847
               3.43253876                4.03287895                8.95949536                0.00010000                0.40598612                0.28214375                0.06116279                1.60842925                8.92867508               -0.19762195
               4.43691310                4.01461121                8.98222028                0.00010000                0.41489908                0.17229286               -0.02213646                2.09472468               10.72828963                0.33683240
               5.44083674                3.99665548                9.00575497                0.00010000                0.34868210                0.10710644               -0.05083655                2.16358656               10.70020648                1.00271054
               6.44388674                3.97916280                9.02950329                0.00010000                0.24317007                0.07178305               -0.06616545                2.17102192               10.70161061                1.85005299
               7.44570015                3.96247030                9.05429456                0.12115831                0.09828481                0.10444623               -0.10549577                1.43412087                7.11861788                2.97391032
               8.44585244                3.93376880                9.00729313                0.39994485                0.07906919                0.12729726               -0.19943115                0.38008937                1.76289448                1.79138800
               9.44728153                3.89906048                8.92517585                0.93495929                0.25485061                0.25472345               -0.84417987                0.01210971                0.00611643                0.57563839
              10.45094945                3.86499627                8.84288989                1.00000000                0.36679241                0.38133934               -1.49306366               -0.04975201                0.00573489               -0.55587925
               0.46548633                5.12311471                9.12526698                1.00000000               -0.24528713               -0.33930129                1.19813782               -0.05273718                0.02953567                0.92559603
               1.46303345                5.09088332                9.03416542                0.76150656               -0.12290465               -0.14602386                0.43234530               -0.01984293                0.07581033               -0.29290675
               2.46302823                5.05787994                8.94386005                0.06683490                0.30831877                0.04961975               -0.33160584                0.53916506                4.85507488               -1.48886567
               3.46919983                5.03509232                8.94847684                0.00010000                0.59818249                0.20018277               -0.08329479                1.48752005               11.06219662               -0.10404318
               4.47499188                5.01598383                8.98308987                0.00010000                0.50266088                0.10355634               -0.03126847                1.82850123               12.54307281                0.44097267
               5.47925305                4.99735200                9.01909949                0.00010000                0.33136155                0.03250602                0.05960180                1.92584942               12.61148963                1.11156999
               6.48161911                4.97955247                9.05686021                0.00010000                0.12600841               -0.00694312                0.17476482                1.96700726               12.74793840                1.92945170
               7.48177322                4.96308633                9.09710299                0.13216720               -0.04799250               -0.01234377                0.30129136                1.25712470                8.04589321                2.86677798
               8.48065926                4.93429684                9.04199721                0.41785080               -0.03123181               -0.00725924                0.15684183                0.29682260                1.63818714                1.57649277
               9.48114858                4.90102275                8.95431073                0.96418172                0.16160452                0.14696300               -0.52132164                0.01196556                0.00885800                0.47331762
              10.48389135                4.86837509                8.86648884                1.00000000                0.27427743                0.30123169               -1.20187187               -0.04676609                0.00941384               -0.63414968
               0.49624184                6.12005674                9.10732616                1.00000000               -0.17325966               -0.27350193                0.98171993               -0.05077368                0.03399824                0.90930411
               1.49450924                6.08980552                9.01016543                0.73203350               -0.04370800               -0.06799021                0.16947327               -0.01544583                0.09233566               -0.30587833
               2.49536768                6.05880846                8.91404930                0.05404953                0.48380153                0.14042559               -0.63871024                0.48683728                6.18424421               -1.49072367
               3.50418527                6.03688261                8.93886588                0.00010000                0.79278867                0.16452343               -0.27717645                1.28862358               13.20312625               -0.05507944
               4.51122345                6.01668234                8.98435682                0.00010000                0.57999077                0.04147004               -0.06780523                1.54597493               14.28821966                0.45799248
               5.51578509                5.99730560                9.03271164                0.00010000                0.31345559               -0.04350504                0.16430170                1.67510553               14.47881527                1.10873789
               6.51749256                5.97902393                9.08391619                0.00010000                0.01565936               -0.10377946                0.42300453                1.74054557               14.69400927                1.87867321
               7.51609828                5.96222343                9.13827926                0.14127918               -0.18200491               -0.15934240                0.70840967                1.06900470                8.93621959                2.73802775
               8.51385247                5.93362361                9.07571794                0.43241330               -0.13278446               -0.12004699                0.48302503                0.21602824                1.55295774                1.52070795
               9.51344259                5.90199974                8.98267041                0.98797602                0.07284953                0.05556092               -0.22438461                0.00826686                0.01867476                0.43822711
              10.51530946                5.87102090                8.88932469                1.00000000                0.18668700                0.23298127               -0.93397347               -0.04466254                0.00943857               -0.66115360
               0.52497329                7.11764467                9.08916418                1.00000000               -0.10004736               -0.20999149                0.76221068               -0.04894108                0.03719454                0.88533238
               1.52397282                7.08952352                8.98593524                0.69980726                0.03572994                0.01366741               -0.09798340               -0.01096882                0.11122597               -0.33095113
               2.52568789                7.06068845                8.88407998                0.04014812                0.65627992                0.24132039               -0.95339098                0.36449051                7.49315892               -1.50651328
               3.53709842                7.03838279                8.92864701                0.00010000                0.99002458                0.13170172               -0.49618575                0.97532807               15.32026593               -0.17673678
               4.54548838                7.01681323                8.98508654                0.00010000                0.66575739               -0.02373365               -0.12398502                1.21752192               16.01225723                0.38394837
               5.55041357                6.99648190                9.04548293                0.00010000                0.30119069               -0.12365829                0.25804661                1.39391361               16.30388364                0.99864438
               6.55151220                6.97747688                9.10977799                0.00010000               -0.09299675               -0.20112023                0.66767574                1.47163467               16.60580902                1.72686450
               7.54855363                6.95989948                9.17807252                0.14864982               -0.31543392               -0.30127923                1.11442320                0.86516402                9.86565656                2.59722904
               8.54520352                6.93189590                9.10911824                0.44394770               -0.23185006               -0.22339928                0.79842255                0.14521926                1.52045039                1.50024642
               9.54391663                6.90213397                9.01079141                1.00000000               -0.01238686               -0.02566178                0.05352427                0.00350930                0.02940162                0.44036250
              10.54495578                6.87303472                8.91195069                1.00000000                0.10391522                0.17337204               -0.68739534               -0.04538013                0.00714231               -0.64977482
               0.55150532                8.11585691                9.07065635                1.00000000               -0.02592365               -0.14989171                0.53966736               -0.04631869                0.04356550                0.85292490
               1.55124609                8.09007887                8.96136249                0.66418755                0.11464454                0.10013017               -0.36912810               -0.00569894                0.13825648               -0.37711720
               2.55379821                8.06363487                8.85387870                0.02516007                0.81604844                0.35235762               -1.27607451                0.15864183                8.71921965               -1.50111485
               3.56756706                8.03951664                8.91639419                0.00010000                1.18382859                0.07380477               -0.71540415                0.53368427               17.37739211               -0.32638035
               4.57747479                8.01620767                8.98435064                0.00010000                0.77163258               -0.11824153               -0.18932505                0.84838969               17.73679407                0.25386258
               5.58299971                7.99483244                9.05630416                0.00010000                0.30164468               -0.20182044                0.33819291                1.06960855               18.07818622                0.77553824
               6.58350768                7.97500153                9.13331626                0.00010000               -0.20085818               -0.28112374                0.90097351                1.14466048               18.52222068                1.40531529
               7.57898254                7.95619784                9.21617265                0.15446533               -0.44926606               -0.43456560                1.52570583                0.63813820               10.89808562                2.32621626
               8.57452236                7.92915563                9.14238373                0.45226228               -0.33042948               -0.32526867                1.11466051                0.08482287                1.57256453                1.44657971
               9.57237395                7.90148650                9.03903425                1.00000000               -0.09609962               -0.10588328                0.32693425                0.00144509                0.05064565                0.46510783
              10.57260037                7.87448834                8.93475263                1.00000000                0.02264118                0.11769570               -0.44792509               -0.04682605                0.00622025               -0.62509001
               0.57560300                9.11464684                9.05172154                1.00000000                0.04778805               -0.09406656                0.31654219               -0.04353372                0.03644661                0.69772118
               1.57608089                9.09152612                8.93616892                0.62523754                0.19099759                0.18998564               -0.64048174               -0.00080632                0.21105204               -0.37807193
               2.57942296                9.06773560                8.82405359                0.00953283                0.95592079                0.46017291               -1.59129804               -0.15880506                9.91998379               -1.19315908
               3.59519930                9.03985889                8.90291056                0.00010000                1.38587121               -0.08605979               -0.90583616                0.09263956               19.33557282               -0.28129700
               4.60714038                9.01444840                8.98186756                0.00010000                0.89062875               -0.18851882               -0.25182754                0.44168940               19.35802104                0.12515671
               5.61301188                8.99244549                9.06392104                0.00010000                0.29498089               -0.26077697                0.40050147                0.64895949               19.70744322                0.43626819
               6.61304000                8.97185441                9.15224604                0.00010000               -0.29247897               -0.34399378                1.10070729                0.68331218               20.40116703                0.81620522
               7.60716230                8.95120817                9.25039357                0.15955374               -0.57143402               -0.54286853                1.91828204                0.37523816               12.10676471                1.55276413
               8.60161132                8.92539052                9.17473034                0.45813817               -0.42747394               -0.42207167                1.42474146                0.03045566                1.82957131                1.06536786
               9.59861282                8.90001631                9.06758487                1.00000000               -0.17978657               -0.19087676                0.60925828                0.00151283                0.12296856                0.42841273
              10.59801559                8.87538863                8.95774718                1.00000000               -0.05972312                0.05840669               -0.19902381               -0.04663595               -0.01029703               -0.52542345
               0.59687608               10.11397558                9.02996162                1.00000000                0.12651152               -0.06712564                0.08055772                0.11760746                0.38383970                0.56471226
               1.59814119               10.09387858                8.91159522                0.80016735                0.27066333                0.23524596               -0.89751230                0.14916805                0.73347783               -0.35148000
               2.60228934               10.07283832                8.80020419                0.50003484                1.22829283                0.51027217               -1.83704990               -0.51751798               11.18577747               -0.91106085
               3.62270705               10.03779544                8.89115843                0.43408810                1.57163136               -0.20634444               -1.04620992               -0.26927671               20.87468042               -0.14420192
               4.63372197               10.01243729                8.97775022                0.43066753                0.79329186               -0.20111070               -0.30377930                0.24923180               20.65936103                0.08566853
               5.63857289                9.98961690                9.06712025                0.45341023                0.23446376               -0.28285928                0.44004848                0.34031919               21.03415946                0.25788806
               6.63841125                9.96812165                9.16336064                0.49961971               -0.28108476               -0.37327551                1.23964162                0.32330373               21.93591948                0.47005070
               7.63295119                9.94534047                9.27284224                0.58163972               -0.60439580               -0.58676913                2.18576244                0.20851655               13.38505010                0.98128887
               8.62632333                9.92071419                9.20036742                0.73103302               -0.52725442               -0.46763295                1.68949163                0.08762600                2.62164710                0.73235748
               9.62240610                9.89766897                9.09506692                1.00000000               -0.27001663               -0.23473375                0.89421746                0.12644261                0.61601512                0.37568177
              10.62092300                9.87565647                8.98247744                1.00000000               -0.14831052                0.02678445                0.07082862                0.08949178                0.25152339               -0.43739091
               0.34723371                0.17685084               10.23747591                1.00000000               -0.55853111               -0.63544972                2.20845816               -0.13578042               -0.62197210                0.67957243
               1.34164840                0.12917647               10.16532843                1.00000000               -0.44672111               -0.46085753                1.63824401               -0.09481664               -0.61797647               -0.03334774
               2.33829929                0.08141891               10.09318611                0.71095587               -0.09318200               -0.31680642                1.06198218                0.08059691               -0.32382000               -0.62974083
               3.33978476                0.03764904               10.02700602                0.51942581                0.50404853               -0.18645404                0.49745116                0.36756450                1.24385664               -0.08342307
               4.34838026                0.00621094                9.98655486                0.44637754                0.86956214               -0.14844177                0.02763946                0.33902189                3.79832870               -0.07211283
               5.35717601               -0.01179791                9.97223687                0.45328642                0.49164168               -0.07041137               -0.33912550                0.15839928                4.92832366               -0.00716470
               6.35821310               -0.03001772                9.95522311                0.53190819               -0.04295557                0.10606972               -0.69524830                0.25112900                3.52727504                0.05020702
               7.35631689               -0.06024426                9.91323937                0.69325091               -0.03407944                0.29020949               -1.12950324                0.25118904                1.28297209                0.08566083
               8.35753151               -0.10108514                9.85133546                0.96951781                0.31325119                0.46325364               -1.63496222                0.08851701               -0.09240966                0.31357199
               9.36258192               -0.14593267                9.78176486                1.00000000                0.60988439                0.61519498               -2.17427039               -0.07561131               -0.46114028                0.17329052
              10.36972919               -0.19084501                9.71241293                1.00000000                0.71472771                0.76703757               -2.70831705               -0.13389179               -0.44645361               -0.43854273
               0.39355028                1.17049634               10.21463515                1.00000000               -0.51340780               -0.60190454                1.99091595               -0.05063002               -0.03033931                0.89068805
               1.38841620                1.12456790               10.14185975                1.00000000               -0.43406493               -0.42497143                1.41936693               -0.01573415                0.03313888               -0.06377129
               2.38486898                1.07825085               10.07026744                0.27400578               -0.36759030               -0.27687339                0.85116124                0.19257766                0.96095315               -0.96684175
               3.38106439                1.03578450               10.01611125                0.00010000               -0.41875112               -0.16632959                0.36826601                0.79565640                2.83859793               -1.16667340
               4.37649396                1.00472653                9.98242011                0.00010000               -0.20950326                0.32207314               -0.03334743                1.69169636                5.15332222                0.28870742
               5.37687433                0.98749797                9.97533411                0.00010000                0.42268017                0.08912451               -0.31154649                2.04310236                6.27623030                0.19253102
               6.38494756                0.97104298                9.96521213                0.01014655                0.87440830               -0.08186213               -0.58303412                1.66390866                4.81113400                0.14115219
               7.39436249                0.94265783                9.92967053                0.24378586                0.81566601                0.32024673               -0.95139891                0.91773806                2.62023127                1.13910223
               8.40126088                0.90354740                9.87603333                0.66698672                0.61716234                0.43739025               -1.39836000                0.29048821                1.14804862                0.86303321
               9.40670574                0.86021928                9.81104333                1.00000000                0.60208696                0.57285490               -1.89867926                0.02557848                0.36145627                0.43612379
              10.41330262                0.81682537                9.74157289                1.00000000                0.65968783                0.71608628               -2.43269920               -0.05085548                0.14209617               -0.46904774
               0.43807800                2.16481275               10.19587204                1.00000000               -0.44987924               -0.53807728                1.79800707               -0.05140460                0.09493253                1.08366204
               1.43357921                2.12067704               10.11774626                0.84784474               -0.35718795               -0.35876421                1.19719203               -0.01758567                0.15178405               -0.20278392
               2.43093425                2.07588145               10.04065824                0.11032539               -0.21784985               -0.19804059                0.61176002                0.19822375                1.20249200               -1.50696217
               3.42922222                2.03432245                9.98360979                0.00010000               -0.02167666                0.15659213                0.12393511                1.58608141                5.13277363               -1.21731837
               4.43050071                2.01265241                9.98532265                0.00010000                0.12496910                0.55038884               -0.02788597                2.87285638                7.74520194                0.33227855
               5.43172160                1.98998458                9.98208924                0.00010000                0.29153477                0.24296263               -0.24367525                3.00451524                7.33805891                0.55048372
               6.43633141                1.96834504                9.97677398                0.00010000                0.52228189               -0.08475710               -0.46477321                2.77226594                6.96501755                0.84666974
               7.44216724                1.94616067                9.96702188                0.09734691                0.47242067                0.18531564               -0.65793974                1.62302997                4.41743478                2.26033805
               8.44577982                1.90766267                9.91161946                0.37407942                0.38241424                0.40537572               -1.08862868                0.37152233                1.59909645                2.18170416
               9.44981552                1.86552443                9.84546669                0.92442642                0.48600480                0.49113610               -1.59309061                0.04851197                0.60260854                0.81162872
              10.45549992                1.82347672                9.77000268                1.00000000                0.56843973                0.61240456               -2.15713138               -0.04231807                0.14256746               -0.43857492
               0.48079360                3.15973480               10.17679116                1.00000000               -0.37978077               -0.47488962                1.59668936               -0.05423152                0.03763771                1.03714258
               1.47699579                3.11739261               10.09146967                0.79864524               -0.28027718               -0.29218136                0.94634603               -0.02245113                0.08455698               -0.32018213
               2.47518805                3.07429004               10.00697739                0.08545464               -0.04903631               -0.11566875                0.30441934                0.41146213                2.59183858               -1.69730260
               3.47601506                3.03891634                9.97188552                0.00010000                0.15504495                0.41139480                0.12013359                1.66265633                7.30337725               -0.17339818
               4.47828895                3.01573430                9.98224504                0.00010000                0.26284679                0.26417082               -0.03205352                2.37487733                9.48615751                0.17634185
               5.48127200                2.99235723                9.99234000                0.00010000                0.29639150                0.19605883               -0.15729706                2.47807311                9.32279602                0.85591630
               6.48421678                2.96934784               10.00080810                0.00010000                0.31167334                0.10632504               -0.28793992                2.38590835                9.00764453                1.66819688
               7.48750546                2.94636415               10.00573706                0.10474589                0.25553932                0.08780390               -0.47462738                1.57205815                6.38196441                2.74858169
               8.48932757                2.91165491                9.96256793                0.37117674                0.21782335                0.31274099               -0.64898414                0.45949535                2.09445430                2.54813632
               9.49186193                2.87004201                9.88207500                0.88394421                0.36120593                0.39517096               -1.23873657                0.01958004                0.13114774                0.82921819
              10.49655169                2.82907346                9.79955046                1.00000000                0.46897548                0.50642208               -1.85538523               -0.04534647                0.03541464               -0.43464354
               0.52167774                4.15531496               10.15704543                1.00000000               -0.31027944               -0.40700387                1.38478050               -0.05311751                0.02360357                0.99483042
               1.51857495                4.11483342               10.06497111                0.77544568               -0.20189904               -0.21840911                0.68912655               -0.02213314                0.06042249               -0.32842435
               2.51763976                4.07356807                9.97352279                0.07537851                0.12280648               -0.02992111               -0.00416140                0.53811562                3.98263608               -1.65130325
               3.52103108                4.04255034                9.95999461                0.00010000                0.34588050                0.29882978                0.04276805                1.61266742                9.61263878               -0.19658129
               4.52455737                4.01793582                9.98199260                0.00010000                0.33192224                0.18855225               -0.02336072                2.09210240               11.36472641                0.37689668
               5.52766952                3.99390575               10.00521434                0.00010000                0.27426405                0.12137687               -0.05537327                2.16873067               11.35846962                1.07254396
               6.53004265                3.97047154               10.02873009                0.00010000                0.18158993                0.08413412               -0.08278045                2.17234880               11.34179734                1.95911789
               7.53130132                3.94791675               10.05302975                0.11730220                0.06246079                0.11904852               -0.13642241                1.45303297                7.70894265                3.15900647
               8.53129187                3.91391749               10.00508882                0.39214488                0.07436274                0.14826549               -0.23734441                0.40139391                2.04532900                1.93736808
               9.53278858                3.87342785                9.91650631                0.91718807                0.26191061                0.27872110               -0.88590250                0.01110953                0.00868044                0.64163165
              10.53653008                3.83360516                9.82770772                1.00000000                0.37415050                0.40932830               -1.54008997               -0.04935678                0.00459197               -0.55828100
               0.56069433                5.15159472               10.13709452                1.00000000               -0.23943157               -0.33764634                1.16918507               -0.05147883                0.02716145                0.97777751
               1.55830001                5.11302443               10.03847208                0.74979870               -0.12304430               -0.14242798                0.42885623               -0.01833929                0.07332349               -0.33137109
               2.55823344                5.07369162                9.94066483                0.06433480                0.28003245                0.05545487               -0.30936473                0.55669231                5.34153685               -1.61665777
               3.56390066                5.04489293                9.94751763                0.00010000                0.52710732                0.21083929               -0.10245397                1.48831829               11.93452869               -0.16854370
               4.56877559                5.01950535                9.98273494                0.00010000                0.41051159                0.12472050               -0.03772400                1.81847264               13.34268958                0.45041575
               5.57211089                4.99478476               10.01964662                0.00010000                0.24385861                0.05383323                0.05251454                1.92177168               13.42917825                1.17676965
               6.57365276                4.97103052               10.05849312                0.00010000                0.05046424                0.01267134                0.15689322                1.96323974               13.56739991                2.05430943
               7.57312018                4.94874512               10.09988673                0.12828074               -0.09042062                0.00840948                0.26344277                1.27230706                8.72833740                3.07551807
               8.57184435                4.91462022               10.04341861                0.41023101               -0.03618622                0.00634379                0.12886304                0.31615705                1.91398642                1.67903836
               9.57239645                4.87561643                9.94891477                0.94695453                0.16827942                0.16659384               -0.55674220                0.01154105                0.01034239                0.51017913
              10.57520994                4.83726002                9.85425622                1.00000000                0.28134828                0.32630967               -1.24416643               -0.04645825                0.00944483               -0.66131349
               0.59778875                6.14856203               10.11698074                1.00000000               -0.16774785               -0.26995115                0.95138623               -0.04947352                0.03203450                0.96002779
               1.59611127                6.11198486               10.01184477                0.72117614               -0.04418202               -0.06435663                0.16646746               -0.01388891                0.09121698               -0.34718453
               2.59690511                6.07467717                9.90779077                0.05204058                0.44362233                0.14483515               -0.61490575                0.50493044                6.75168743               -1.62279136
               3.60498371                6.04676713                9.93598184                0.00010000                0.70649460                0.17383280               -0.29136682                1.29095773               14.25476490               -0.15480372
               4.61103500                6.02043023                9.98362242                0.00010000                0.47980348                0.06553668               -0.07477247                1.53486664               15.27484835                0.44297444
               5.61457978                5.99498242               10.03430188                0.00010000                0.21560486               -0.01684249                0.15738704                1.66256082               15.47401841                1.16298432
               6.61534709                5.97072497               10.08805471                0.00010000               -0.07110118               -0.08079425                0.40850633                1.72869141               15.69806358                2.00236517
               7.61315776                5.94808494               10.14519400                0.13765633               -0.23016970               -0.14256688                0.67816019                1.07403740                9.68916994                2.94552403
               8.61074370                5.91404436               10.08046776                0.42523698               -0.13890809               -0.11345652                0.46700066                0.22947314                1.80422285                1.60107708
               9.61037960                5.87675973                9.98029961                0.97134548                0.07850112                0.06842960               -0.25050928                0.00982315                0.02106277                0.45400232
              10.61231372                5.84013135                9.87982006                1.00000000                0.19341248                0.25196157               -0.96907624               -0.04382994                0.01197255               -0.70783473
               0.63285920                7.14619570               10.09661997                1.00000000               -0.09521088               -0.20471997                0.73143855               -0.04737978                0.03528662                0.93366328
               1.63190709                7.11173730                9.98495410                0.68993847                0.03452883                0.01634767               -0.09839433               -0.00907771                0.11063042               -0.37528141
               2.63354978                7.07658832                9.87470541                0.03874200                0.60298287                0.24195942               -0.92419074                0.38652781                8.13365446               -1.64472429
               3.64396675                7.04836959                9.92363105                0.00010000                0.88539243                0.14414232               -0.49898008                0.98920328               16.54840820               -0.28488876
               4.65125763                7.02081608                9.98380522                0.00010000                0.55503102                0.00476944               -0.12643286                1.21188752               17.19529978                0.35606514
               5.65506737                6.99444791               10.04802118                0.00010000                0.19332177               -0.09142150                0.25418165                1.37403028               17.48625680                1.03999885
               6.65512406                6.96941464               10.11639542                0.00010000               -0.18929220               -0.17639425                0.65879939                1.44553112               17.80011756                1.84074151
               7.65128153                6.94589378               10.18911716                0.14559221               -0.36825206               -0.29047739                1.09540915                0.85475197               10.68320590                2.80381585
               8.64775902                6.91235109               10.11705993                0.43748998               -0.23878002               -0.22178962                0.79016887                0.15158956                1.73749238                1.57349556
               9.64650593                6.87698502               10.01126086                0.99095177               -0.00844677               -0.01912141                0.03843235                0.00669793                0.02990175                0.44431399
              10.64759009                6.84229926                9.90498761                1.00000000                0.10841598                0.18496147               -0.70940665               -0.04321485                0.01112054               -0.70681305
               0.66575795                8.14446763               10.07589094                1.00000000               -0.02208569               -0.14347410                0.50981574               -0.04473616                0.04127436                0.89945392
               1.66553709                8.11231181                9.95769829                0.65613253                0.11227106                0.10075000               -0.36457745               -0.00391068                0.13633215               -0.42234045
               2.66800337                8.07951636                9.84133445                0.02464315                0.75014635                0.34712974               -1.23694429                0.19042411                9.43598472               -1.63699852
               3.68054002                8.04964997                9.90928802                0.00010000                1.05955280                0.09255615               -0.70079645                0.56991264               18.78415969               -0.41568521
               4.68919443                8.02052562                9.98245914                0.00010000                0.64609079               -0.08101114               -0.18299150                0.85220593               19.11270729                0.22679716
               5.69346183                7.99315399               10.05966609                0.00010000                0.18087125               -0.16149652                0.33942484                1.04572369               19.44944275                0.80340229
               6.69281185                7.96719708               10.14229003                0.00010000               -0.30727464               -0.25084367                0.89682872                1.10137777               19.91644759                1.49614986
               7.68731634                7.94227539               10.23136165                0.15241652               -0.50637993               -0.42556365                1.51242888                0.60751325               11.78508584                2.52175148
               8.68268425                7.90960857               10.15349402                0.44729566               -0.33754732               -0.32538207                1.10853269                0.08360040                1.75055955                1.51466757
               9.68056539                7.87637730               10.04225878                1.00000000               -0.09316496               -0.10275371                0.31703346                0.00346938                0.04528175                0.47011305
              10.68082095                7.84383058                9.93023798                1.00000000                0.02555579                0.12336965               -0.45922768               -0.04521470                0.00949654               -0.68047208
               0.69627612                9.14332622               10.05473520                1.00000000                0.05040333               -0.08683878                0.28861377               -0.04229454                0.03324458                0.73730798
               1.69678015                9.11375230                9.92982815                0.62051683                0.18719892                0.18783894               -0.62970965                0.00014829                0.21140579               -0.41557785
               2.70002010                9.08353091                9.80843302                0.01030329                0.87877934                0.44862103               -1.53939998               -0.10862941               10.72612060               -1.28930377
               3.71435574                9.05022071                9.89399972                0.00010000                1.23888165               -0.04815665               -0.87482384                0.14072441               20.91967335               -0.32817359
               4.72479773                9.01919586                9.97940606                0.00010000                0.74773213               -0.14423203               -0.23538304                0.45223391               20.91062430                0.10974802
               5.72931038                8.99121798               10.06793676                0.00010000                0.16162408               -0.21462243                0.40797643                0.62949094               21.25771964                0.45067757
               6.72803021                8.96439776               10.16323665                0.00010000               -0.41450397               -0.30036267                1.10073288                0.63935805               21.99821152                0.86504624
               7.72102030                8.93738251               10.26949946                0.15898123               -0.63505447               -0.52805765                1.90377488                0.33265906               13.07533108                1.67627528
               8.71532912                8.90584345               10.18891944                0.45585831               -0.43334991               -0.42118603                1.41639086                0.02261433                1.98272534                1.10736298
               9.71235331                8.87492995               10.07365193                1.00000000               -0.17749475               -0.18919955                0.60195761                0.00168308                0.11769129                0.43984885
              10.71177923                8.84476665                9.95573451                1.00000000               -0.05740765                0.06149167               -0.20685023               -0.04735863               -0.01179892               -0.56541843
               0.72405989               10.14273086               10.03063662                1.00000000                0.12754670               -0.05953598                0.05633630                0.11215035                0.40327360                0.59717899
               1.72533536               10.11606859                9.90271521                0.79911013                0.26512374                0.23162911               -0.88160972                0.14341646                0.77301166               -0.38062635
               2.72936237               10.08848878                9.78216457                0.50083155                1.11771022                0.49578641               -1.77904323               -0.43486087               12.09496569               -0.97018808
               3.74768956               10.04868684                9.88089541                0.43488898                1.39397343               -0.15338735               -1.00649063               -0.20900780               22.61571254               -0.16476068
               4.75724183               10.01764098                9.97481319                0.43100438                0.65800927               -0.15548775               -0.27954764                0.25314511               22.36648264                0.08116376
               5.76084975                9.98886154               10.07157291                0.45351897                0.10963264               -0.23564433                0.45494131                0.33137884               22.74543010                0.27038237
               6.75943449                9.96118983               10.17578075                0.49974621               -0.41629579               -0.32079328                1.24653162                0.28306233               23.70833174                0.50439099
               7.75252383                9.93171424               10.29465228                0.58187195               -0.69226937               -0.56682663                2.17619010                0.15010382               14.45373920                1.04966041
               8.74558910                9.90118485               10.21722557                0.73093044               -0.54239860               -0.46586011                1.68472986                0.06995088                2.80973131                0.75180259
               9.74167586                9.87259331               10.10399921                1.00000000               -0.26943638               -0.23366366                0.89135390                0.12603352                0.64095272                0.38930451
              10.74020037                9.84506042                9.98318988                1.00000000               -0.14754877                0.02937660                0.06714966                0.08882486                0.26369751               -0.46445006
               0.41576569                0.20781208               11.25943241                1.00000000               -0.55507603               -0.62878704                2.18477392               -0.13183923               -0.66975131                0.72648313
               1.41021493                0.15341064               11.18168520                1.00000000               -0.44701357               -0.45891406                1.63274024               -0.09100180               -0.66947414               -0.03255679
               2.40682542                0.09891163               11.10388013                0.71049127               -0.10412670               -0.31847650                1.07441987                0.08176057               -0.37325936               -0.66608151
               3.40813240                0.04833205               11.03213569                0.51982348                0.47289935               -0.18804771                0.52492543                0.35938970                1.24009072               -0.08794712
               4.41628341                0.00990904               10.98696902                0.44667897                0.82332500               -0.13774328                0.05296563                0.33048341                3.87411933               -0.07605853
               5.42459890               -0.01511057               10.96887627                0.45330872                0.45800411               -0.05181207               -0.33327664                0.15387643                5.04779965               -0.00821732
               6.42544349               -0.04005750               10.94822310                0.53155833               -0.05165664                0.11955637               -0.70485636                0.24611483                3.61624888                0.05168602
               7.42356576               -0.07668622               10.90187414                0.69231711               -0.03026061                0.29814439               -1.14457827                0.24727171                1.30554881                0.08977133
               8.42483828               -0.12375262               10.83491301                0.96728312                0.31850727                0.46871302               -1.65141244                0.08714207               -0.11734867                0.32887737
               9.42993591               -0.17478832               10.75994668                1.00000000                0.61465629                0.62119689               -2.19166444               -0.07518767               -0.49795259                0.18568773
              10.43713140               -0.22589728               10.68526072                1.00000000                0.71954930                0.77355116               -2.72459190               -0.13367772               -0.47842469               -0.46805909
               0.46884874                1.20152421               11.23441976                1.00000000               -0.50936015               -0.59623101                1.96802434               -0.04883034               -0.03512770                0.94863275
               1.46375514                1.14882150               11.15603235                1.00000000               -0.43332102               -0.42324616                1.41490231               -0.01352359                0.02936706               -0.06455808
               2.46018232                1.09572687               11.07885859                0.27260957               -0.37637747               -0.27837794                0.86459478                0.19370180                1.00131208               -1.01538575
               3.45622759                1.04645158               11.01995061                0.00010000               -0.44363842               -0.17006813                0.39612497                0.79641669                2.96043598               -1.22604790
               4.45130955                1.00853161               10.98221087                0.00010000               -0.25533298                0.32044403               -0.01048060                1.66972278                5.37620322                0.31906238
               5.45112093                0.98437131               10.97221881                0.00010000                0.36914543                0.09826852               -0.31122215                2.02084897                6.56147894                0.21680995
               6.45869246                0.96113807               10.95929758                0.00949917                0.83825552               -0.07215151               -0.59916377                1.64883918                5.04406296                0.15173958
               7.46788604                0.92629523               10.92005440                0.24206348                0.80341445                0.32670715               -0.97188188                0.90273699                2.75827386                1.20371280
               8.47476075                0.88093451               10.86196009                0.66229456                0.61851623                0.44287016               -1.41734926                0.28719270                1.21644830                0.91643056
               9.48025636                0.83142365               10.79196807                1.00000000                0.60714180                0.57988317               -1.91714728                0.02604925                0.38552065                0.46308536
              10.48690358                0.78183823               10.71715267                1.00000000                0.66472204                0.72457346               -2.45210088               -0.05061700                0.14961811               -0.49859024
               0.52019451                2.19588746               11.21372804                1.00000000               -0.44527023               -0.53431917                1.77500890               -0.04941322                0.10386485                1.14878677
               1.51574181                2.14494572               11.12969932                0.83697681               -0.35625633               -0.35693893                1.19319257               -0.01510564                0.16810966               -0.21973703
               2.51306938                2.09334407               11.04686900                0.10850382               -0.22429081               -0.19754359                0.62817299                0.19774435                1.27443224               -1.60298639
               3.51125599                2.04493069               10.98501422                0.00010000               -0.06556269                0.15725453                0.15361228                1.56862738                5.41135795               -1.21637577
               4.51175813                2.01631792               10.98511875                0.00010000                0.05767138                0.54316288               -0.01362589                2.83785724                8.15560148                0.38052584
               5.51240942                1.98685480               10.97966795                0.00010000                0.23691131                0.24158933               -0.24023413                2.97431904                7.71472578                0.60329661
               6.51649635                1.95849947               10.97208653                0.00010000                0.47073191               -0.08067137               -0.47151132                2.75350015                7.34553935                0.89580654
               7.52182405                1.92984793               10.96034473                0.09557321                0.44786777                0.18329669               -0.67698690                1.61477653                4.68505872                2.32915285
               8.52545371                1.88510479               10.90064249                0.36918616                0.38645609                0.41548668               -1.10623278                0.36997277                1.71257534                2.33325653
               9.52955318                1.83680934               10.82941290                0.90984874                0.49180938                0.50246925               -1.61606850                0.05036580                0.64828900                0.87489901
              10.53528990                1.78859419               10.74829744                1.00000000                0.57367197                0.62560805               -2.18248908               -0.04092766                0.15916941               -0.45712682
               0.56974396                3.19083783               11.19263258                1.00000000               -0.37475484               -0.47257242                1.57322933               -0.05251026                0.03890559                1.09269605
               1.56599642                3.14168272               11.10091172                0.78682532               -0.27958646               -0.28953084                0.94165332               -0.02006125                0.08954508               -0.35419435
               2.56415224                3.09177600               11.01011001                0.08333252               -0.06850639               -0.11207573                0.31952665                0.41335791                2.82143213               -1.82733828
               3.56462629                3.04959667               10.97308993                0.00010000                0.09951747                0.41922607                0.12485018                1.63423071                7.76776118               -0.10413461
               4.56614258                3.01939487               10.98196023                0.00010000                0.18997350                0.26706641               -0.02447679                2.34181041                9.98452109                0.22165866
               5.56842576                2.98920310               10.99077078                0.00010000                0.23133757                0.19724713               -0.15549435                2.44944993                9.82667882                0.92001062
               6.57076934                2.95952464               10.99788457                0.00010000                0.25752483                0.10803332               -0.29432105                2.35844956                9.47895337                1.75521971
               7.57357625                2.92996116               11.00096484                0.10212761                0.22147257                0.08264179               -0.47780017                1.57079099                6.82171042                2.83476390
               8.57519879                2.88924425               10.95592457                0.36503018                0.20990117                0.32803461               -0.67502412                0.46703157                2.32648534                2.74033397
               9.57777428                2.84147303               10.86952339                0.86787186                0.36582761                0.41220002               -1.26787160                0.01946048                0.14732738                0.91188161
              10.58251534                2.79435039               10.78081364                1.00000000                0.47410616                0.52653479               -1.88887198               -0.04483580                0.03671357               -0.43554605
               0.61745452                4.18643602               11.17076329                1.00000000               -0.30521010               -0.40514402                1.36042922               -0.05156735                0.02256389                1.04388599
               1.61440242                4.13915510               11.07184344                0.76318981               -0.20159603               -0.21502424                0.68492341               -0.02001279                0.06005165               -0.36658221
               2.61342260                4.09110256               10.97357895                0.07306455                0.09596585               -0.02485956                0.01282835                0.54106452                4.34077473               -1.77981416
               3.61632173                4.05331521               10.96035072                0.00010000                0.27826545                0.30687783                0.03392534                1.58753468               10.27108978               -0.20119110
               4.61898791                4.02165925               10.98175306                0.00010000                0.24734542                0.19837295               -0.02259123                2.05293148               11.99122135                0.41152990
               5.62126864                3.99079974               11.00464750                0.00010000                0.19596870                0.12983794               -0.05620405                2.13267843               11.99799797                1.14174398
               6.62290728                3.96066014               11.02784768                0.00010000                0.11258121                0.08947023               -0.09050098                2.13293446               11.96511722                2.07074485
               7.62352027                3.93150076               11.05156612                0.11413385                0.01875946                0.12356385               -0.15092669                1.44217762                8.28863287                3.33856946
               8.62328247                3.89166548               11.00254624                0.38507703                0.06579883                0.16272084               -0.26702625                0.41323701                2.32423273                2.08916228
               9.62483624                3.84505334               10.90745780                0.89956614                0.26779975                0.29799975               -0.92018544                0.01014715                0.01221879                0.70903375
              10.62863846                3.79912489               10.81208809                1.00000000                0.38022213                0.43430458               -1.58078292               -0.04874561                0.00375607               -0.56271367
               0.66327444                5.18273495               11.14865068                1.00000000               -0.23448260               -0.33520848                1.14388310               -0.05027396                0.02530418                1.02464599
               1.66092962                5.13738224               11.04274255                0.73794926               -0.12305133               -0.13876497                0.42500924               -0.01675073                0.07182936               -0.37193415
               2.66081342                5.09127880               10.93767276                0.06221515                0.24453370                0.06047465               -0.29125939                0.55968719                5.80063354               -1.74425328
               3.66582029                5.05573422               10.94642776                0.00010000                0.44516330                0.21789493               -0.11015344                1.46053564               12.77915459               -0.22903954
               4.66971668                5.02336232               10.98233539                0.00010000                0.31290730                0.14061533               -0.03922009                1.77390554               14.13275826                0.45809058
               5.67207844                4.99179986               11.02014978                0.00010000                0.15051617                0.06954954                0.05050616                1.87581208               14.23160275                1.24202939
               6.67272701                4.96131404               11.05999807                0.00010000               -0.03319854                0.02543979                0.14730438                1.91435084               14.36938139                2.18243676
               7.67141447                4.93243244               11.10237185                0.12498064               -0.14080296                0.02013565                0.23867205                1.25664883                9.40810577                3.28683481
               8.66991095                4.89249867               11.04457447                0.40302611               -0.04483254                0.01691758                0.10473004                0.32747170                2.19507697                1.79237727
               9.67051782                4.84743303               10.94317589                0.92912388                0.17431991                0.18401759               -0.58885048                0.01065628                0.01165447                0.55359140
              10.67339735                4.80303648               10.84160551                1.00000000                0.28795293                0.35039655               -1.28465504               -0.04617670                0.00926803               -0.68497253
               0.70715446                6.17973185               11.12635388                1.00000000               -0.16309130               -0.26636082                0.92533098               -0.04838830                0.03017341                1.00514747
               1.70552355                6.13637980               11.01349478                0.71014312               -0.04450525               -0.06089356                0.16339935               -0.01247099                0.09029388               -0.38963307
               2.70626436                6.09231205               10.90175119                0.05033828                0.39626889                0.14857391               -0.59520880                0.50819621                7.29291951               -1.75214749
               3.71344893                6.05767311               10.93303854                0.00010000                0.60680141                0.18223095               -0.29217266                1.26529938               15.27780689               -0.24613132
               4.71840038                6.02447156               10.98286137                0.00010000                0.36921191                0.08677434               -0.07378943                1.49025979               16.25024488                0.42988594
               5.72083316                5.99219073               11.03585938                0.00010000                0.10806645                0.00589053                0.15687720                1.60837204               16.45682292                1.21854781
               6.72056171                5.96116893               11.09208632                0.00010000               -0.16822715               -0.06288255                0.40041110                1.67021496               16.68887226                2.13048261
               7.71746862                5.93190348               11.15184246                0.13454523               -0.28652002               -0.13121478                0.65441488                1.04868305               10.44608016                3.16202494
               8.71483131                5.89200383               11.08505795                0.41835798               -0.14785361               -0.10795577                0.45211410                0.23644697                2.06446268                1.69052857
               9.71451155                5.84873370               10.97766023                0.95393592                0.08383532                0.08140264               -0.27633618                0.00990781                0.02200373                0.47716311
              10.71650802                5.80613282               10.86994317                1.00000000                0.19964702                0.27220243               -1.00538442               -0.04372078                0.01194192               -0.74771476
               0.74901076                7.17740773               11.10379295                1.00000000               -0.09107712               -0.20005417                0.70538723               -0.04625458                0.03336381                0.97687838
               1.74809999                7.13616437               10.98396736                0.68005910                0.03366353                0.01891035               -0.09932645               -0.00758925                0.10997069               -0.41894065
               2.74968403                7.09425028               10.86559617                0.03762287                0.54333915                0.24276146               -0.90046317                0.39391504                8.74962693               -1.77615838
               3.75896678                7.05937884               10.91866740                0.00010000                0.76601104                0.15805771               -0.48973907                0.97620839               17.74592929               -0.38068598
               4.76500425                7.02509781               10.98255788                0.00010000                0.42908621                0.03356072               -0.11936045                1.17446509               18.36310952                0.33339983
               5.76754850                6.99191767               11.05056656                0.00010000                0.07071546               -0.06029202                0.25780554                1.31415435               18.65712656                1.08357968
               6.76641856                6.96005639               11.12295398                0.00010000               -0.29976340               -0.15428185                0.65498383                1.37349152               18.98551273                1.95792269
               7.76155323                6.92980814               11.19998071                0.14297135               -0.43044485               -0.28264504                1.07849945                0.81474028               11.50740881                3.01698628
               8.75780967                6.89033955               11.12492162                0.43134774               -0.24831220               -0.22071782                0.78341136                0.15290235                1.96435636                1.64982431
               9.75658699                6.84906108               11.01156006                0.97446902               -0.00424889               -0.01179987                0.02129298                0.00825332                0.03007904                0.45374743
              10.75772469                6.80848053               10.89776256                1.00000000                0.11377016                0.19995914               -0.73834464               -0.04186073                0.01356630               -0.75634157
               0.78871610                8.17573076               11.08085266                1.00000000               -0.01868872               -0.13802092                0.48471754               -0.04371394                0.03921819                0.94162969
               1.78852921                8.13675801               10.95407094                0.64806865                0.11060402                0.10166412               -0.36187597               -0.00261488                0.13499966               -0.46542143
               2.79092818                8.09716728               10.82913981                0.02434092                0.67981749                0.34345634               -1.20603765                0.20830093               10.13013263               -1.76271723
               3.80212556                8.06083426               10.90237827                0.00010000                0.92113399                0.11545906               -0.67945792                0.58142245               20.15638813               -0.49146211
               4.80935086                8.02514277               10.98069081                0.00010000                0.50160525               -0.04042505               -0.16772799                0.82811000               20.46689221                0.20629824
               5.81215767                7.99098489               11.06309266                0.00010000                0.03951022               -0.11827221                0.34869370                0.98638538               20.80722124                0.83336453
               6.81014107                7.95808330               11.15125284                0.00010000               -0.43387000               -0.21958880                0.89769306                1.01443253               21.30237652                1.58782272
               7.80348027                7.92625058               11.24642123                0.15062563               -0.57523226               -0.41825515                1.50037227                0.54695360               12.67812065                2.71650291
               8.79863642                7.88758948               11.16455439                0.44251861               -0.34723188               -0.32666569                1.10578992                0.07754078                1.93793129                1.58006121
               9.79653563                7.84849770               11.04537492                0.99133414               -0.09022593               -0.09941122                0.30745996                0.00535537                0.04207387                0.47587035
              10.79683190                7.81013200               10.92556807                1.00000000                0.02962704                0.13239115               -0.47917722               -0.04208253                0.01481696               -0.73207786
               0.82608199                9.17464732               11.05749382                1.00000000                0.05291872               -0.08072201                0.26511386               -0.04155293                0.03041730                0.77367474
               1.82661118                9.13819765               10.92357472                0.61517780                0.18459045                0.18669686               -0.62282810                0.00081764                0.21341241               -0.45097250
               2.82977380                9.10111941               10.79326560                0.01105423                0.80042790                0.44020938               -1.49990659               -0.07146777               11.51013588               -1.37712259
               3.84261973                9.06168802               10.88541409                0.00010000                1.08210133               -0.00627058               -0.84298545                0.17085111               22.46466397               -0.36575886
               4.85141582                9.02428931               10.97715990                0.00010000                0.58579723               -0.09482314               -0.21201388                0.44437331               22.43597990                0.09889222
               5.85433568                8.98955222               11.07208057                0.00010000                0.00128540               -0.16163178                0.42315323                0.58657831               22.79152048                0.46608141
               6.85144153                8.95566462               11.17426070                0.00010000               -0.56747767               -0.24810131                1.10587188                0.56241290               23.58375550                0.91325194
               7.84298613                8.92144304               11.28846907                0.15828567               -0.71640870               -0.51112704                1.89182786                0.26212526               14.04742611                1.79692936
               8.83711336                8.88380624               11.20305816                0.45315849               -0.44172778               -0.42257446                1.41524201                0.00822159                2.14475993                1.14544801
               9.83415157                8.84707286               11.07962403                1.00000000               -0.17494610               -0.18686008                0.59427252                0.00236654                0.11518481                0.45005504
              10.83361444                8.81112836               10.95361017                1.00000000               -0.05371334                0.06623646               -0.22199617               -0.04526553               -0.01014159               -0.60376951
               0.86078437               10.17411632               11.03108835                1.00000000                0.12890997               -0.05309928                0.03560368                0.10780093                0.42094442                0.62728357
               1.86207347               10.14049195               10.89396303                0.79739864                0.26120396                0.22942976               -0.87141322                0.13898697                0.81172498               -0.40834634
               2.86600845               10.10597147               10.76462333                0.50152180                1.01496057                0.48520595               -1.73596575               -0.36568928               12.98029439               -1.02445362
               3.88237268               10.06070885               10.87102861                0.43572924                1.21828381               -0.09791705               -0.96863063               -0.16096303               24.31807553               -0.18139838
               4.89037413               10.02324631               10.97215927                0.43132357                0.50706219               -0.10430028               -0.25030489                0.24800067               24.04616842                0.07840394
               5.89251393                9.98775226               11.07621908                0.45354764               -0.04378118               -0.17999635                0.47567441                0.31157314               24.43999969                0.28252712
               6.88949851                9.95312127               11.18829127                0.49974434               -0.59663869               -0.25433453                1.25628319                0.21948604               25.46773915                0.53659839
               7.88058115                9.91602803               11.31636604                0.58187703               -0.81637352               -0.54150058                2.16691732                0.06033861               15.52466826                1.11727421
               8.87317103                9.87913799               11.23406202                0.73030212               -0.56601563               -0.46682502                1.68758130                0.04239071                3.00580806                0.76844615
               9.86926084                9.84476050               11.11289400                1.00000000               -0.26777203               -0.23123606                0.88459501                0.12686432                0.66536282                0.40266680
              10.86781559                9.81145673               10.98382044                1.00000000               -0.14452481                0.03283723                0.05559718                0.08973887                0.27344577               -0.49030207
               0.48933311                0.24140581               12.28117138                1.00000000               -0.55219123               -0.62324425                2.16486316               -0.12853597               -0.71659714                0.77229566
               1.48381120                0.17983103               12.19798324                1.00000000               -0.44747489               -0.45684120                1.62669368               -0.08792202               -0.72003635               -0.03188498
               2.48038361                0.11814036               12.11467451                0.70972503               -0.11567542               -0.31860973                1.08245649                0.08079716               -0.42287098               -0.70212841
               3.48149769                0.06026026               12.03750453                0.52023426                0.43692302               -0.18752559                0.54567320                0.34559969                1.22815058               -0.09185471
               4.48912207                0.01420606               11.98761417                0.44700540                0.76901152               -0.12480188                0.07369707                0.31739436                3.92902172               -0.07938322
               5.49687792               -0.01864734               11.96557134                0.45328984                0.42090630               -0.03101668               -0.32865693                0.14697643                5.14307622               -0.00832673
               6.49754020               -0.05113296               11.94112598                0.53110031               -0.05699813                0.13473084               -0.71537910                0.23720319                3.68995677                0.05390383
               7.49573796               -0.09480934               11.89034780                0.69112733               -0.02141024                0.30708411               -1.16190752                0.23931168                1.32125300                0.09427135
               8.49711199               -0.14860175               11.81830721                0.96436720                0.32686007                0.47482833               -1.67113990                0.08380069               -0.14619438                0.34484672
               9.50227516               -0.20626169               11.73793157                1.00000000                0.62103155                0.62764621               -2.21275810               -0.07457637               -0.53735127                0.19822540
              10.50953262               -0.26399010               11.65792110                1.00000000                0.72574665                0.78069440               -2.74461453               -0.13352612               -0.51244633               -0.50223623
               0.54962253                1.23517337               12.25399564                1.00000000               -0.50578286               -0.59150769                1.94897975               -0.04709312               -0.03935194                1.00492578
               1.54456470                1.17526262               12.17015780                1.00000000               -0.43227823               -0.42140458                1.41001543               -0.01149307                0.02598945               -0.06590303
               2.54097697                1.11495426               12.08755934                0.27094493               -0.38219345               -0.27850269                0.87341925                0.19233825                1.04060355               -1.06273717
               3.53692083                1.05838501               12.02403375                0.00010000               -0.46135740               -0.17023298                0.41720657                0.78528634                3.07174608               -1.28458679
               4.53174982                1.01295805               11.98221050                0.00010000               -0.29518177                0.31537517                0.00799581                1.62472140                5.57299227                0.34630789
               5.53101720                0.98104249               11.96910967                0.00010000                0.31217062                0.10729420               -0.31136163                1.97133564                6.81904823                0.24476649
               6.53799323                0.95021434               11.95322886                0.00881754                0.79241329               -0.05964273               -0.61507136                1.61221089                5.26250411                0.17016354
               7.54686546                0.90826150               11.91023289                0.24025563                0.78414708                0.33213169               -0.99328459                0.87533445                2.89345606                1.27181450
               8.55367617                0.85614654               11.84768634                0.65714934                0.61790534                0.44825343               -1.43859008                0.28022239                1.28589296                0.97266082
               9.55922357                0.80001477               11.77270038                1.00000000                0.61248004                0.58643883               -1.93708652                0.02607501                0.40995890                0.48860758
              10.56592577                0.74381685               11.69253087                1.00000000                0.67022028                0.73316562               -2.47272077               -0.05071259                0.15642688               -0.53425910
               0.60821275                2.22957566               12.23137222                1.00000000               -0.44123070               -0.53099493                1.75548558               -0.04772635                0.11363155                1.21140975
               1.60380044                2.17140294               12.14161011                0.82600735               -0.35523809               -0.35490059                1.18876094               -0.01303925                0.18612788               -0.23835176
               2.60110799                2.11257030               12.05322170                0.10682184               -0.23004044               -0.19604657                0.64033314                0.19570910                1.34559458               -1.69920867
               3.59919963                2.05685560               11.98668204                0.00010000               -0.10744851                0.15560722                0.17679846                1.52712472                5.67471481               -1.22491691
               4.59895902                2.02051357               11.98505014                0.00010000               -0.00756493                0.52875565               -0.00101135                2.75958254                8.54216903                0.42412732
               5.59904833                1.98349854               11.97728456                0.00010000                0.18031965                0.23676964               -0.23683570                2.90123227                8.07250382                0.66067556
               6.60256541                1.94767418               11.96734376                0.00010000                0.41320587               -0.07616311               -0.47723729                2.69716533                7.71058698                0.95518460
               7.60731245                1.91183329               11.95348214                0.09413724                0.41988776                0.17882726               -0.69628804                1.58616799                4.94939916                2.41322678
               8.61096316                1.86036332               11.88949480                0.36473936                0.39069492                0.42056499               -1.12368521                0.36281726                1.82731861                2.48667598
               9.61512635                1.80546709               11.81314532                0.89557214                0.49755323                0.51099793               -1.63685690                0.05028640                0.69358323                0.93497526
              10.62091423                1.75067322               11.72635290                1.00000000                0.57878794                0.63775196               -2.20569733               -0.04040286                0.17657164               -0.48363740
               0.66501344                3.22455347               12.20825575                1.00000000               -0.37041738               -0.47005350                1.55294877               -0.05108749                0.04018615                1.14510805
               1.66130927                3.16816460               12.11030274                0.77532313               -0.27874798               -0.28659962                0.93621389               -0.01801266                0.09515737               -0.39002077
               2.65943848                3.11103333               12.01336792                0.08153744               -0.08946012               -0.10806335                0.32976135                0.40862699                3.04132595               -1.95821295
               3.65952006                3.06149715               11.97438252                0.00010000                0.04300243                0.41665450                0.13654948                1.57894767                8.21729148               -0.04931885
               4.66029853                3.02353316               11.98175551                0.00010000                0.11805824                0.26388468               -0.01596068                2.27033658               10.46855253                0.26295005
               5.66188123                2.98577788               11.98923012                0.00010000                0.16516290                0.19315415               -0.15218614                2.38222296               10.31574573                0.98565969
               6.66360179                2.94869108               11.99492168                0.00010000                0.20092252                0.10493808               -0.29759102                2.29605675                9.94343148                1.84684928
               7.66589968                2.91183804               11.99618105                0.10000509                0.18484652                0.07239200               -0.47993158                1.54648606                7.25304577                2.93010863
               8.66729872                2.86455784               11.94906745                0.35960070                0.20098630                0.33437553               -0.69361419                0.46591816                2.55065224                2.93166283
               9.66991941                2.81023473               11.85671757                0.85260934                0.37033728                0.42444698               -1.29105480                0.01894027                0.16423579                0.99070504
              10.67470546                2.75657189               11.76177302                1.00000000                0.47860577                0.54428995               -1.91728427               -0.04476457                0.03889061               -0.44471619
               0.71996873                4.22017459               12.18425401                1.00000000               -0.30083999               -0.40282086                1.33929030               -0.05020266                0.02197792                1.08920692
               1.71696033                4.16567094               12.07866958                0.75120004               -0.20103731               -0.21150981                0.67992257               -0.01801490                0.06078406               -0.40605852
               2.71594798                4.11040904               11.97377936                0.07106671                0.06592160               -0.01995102                0.02479702                0.53200839                4.68201366               -1.90749852
               3.71827876                4.06518869               11.96067312                0.00010000                0.20685179                0.30635836                0.03455611                1.53416402               10.91177812               -0.20987755
               4.72008501                4.02579126               11.98154077                0.00010000                0.16280558                0.20128457               -0.01803606                1.97915641               12.60999681                0.44425020
               5.72153487                3.98736162               12.00409026                0.00010000                0.11706849                0.13177931               -0.05405078                2.05903586               12.62639141                1.21237784
               6.72242638                3.94977294               12.02692007                0.00010000                0.04202732                0.08747670               -0.09364466                2.05680213               12.57999993                2.18544644
               7.72237542                3.91328113               12.05001122                0.11146816               -0.02707737                0.11837106               -0.15839144                1.40420534                8.86064103                3.51420675
               8.72188484                3.86705083               11.99974830                0.37862678                0.05578455                0.16991125               -0.28913848                0.41590116                2.59892300                2.24434248
               9.72349111                3.81395603               11.89810260                0.88244561                0.27298975                0.31255484               -0.94793264                0.00936358                0.01688706                0.77565198
              10.72734463                3.76155901               11.79609206                1.00000000                0.38535255                0.45668045               -1.61586456               -0.04817202                0.00345836               -0.57180775
               0.77301667                5.21649705               12.15997218                1.00000000               -0.23021534               -0.33259382                1.12215058               -0.04917969                0.02386272                1.06744696
               1.77071452                5.16393441               12.04697226                0.72618078               -0.12278848               -0.13517794                0.42062113               -0.01516151                0.07123446               -0.41377626
               2.77056090                5.11063431               11.93483964                0.06032580                0.20533029                0.06508867               -0.27769858                0.54808315                6.24183982               -1.87088241
               3.77482112                5.06762432               11.94531456                0.00010000                0.35739131                0.22080812               -0.10920300                1.40377244               13.60405320               -0.28448527
               4.77770873                5.02755885               11.98195054                0.00010000                0.21295717                0.15070969               -0.03550494                1.69615958               14.91529832                0.46792252
               5.77908027                4.98841347               12.02065674                0.00010000                0.05547990                0.07874853                0.05248338                1.79190969               15.02459912                1.31023261
               6.77881832                4.95044062               12.06143920                0.00010000               -0.11871853                0.03028844                0.14261970                1.82535337               15.16062265                2.31409740
               7.77670590                4.91420546               12.10466017                0.12212046               -0.19382407                0.02177249                0.22161796                1.21238823               10.08593578                3.49782189
               8.77494184                4.86795606               12.04551321                0.39623519               -0.05536987                0.02284752                0.08563752                0.33053595                2.47984786                1.91420270
               9.77559850                4.81648583               11.93713776                0.91131989                0.17971050                0.19813968               -0.61637564                0.00963898                0.01335841                0.60114124
              10.77853605                4.76570550               11.82856312                1.00000000                0.29375554                0.37304992               -1.32179700               -0.04593099                0.00880556               -0.70782079
               0.82411042                6.21352271               12.13548735                1.00000000               -0.15905805               -0.26312844                0.90325689               -0.04748285                0.02846470                1.04628107
               1.82251984                6.16296739               12.01511276                0.69911094               -0.04453426               -0.05760417                0.15990894               -0.01115625                0.08968843               -0.43271578
               2.82321973                6.11171081               11.89588659                0.04879683                0.34549151                0.15211095               -0.58003071                0.49594212                7.81752183               -1.87916185
               3.82942967                6.06960486               11.93013839                0.00010000                0.49996615                0.18959150               -0.28554379                1.20985704               16.28061732               -0.32871898
               4.83321905                6.02880545               11.98214663                0.00010000                0.25308151                0.10478941               -0.06703394                1.41218363               17.21607500                0.42237391
               5.83449130                5.98893660               12.03743942                0.00010000               -0.00387986                0.02363815                0.16074865                1.51533998               17.43086850                1.27885997
               6.83314146                5.95037871               12.09606293                0.00010000               -0.26917821               -0.05170220                0.39633937                1.56909183               17.67003565                2.26402880
               7.82910773                5.91371658               12.15828230                0.13179744               -0.34631336               -0.12753603                0.63520151                0.99426218               11.20730574                3.38481553
               8.82621519                5.86750778               12.08951005                0.41175513               -0.15866393               -0.10524596                0.44004230                0.23635990                2.33334793                1.78930455
               9.82593445                5.81791882               11.97477289                0.93632225                0.08857460                0.09297220               -0.29948018                0.00901512                0.02269856                0.50685749
              10.82798668                5.76902001               11.85971237                1.00000000                0.20522284                0.29210122               -1.03996978               -0.04386279                0.01179592               -0.78460645
               0.87317766                7.21123448               12.11072772                1.00000000               -0.08743708               -0.19616776                0.68351227               -0.04544863                0.03149642                1.01664425
               1.87230329                7.16278232               11.98296757                0.67018869                0.03323063                0.02143154               -0.10112470               -0.00639270                0.10939428               -0.46210219
               2.87384227                7.11367653               11.85669615                0.03661531                0.48101652                0.24408867               -0.88228661                0.38563941                9.35055244               -1.90274851
               3.88192362                7.07141615               11.91383627                0.00010000                0.63891934                0.17345957               -0.47531374                0.93326106               18.92261501               -0.46617569
               4.88662066                7.02965464               11.98141801                0.00010000                0.29450945                0.06220599               -0.10703545                1.10344540               19.51843303                0.31814625
               5.88781381                6.98888623               12.05317729                0.00010000               -0.06002418               -0.03146606                0.26568793                1.21524359               19.81907121                1.13289059
               6.88542018                6.94940657               12.12949509                0.00010000               -0.41758718               -0.13659471                0.65420995                1.25789321               20.16370315                2.08106868
               7.87946207                6.91165474               12.21068715                0.14061434               -0.49766883               -0.27997438                1.06327108                0.74570226               12.34028180                3.23757381
               8.87546680                6.86585114               12.13272816                0.42539135               -0.25977466               -0.22172624                0.77943701                0.14822606                2.20271319                1.73290173
               9.87426657                6.81834527               12.01168672                0.95777114               -0.00051910               -0.00440425                0.00476903                0.00775532                0.02950905                0.47013659
              10.87545642                6.77154752               11.89022072                1.00000000                0.11898453                0.21606980               -0.76918058               -0.04256007                0.01311704               -0.80226871
               0.92010576                8.20959935               12.08558529                1.00000000               -0.01558233               -0.13352294                0.46365868               -0.04308387                0.03738015                0.98098693
               1.91994994                8.16339602               11.95046077                0.63988417                0.10964686                0.10292171               -0.36112928               -0.00167159                0.13425853               -0.50722854
               2.92229870                8.11659258               11.81721370                0.02405606                0.60834216                0.34142099               -1.18287528                0.21096054               10.81049011               -1.88174151
               3.93211678                8.07307405               11.89569886                0.00010000                0.77595910                0.14195197               -0.65683645                0.56440449               21.50602376               -0.55764824
               4.93781788                8.03004957               11.97910458                0.00010000                0.34637281                0.00253043               -0.14883530                0.77317090               21.80504578                0.19290791
               5.93904423                7.98830727               12.06663996                0.00010000               -0.11435335               -0.07365222                0.36165345                0.89117113               22.15486340                0.86844079
               6.93553081                7.94764682               12.16024389                0.00010000               -0.57335146               -0.18911028                0.90118543                0.88532351               22.68203335                1.68427302
               7.92757721                7.90811709               12.26136910                0.14891783               -0.65208148               -0.41392311                1.48942020                0.45678744               13.58176620                2.91540291
               8.92248918                7.86307326               12.17560982                0.43771143               -0.35920104               -0.33031821                1.10786624                0.06581037                2.13982020                1.64887237
               9.92039318                7.81783074               12.04840798                0.97648035               -0.08790954               -0.09666523                0.29963746                0.00532818                0.04036701                0.48576207
              10.92073099                7.77334141               11.92065443                1.00000000                0.03378058                0.14456879               -0.50463269               -0.04154833                0.01673159               -0.78117485
               0.96472266                9.20856402               12.06003748                1.00000000                0.05539685               -0.07559451                0.24528221               -0.04114331                0.02778983                0.80804541
               1.96527663                9.16484076               11.91737159                0.60920251                0.18303973                0.18645172               -0.61939129                0.00129359                0.21672007               -0.48533691
               2.96838345                9.12050495               11.77843489                0.01162606                0.72390466                0.43458295               -1.47117989               -0.04907992               12.28060569               -1.46007962
               3.97975472                9.07425519               11.87714001                0.00010000                0.92336988                0.03778863               -0.81379048                0.17993240               23.98481259               -0.39734674
               4.98685085                9.02970525               11.97516578                0.00010000                0.41426347               -0.04196319               -0.18712118                0.41574306               23.94262895                0.09233445
               5.98803999                8.98741319               12.07639983                0.00010000               -0.17670117               -0.10361069                0.44096726                0.51963118               24.31350426                0.48433085
               6.98331683                8.94562437               12.18535408                0.00010000               -0.74343090               -0.18930823                1.11312702                0.45372960               25.16185796                0.96412835
               7.97317137                8.90337628               12.30733602                0.15736988               -0.81237326               -0.49256575                1.88236834                0.16448294               15.03167783                1.91999471
               8.96706936                8.85924478               12.21722428                0.44990244               -0.45331923               -0.42636061                1.42205079               -0.01380962                2.32320457                1.18678729
               9.96410499                8.81641197               12.08553738                0.99429860               -0.17326267               -0.18620185                0.59080425                0.00128151                0.11557794                0.45801537
              10.96360411                8.77443890               11.95129459                1.00000000               -0.05008781                0.07462176               -0.24283918               -0.04303634               -0.00900294               -0.64140447
               1.00672942               10.20808746               12.03134869                1.00000000                0.13054606               -0.04765595                0.01781635                0.10443500                0.43730985                0.65601177
               2.00803488               10.16712505               11.88528694                0.79512556                0.25866236                0.22842918               -0.86589183                0.13566453                0.85005278               -0.43561598
               3.01190267               10.12528424               11.74744526                0.50205234                0.92401234                0.47792953               -1.70517150               -0.31283998               13.85133255               -1.07653028
               4.02651513               10.07382982               11.86152280                0.43655730                1.05360348               -0.04253682               -0.93524094               -0.12765574               25.99638369               -0.19619435
               5.03297474               10.02921031               11.96980709                0.43162378                0.35013048               -0.04949353               -0.22117049                0.23265079               25.70680598                0.07685684
               6.03351774                9.98623506               12.08108639                0.45351567               -0.21662140               -0.11781285                0.49722490                0.28029199               26.12182028                0.29498626
               7.02864231                9.94386065               12.20090641                0.49962721               -0.81356439               -0.17637137                1.26616452                0.13408418               27.21764652                0.56853423
               8.01724645                9.89826578               12.33799063                0.58165403               -0.97325046               -0.51105038                2.15799643               -0.05822228               16.61009624                1.18719724
               9.00917730                9.85454605               12.25097719                0.72916502               -0.60108759               -0.46987320                1.69904967                0.00284002                3.21858530                0.79032178
              10.00522470                9.81410670               12.12169111                1.00000000               -0.26804443               -0.23052692                0.87945892                0.12636105                0.69235755                0.40857014
              11.00381641                9.77483384               11.98430183                1.00000000               -0.14082867                0.03949484                0.03814005                0.09394470                0.28979760               -0.51518012
               0.56781005                0.27760949               13.30272967                1.00000000               -0.54989706               -0.61875965                2.14857695               -0.12583353               -0.76215231                0.81661621
               1.56231108                0.20842382               13.21421907                1.00000000               -0.44816690               -0.45472532                1.62048920               -0.08548840               -0.76913210               -0.03140154
               2.55884671                0.13909942               13.12552926                0.70863951               -0.12776631               -0.31744838                1.08688524                0.07780720               -0.47126845               -0.73794090
               3.55975575                0.07343651               13.04304915                0.52058362                0.39751609               -0.18541828                0.56058999                0.32702565                1.21183001               -0.09500056
               4.56679703                0.01912873               12.98844296                0.44732726                0.70964284               -0.11069262                0.08980418                0.30013065                3.96851090               -0.08215905
               5.57394861               -0.02235377               12.96230313                0.45323625                0.38345635               -0.00928094               -0.32621638                0.13779786                5.21791484               -0.00758218
               6.57446616               -0.06318517               12.93391552                0.53054052               -0.05695057                0.15087335               -0.72772328                0.22445636                3.74913489                0.05688275
               7.57280959               -0.11457097               12.87863599                0.68968276               -0.00677688                0.31681477               -1.18153384                0.22736901                1.32958308                0.09927829
               8.57433062               -0.17561394               12.80149021                0.96083907                0.33827030                0.48140882               -1.69323865                0.07852677               -0.17944454                0.36129499
               9.57957500               -0.24036143               12.71569152                1.00000000                0.62864044                0.63434825               -2.23610667               -0.07377917               -0.57950930                0.21162991
              10.58690343               -0.30516156               12.63036843                1.00000000                0.73284272                0.78828020               -2.76657031               -0.13324075               -0.54832532               -0.54014276
               0.63573738                1.27142190               13.27339935                1.00000000               -0.50261533               -0.58769729                1.93339257               -0.04546728               -0.04295773                1.05906196
               1.63071123                1.20387657               13.18423266                1.00000000               -0.43094732               -0.41950384                1.40482380               -0.00965796                0.02307880               -0.06787692
               2.62711844                1.13592493               13.09632698                0.26890849               -0.38499392               -0.27740519                0.87824440                0.18841962                1.07976007               -1.10870093
               3.62301135                1.07158233               13.02829474                0.00010000               -0.47124795               -0.16764634                0.43198327                0.76314854                3.17633476               -1.34187125
               4.61769348                1.01802180               12.98237079                0.00010000               -0.32639097                0.30633651                0.02149072                1.55865264                5.74993601                0.37207796
               5.61648353                0.97755342               12.96599158                0.00010000                0.25629211                0.11508193               -0.31359092                1.89595168                7.05343331                0.27665518
               6.62281932                0.93832357               12.94699616                0.00806172                0.74070712               -0.04522453               -0.63248620                1.55440556                5.46756881                0.19641722
               7.63129767                0.88859718               12.90018870                0.23824699                0.75958998                0.33676370               -1.01663020                0.83639877                3.02528194                1.34313373
               8.63801112                0.82920014               12.83318829                0.65142447                0.61566708                0.45355728               -1.46208152                0.26955765                1.35639602                1.03213593
               9.64361102                0.76598205               12.75322634                1.00000000                0.61800128                0.59265466               -1.95830311                0.02564214                0.43525351                0.51412712
              10.65037114                0.70272125               12.66769826                1.00000000                0.67601289                0.74204231               -2.49411487               -0.05094304                0.16283114               -0.57461823
               0.70199136                2.26585555               13.24883775                1.00000000               -0.43764780               -0.52818478                1.73904879               -0.04636369                0.12424788                1.27111977
               1.69761488                2.20003374               13.15347454                0.81482866               -0.35410076               -0.35268630                1.18386056               -0.01140354                0.20586793               -0.25872891
               2.69490934                2.13355131               13.05967567                0.10511652               -0.23465133               -0.19354259                0.64849519                0.19151866                1.41680236               -1.79552175
               3.69292185                2.07008358               12.98855019                0.00010000               -0.14551758                0.15184413                0.19375225                1.46386641                5.92736310               -1.23602164
               4.69199899                2.02525546               12.98509852                0.00010000               -0.06779896                0.50707149                0.00940559                2.64184242                8.91134928                0.46595987
               5.69156587                1.97994787               12.97493123                0.00010000                0.12557590                0.22785852               -0.23478152                2.78729271                8.41558407                0.72365419
               6.69451051                1.93591034               12.96254178                0.00010000                0.35475598               -0.07191294               -0.48413521                2.60420750                8.06215813                1.02553867
               7.69866099                1.89216430               12.94641897                0.09285227                0.39131964                0.17185397               -0.71757883                1.53702923                5.21067217                2.51137458
               8.70233690                1.83345720               12.87816878                0.36044464                0.39528745                0.42119307               -1.14227140                0.34957752                1.94483705                2.64513597
               9.70656674                1.77149166               12.79667576                0.88130844                0.50346374                0.51739052               -1.65699623                0.04822475                0.73960476                0.99412697
              10.71240618                1.70967929               12.70418349                1.00000000                0.58394337                0.64978302               -2.22788174               -0.04068191                0.19484791               -0.51652382
               0.76645371                3.26085820               13.22369156                1.00000000               -0.36663221               -0.46759131                1.53558718               -0.04995652                0.04131618                1.19447443
               1.76278739                3.19682284               13.11963600                0.76401183               -0.27773716               -0.28346682                0.93008918               -0.01631241                0.10111924               -0.42761903
               2.76089897                3.13205408               13.01670523                0.07989195               -0.11014283               -0.10352216                0.33555036                0.39731751                3.25835278               -2.09001764
               3.76058453                3.07461921               12.97582092                0.00010000               -0.01164650                0.40510195                0.15228631                1.49915892                8.65741987               -0.00212380
               4.76066604                3.02816323               12.98164102                0.00010000                0.04949823                0.25468818               -0.00701715                2.16315465               10.93959422                0.30315129
               5.76157450                2.98211059               12.98772705                0.00010000                0.10104950                0.18364030               -0.14868249                2.27866869               10.79413535                1.05445311
               6.76268703                2.93688531               12.99193275                0.00010000                0.14584501                0.09706009               -0.30070079                2.19997394               10.40304409                1.94432362
               7.76449140                2.89203426               12.99136620                0.09818899                0.14941413                0.05707390               -0.48527248                1.49912815                7.68004925                3.03638591
               8.76567531                2.83762401               12.94205228                0.35462174                0.19310111                0.33246829               -0.70800872                0.45641258                2.77091646                3.12509978
               9.76835342                2.77632986               12.84370230                0.83793977                0.37534672                0.43272665               -1.31077576                0.01781895                0.18149024                1.06717363
              10.77318225                2.71571691               12.74246795                1.00000000                0.48288258                0.56096708               -1.94254361               -0.04516921                0.04154494               -0.46145416
               0.82906294                4.25650372               13.19754910                1.00000000               -0.29701939               -0.40038271                1.32118477               -0.04903988                0.02163427                1.13146664
               1.82609275                4.19436441               13.08544189                0.73947945               -0.20018095               -0.20796538                0.67416332               -0.01616958                0.06224513               -0.44647578
               2.82505932                4.13148087               12.97407489                0.06925581                0.03515659               -0.01500803                0.03198037                0.51150789                5.01439250               -2.03406299
               3.82679588                4.07818562               12.96104184                0.00010000                0.13556892                0.29800210                0.04126425                1.45371367               11.54145607               -0.22234808
               4.82777070                4.03034922               12.98139234                0.00010000                0.08106439                0.19758446               -0.01076553                1.87247387               13.22166157                0.47738319
               5.82841717                3.98362067               13.00356649                0.00010000                0.04078073                0.12723784               -0.05040279                1.95047904               13.24707819                1.28601005
               6.82858632                3.93785154               13.02597479                0.00010000               -0.02561554                0.07839124               -0.09542337                1.94670580               13.19022358                2.30407826
               7.82790486                3.89330578               13.04839829                0.10915081               -0.07083837                0.10417698               -0.16476266                1.34113977                9.42862731                3.68871356
               8.82716955                3.84010657               12.99676347                0.37265544                0.04626809                0.16984843               -0.30535779                0.40977040                2.87139984                2.40221985
               9.82883022                3.78014619               12.88849915                0.86592422                0.27795749                0.32278511               -0.97059915                0.00868585                0.02254023                0.84084895
              10.83272870                3.72089863               12.77977080                1.00000000                0.38984798                0.47714284               -1.64633215               -0.04773192                0.00363535               -0.58665366
               0.88975154                5.25285055               13.17109369                1.00000000               -0.22646914               -0.33008924                1.10373845               -0.04820084                0.02273273                1.10723268
               1.88748685                5.19266353               13.05115497                0.71460657               -0.12218135               -0.13171155                0.41555939               -0.01356492                0.07140303               -0.45636742
               2.88730791                5.13175392               12.93211879                0.05858417                0.16518038                0.06957207               -0.26878664                0.52227761                6.67263224               -1.99618747
               3.89079046                5.08057925               12.94424370                0.00010000                0.26862759                0.21957010               -0.10358439                1.31831779               14.41634355               -0.33610294
               4.89268047                5.03211492               12.98162529                0.00010000                0.11456491                0.15511733               -0.02856075                1.58631212               15.69160891                0.48133438
               5.89308176                4.98465535               13.02119945                0.00010000               -0.03722149                0.08133598                0.05656221                1.67276370               15.81093587                1.38280882
               6.89193604                4.93845313               13.06285046                0.00010000               -0.20112918                0.02710376                0.13994765                1.69978413               15.94485476                2.44973838
               7.88905917                4.89411780               13.10680421                0.11957772               -0.24528631                0.01335109                0.20784124                1.14153021               10.76399938                3.70819573
               8.88703031                4.84102097               13.04628722                0.38981606               -0.06620489                0.02342032                0.07144694                0.32529479                2.76885774                2.04302876
               9.88773507                4.78278556               12.93084838                0.89387438                0.18462117                0.20878467               -0.63934154                0.00858824                0.01568987                0.65119901
              10.89072273                4.72525976               12.81516957                1.00000000                0.29876592                0.39422297               -1.35491041               -0.04576609                0.00839835               -0.73237583
               0.94847295                6.24990194               13.14441902                1.00000000               -0.15548740               -0.26039298                0.88475832               -0.04670414                0.02693907                1.08458053
               1.94691808                6.19173018               13.01669296                0.68818836               -0.04418954               -0.05446126                0.15574839               -0.00985121                0.08951921               -0.47614727
               2.94758916                6.13287231               12.89015057                0.04734711                0.29415807                0.15571434               -0.56949781                0.46826601                8.33237974               -2.00419492
               3.95280124                6.08257702               12.92732767                0.00010000                0.39158452                0.19578036               -0.27622430                1.12430061               17.27046425               -0.40401970
               4.95542085                6.03345157               12.98152070                0.00010000                0.13664958                0.11939336               -0.05758259                1.30109007               18.17439181                0.42122634
               5.95553423                5.98524739               13.03907436                0.00010000               -0.11506509                0.03597964                0.16655581                1.38565663               18.39830283                1.34526181
               6.95311955                5.93839362               13.10001311                0.00010000               -0.36833042               -0.04781633                0.39384511                1.42860698               18.64391417                2.40354289
               7.94816762                5.89357280               13.16454650                0.12929941               -0.40559338               -0.13224885                0.61794447                0.91239905               11.97438850                3.61261718
               8.94500768                5.84057497               13.09385880                0.40539529               -0.17022126               -0.10615819                0.43143946                0.22915662                2.61196534                1.89729336
               9.94476320                5.78432189               12.97167062                0.91884658                0.09286484                0.10215799               -0.31933805                0.00788269                0.02366350                0.54180366
              10.94686498                5.72878309               12.84914377                1.00000000                0.21017815                0.31166653               -1.07233845               -0.04406478                0.01138656               -0.82031083
               1.00516098                7.24764269               13.11746319                1.00000000               -0.08415270               -0.19305961                0.66526207               -0.04484849                0.02974694                1.05401594
               2.00431945                7.19157431               12.98194486                0.66034942                0.03327055                0.02396241               -0.10397833               -0.00532913                0.10909607               -0.50499075
               3.00582639                7.13486821               12.84795043                0.03563747                0.41888821                0.24606967               -0.86947480                0.36156429                9.94295581               -2.02599182
               4.01269721                7.08449486               12.90916113                0.00010000                0.51027554                0.19002667               -0.46032044                0.85942512               20.08632789               -0.54361310
               5.01603190                7.03450279               12.98041718                0.00010000                0.15778107                0.09007945               -0.09325252                0.99849527               20.66450176                0.31029736
               6.01585284                6.98537494               13.05588032                0.00010000               -0.19245675               -0.00581121                0.27478080                1.07877066               20.97431853                1.18919041
               7.01218276                6.93749681               13.13603818                0.00010000               -0.53635180               -0.12419254                0.65408261                1.10154648               21.33627272                2.21155429
               8.00512580                6.89147282               13.22124613                0.13840348               -0.56592018               -0.28315192                1.04793802                0.64915237               13.18428610                3.46631928
               9.00086436                6.83889781               13.14051036                0.41953463               -0.27205942               -0.22520837                0.77821608                0.13710816                2.45454282                1.82514432
               9.99968461                6.78482872               13.01165544                0.94103687                0.00273354                0.00201984               -0.00980838                0.00652222                0.02952175                0.49330210
              11.00091903                6.73149309               12.88237894                1.00000000                0.12344198                0.23257713               -0.79851669               -0.04313044                0.01268029               -0.84620801
               1.05971274                8.24604074               13.09012584                1.00000000               -0.01267627               -0.12989326                0.44601867               -0.04270283                0.03574906                1.01843085
               2.05958597                8.19220942               12.94684835                0.63153913                0.10935802                0.10452172               -0.36227227               -0.00091628                0.13415590               -0.54843677
               3.06189990                8.13779370               12.80548231                0.02370157                0.53845939                0.34090268               -1.16670104                0.19796168               11.48319544               -1.99657199
               4.07035516                8.08637756               12.88924154                0.00010000                0.63053893                0.17111460               -0.63632242                0.51736682               22.84207901               -0.61718345
               5.07451067                8.03525316               12.97771411                0.00010000                0.18802311                0.04653511               -0.13021372                0.68651509               23.13230276                0.18596065
               6.07411562                7.98513117               13.07032573                0.00010000               -0.27290394               -0.02912665                0.37477367                0.76106189               23.49562693                0.90972688
               7.06905260                7.93590977               13.16927655                0.00010000               -0.71829791               -0.16060707                0.90456958                0.71691692               24.05771096                1.78763410
               8.05974966                7.88790977               13.27620963                0.14718983               -0.73293270               -0.41257088                1.47768434                0.33923627               14.50098597                3.12202842
               9.05439394                7.83607081               13.18671171                0.43275282               -0.37256538               -0.33616012                1.11417401                0.04821245                2.35979830                1.72622065
              10.05229836                7.78436228               13.05136767                0.96123783               -0.08601578               -0.09393416                0.29225611                0.00360178                0.04004999                0.50196751
              11.05267363                7.73343463               12.91547542                1.00000000                0.03752693                0.15798902               -0.53070074               -0.04271886                0.01625531               -0.82924363
               1.11196956                9.24504482               13.06239946                1.00000000                0.05786051               -0.07133069                0.22851399               -0.04094108                0.02525361                0.84112749
               2.11254816                9.19366474               12.91118690                0.60264239                0.18239658                0.18697513               -0.61889828                0.00167154                0.22109768               -0.51939358
               3.11561749                9.14168626               12.76384200                0.01196742                0.65184682                0.43132151               -1.45156007               -0.04241216               13.04356800               -1.54040014
               4.12558510                9.08791715               12.86913828                0.00010000                0.76955499                0.08209196               -0.78925006                0.16652964               25.49038999               -0.42521234
               5.13100859                9.03543349               12.97341747                0.00010000                0.24161805                0.01238347               -0.16430395                0.36556164               25.43731714                0.08939120
               6.13041746                8.98479241               13.08089991                0.00010000               -0.36330425               -0.04261588                0.45770608                0.42932828               25.82800407                0.50609761
               7.12374250                8.93428466               13.19652324                0.00010000               -0.93339861               -0.12612335                1.11949880                0.31618010               26.73664410                1.01956049
               8.11174949                8.88322140               13.32611643                0.15619493               -0.91832062               -0.47235067                1.87292135                0.04262872               16.03619502                2.04904518
               9.10537609                8.83217461               13.23149917                0.44605629               -0.46783341               -0.43161080                1.43523704               -0.04115206                2.52531205                1.23620548
              10.10239282                8.78295004               13.09144011                0.98109005               -0.17280684               -0.18689225                0.59100840               -0.00183654                0.11958025                0.46950093
              11.10191995                8.73465287               12.94875339                1.00000000               -0.04728649                0.08520070               -0.26552101               -0.04389259               -0.00907971               -0.68096554
               1.16165407               10.24461413               13.03144468                1.00000000                0.13238940               -0.04306917                0.00254718                0.10193103                0.45267623                0.68392467
               2.16297796               10.19594893               12.87664519                0.79238701                0.25725881                0.22841839               -0.86413540                0.13328044                0.88830420               -0.46300686
               3.16679925               10.14642013               12.73051990                0.50241610                0.84802808                0.47338742               -1.68441746               -0.27830084               14.71467928               -1.12790029
               4.17993853               10.08801940               12.85232380                0.43734666                0.90737028                0.01022460               -0.90776953               -0.11062280               27.66090553               -0.21047032
               5.18494665               10.03550083               12.96773586                0.43190480                0.19562433                0.00673368               -0.19538662                0.20677902               27.35484619                0.07599254
               6.18385101                9.98427885               13.08616358                0.45343939               -0.39997255               -0.05135553                0.51624518                0.23767906               27.79469837                0.30802641
               7.17694720                9.93338730               13.21361456                0.49941160               -1.05693579               -0.08973628                1.27361148                0.02966484               28.96208783                0.60125655
               8.16271230                9.87846275               13.35952597                0.58121803               -1.15524681               -0.47586499                2.14801365               -0.20115472               17.71959902                1.26208350
               9.15384226                9.82743859               13.26804301                0.72756491               -0.64644682               -0.47360174                1.71507841               -0.04529838                3.45972282                0.81981070
              10.14978336                9.78062444               13.13048318                0.99713091               -0.27260798               -0.23256002                0.88504866                0.12405691                0.72876417                0.41629535
              11.14839011                9.73513865               12.98458324                1.00000000               -0.13932550                0.04857735                0.01745621                0.09843589                0.31312284               -0.54487210
               0.65111126                0.31639878               14.32414292                1.00000000               -0.54822987               -0.61522498                2.13582846               -0.12374656               -0.80612636                0.85913331
               1.64562897                0.23917582               14.23039302                1.00000000               -0.44915524               -0.45262057                1.61452827               -0.08366515               -0.81632323               -0.03119564
               2.64212816                0.16178610               14.13641222                0.70725125               -0.14041884               -0.31522688                1.08857003                0.07285642               -0.51730327               -0.77362336
               3.64282059                0.08786909               14.04871633                0.52083828                0.35550782               -0.18225401                0.57089231                0.30436877                1.19412319               -0.09726153
               4.64923832                0.02470722               13.98941025                0.44762782                0.64715354               -0.09631798                0.10172362                0.27909011                3.99664583               -0.08436959
               5.65576366               -0.02617588               13.95904701                0.45315483                0.34758582                0.01233693               -0.32629960                0.12649323                5.27498822               -0.00604058
               6.65619003               -0.07615659               13.92657152                0.52989093               -0.05043698                0.16730110               -0.74206745                0.20807841                3.79434075                0.06063150
               7.65475492               -0.13592920               13.86671713                0.68800297                0.01387708                0.32703941               -1.20309323                0.21163452                1.33033706                0.10486903
               8.65646757               -0.20477199               13.78444244                0.95677448                0.35259180                0.48826839               -1.71696912                0.07141212               -0.21730606                0.37806668
               9.66180676               -0.27709873               13.69320944                1.00000000                0.63723623                0.64118052               -2.26082556               -0.07283935               -0.62448053                0.22637123
              10.66921230               -0.34945261               13.60258969                1.00000000                0.74055423                0.79620323               -2.78950862               -0.13276231               -0.58588437               -0.58119092
               0.72709676                1.31024653               14.29266349                1.00000000               -0.49981063               -0.58464676                1.92083800               -0.04404768               -0.04595723                1.11072526
               1.72209865                1.23464961               14.19825427                1.00000000               -0.42933327               -0.41753980                1.39934750               -0.00808861                0.02066573               -0.07052950
               2.71851009                1.15863384               14.10512422                0.26648492               -0.38474663               -0.27522455                0.87951962                0.18185755                1.11946606               -1.15323195
               3.71440372                1.08604654               14.03267342                0.00010000               -0.47291954               -0.16300497                0.44118899                0.73068303                3.27692839               -1.39753534
               4.70905170                1.02374404               13.98264031                0.00010000               -0.34716094                0.29276575                0.03012325                1.47337930                5.91162393                0.39816881
               5.70746050                0.97394749               13.96283785                0.00010000                0.20478888                0.12060145               -0.31854515                1.79627364                7.26792599                0.31311064
               6.71314748                0.92551642               13.94057913                0.00721596                0.68592353               -0.02975280               -0.65195825                1.47622512                5.66005044                0.23062183
               7.72117897                0.86734119               13.88990029                0.23599046                0.73094899                0.34062425               -1.04198267                0.78691197                3.15357823                1.41754424
               8.72776646                0.80011069               13.81844471                0.64509376                0.61198508                0.45870217               -1.48744653                0.25537153                1.42812913                1.09510135
               9.73341867                0.72931308               13.73353432                1.00000000                0.62360502                0.59861997               -1.98054360                0.02478564                0.46178429                0.54053152
              10.74023856                0.65850942               13.64264857                1.00000000                0.68198872                0.75128267               -2.51605480               -0.05119408                0.16904666               -0.61874491
               0.80142414                2.30470584               14.26615319                1.00000000               -0.43442534               -0.52574573                1.72517915               -0.04537495                0.13558375                1.32787711
               1.79707988                2.23082502               14.16528732                0.80339697               -0.35278792               -0.35023718                1.17827804               -0.01024494                0.22721090               -0.28078880
               2.79436838                2.15628161               14.06619161                0.10331262               -0.23779212               -0.19000397                0.65261654                0.18472420                1.48862098               -1.89177793
               3.79232404                2.08460899               13.99055709                0.00010000               -0.17817101                0.14582407                0.20470424                1.38049453                6.17317424               -1.24466355
               4.79080496                2.03056254               13.98523825                0.00010000               -0.12036437                0.47791582                0.01713264                2.48798733                9.26806458                0.50894340
               5.78991675                1.97623615               13.97258893                0.00010000                0.07579370                0.21421024               -0.23486900                2.63487590                8.74650960                0.79356231
               6.79232083                1.92324836               13.95766105                0.00010000                0.29910699               -0.06859367               -0.49328797                2.47615870                8.40129903                1.10744927
               7.79589889                1.87088328               13.93913057                0.09160107                0.36411430                0.16226283               -0.74131610                1.46779296                5.46901769                2.62214925
               8.79960312                1.80440205               13.86664937                0.35612540                0.40024212                0.41772267               -1.16237509                0.33024440                2.06626323                2.81096258
               9.80390374                1.73487367               13.78000540                0.86689565                0.50963046                0.52208694               -1.67723929                0.04429317                0.78711695                1.05398562
              10.80979573                1.66557304               13.68179527                1.00000000                0.58919912                0.66230367               -2.24968300               -0.04173833                0.21412144               -0.55455523
               0.87395089                3.29973161               14.23896749                1.00000000               -0.36329154               -0.46520251                1.52082471               -0.04908984                0.04212864                1.24123254
               1.87031798                3.22764487               14.12890452                0.75279034               -0.27651407               -0.28012837                0.92320012               -0.01491506                0.10715641               -0.46676244
               2.86842061                3.15483376               14.02007893                0.07829356               -0.12926479               -0.09836939                0.33705262                0.37928292                3.47736715               -2.22271264
               3.86773268                3.08896303               13.97742825                0.00010000               -0.06181639                0.38549846                0.16901914                1.39674934                9.09275657                0.04261097
               4.86718428                3.03330236               13.98161516                0.00010000               -0.01302415                0.23960554                0.00118836                2.02286541               11.39885981                0.34475568
               5.86747220                2.97823169               13.98625647                0.00010000                0.04196171                0.16866391               -0.14626362                2.14097132               11.26391013                1.12782946
               6.86802352                2.92414455               13.98890766                0.00010000                0.09544683                0.08442200               -0.30550965                2.07164889               10.85779112                2.04861930
               7.86938114                2.87058645               13.98647560                0.09654270                0.11787189                0.03670594               -0.49542441                1.42904867                8.10568346                3.15419302
               8.87038096                2.80846514               13.93490728                0.34989442                0.18762020                0.32291237               -0.72042833                0.43886106                2.99094337                3.32341930
               9.87313354                2.73975482               13.83050206                0.82366398                0.38120461                0.43766281               -1.32866927                0.01606015                0.19880986                1.14292885
              10.87800505                2.67175550               13.72292215                1.00000000                0.48715082                0.57756405               -1.96591680               -0.04601620                0.04438578               -0.48464452
               0.94461582                4.29540179               14.21067771                1.00000000               -0.29363872               -0.39799141                1.30591058               -0.04804004                0.02138061                1.17139909
               1.94167944                4.22522246               14.09215284                0.72798983               -0.19899720               -0.20444385                0.66767313               -0.01440317                0.06413031               -0.48751666
               2.94063588                4.15431423               13.97441897                0.06755034                0.00554935               -0.00994415                0.03467906                0.48003523                5.34385364               -2.15938329
               3.94179042                4.09231895               13.96149841                0.00010000                0.06788597                0.28267029                0.05060863                1.34746166               12.16574168               -0.23858134
               4.94199360                4.03535465               13.98132546                0.00010000                0.00517837                0.18774121               -0.00272814                1.73456698               13.82680881                0.51227824
               5.94189399                3.97960943               14.00308220                0.00010000               -0.02972717                0.11650418               -0.04702738                1.80918780               13.86158386                1.36364378
               6.94139906                3.92493680               14.02501160                0.00010000               -0.08673584                0.06262559               -0.09823443                1.80475611               13.79693856                2.42742769
               7.94015927                3.87161740               14.04671597                0.10706165               -0.10935425                0.08173616               -0.17350426                1.25457467                9.99602193                3.86466028
               8.93921197                3.81086030               13.99364114                0.36702744                0.03876560                0.16280863               -0.31751356                0.39516992                3.14465654                2.56319857
               9.94093459                3.74362693               13.87869061                0.84996223                0.28310370                0.32917598               -0.98962085                0.00802150                0.02892272                0.90497597
              10.94487404                3.67712432               13.76316542                1.00000000                0.39394583                0.49647541               -1.67318121               -0.04743115                0.00418427               -0.60726323
               1.01334876                5.29177178               14.18204695                1.00000000               -0.22312836               -0.32784878                1.08837387               -0.04730430                0.02183373                1.14482365
               2.01111748                5.22355599               14.05528345                0.70325379               -0.12119728               -0.12839545                0.40977849               -0.01188410                0.07221253               -0.49940262
               3.01092482                5.15463487               13.92946391                0.05694147                0.12620062                0.07405198               -0.26434339                0.48285887                7.09850109               -2.12007596
               4.01364149                5.09461643               13.94324287                0.00010000                0.18301675                0.21440381               -0.09652698                1.20503595               15.22194107               -0.38560976
               5.01458515                5.03705719               13.98137932                0.00010000                0.02161588                0.15417226               -0.02084529                1.44559738               16.46306848                0.49840739
               6.01407381                4.98056178               14.02178799                0.00010000               -0.12372429                0.07757674                0.06055704                1.52054139               16.59209458                1.46020176
               7.01211067                4.92539706               14.06423816                0.00010000               -0.27623397                0.01625290                0.13671856                1.54039699               16.72393100                2.58968830
               8.00854913                4.87222117               14.10881699                0.11725445               -0.29179194               -0.00451995                0.19384896                1.04573966               11.44498918                3.91866304
               9.00627483                4.81172132               14.04694215                0.38370186               -0.07595938                0.01851069                0.06125645                0.31177809                3.06392138                2.17798963
              10.00702994                4.74633834               13.92435093                0.87690646                0.18934025                0.21604534               -0.65840654                0.00759246                0.01870034                0.70282108
              11.01006163                4.68168500               13.80146491                1.00000000                0.30316903                0.41400494               -1.38419758               -0.04562947                0.00815295               -0.75993397
               1.08010132                6.28884481               14.15318252                1.00000000               -0.15226553               -0.25819006                0.86942407               -0.04600203                0.02561501                1.12080686
               2.07857866                6.22265455               14.01822772                0.67741825               -0.04343510               -0.05144396                0.15077972               -0.00845291                0.08988927               -0.51982107
               3.07923262                6.15579527               13.88449664                0.04595431                0.24450835                0.15950435               -0.56351259                0.42563960                8.84232140               -2.12761057
               4.08346883                6.09660703               13.92461390                0.00010000                0.28637923                0.20067924               -0.26734201                1.00923877               18.25322494               -0.47393433
               5.08496020                6.03843810               13.98099498                0.00010000                0.02480555                0.13049934               -0.04827714                1.15801400               19.12747526                0.42585209
               6.08396494                5.98116096               14.04077054                0.00010000               -0.22063000                0.04284472                0.17177331                1.22145636               19.36069372                1.41780139
               7.08054760                5.92526185               14.10393983                0.00010000               -0.46075641               -0.05114221                0.39041501                1.25175995               19.61197854                2.54898153
               8.07474981                5.87152700               14.17064119                0.12696484               -0.46086171               -0.14515883                0.60004666                0.80475666               12.74958209                3.84463933
               9.07133037                5.81123051               14.09813883                0.39923407               -0.18135334               -0.11101004                0.42590895                0.21471757                2.90219419                2.01384549
              10.07112275                5.74794783               13.96838613                0.90167112                0.09688758                0.10879668               -0.33609061                0.00661966                0.02514034                0.58088785
              11.07326812                5.68540442               13.83826560                1.00000000                0.21453720                0.33033542               -1.10173749               -0.04427219                0.01089260               -0.85668582
               1.14480926                7.28660798               14.12403296                1.00000000               -0.08112890               -0.19065569                0.65012610               -0.04436755                0.02816410                1.08961444
               2.14399797                7.22252711               13.98088801                0.65055001                0.03379326                0.02653501               -0.10798009               -0.00425505                0.10927111               -0.54784417
               3.14548512                7.15782496               13.83930665                0.03465487                0.35927334                0.24871583               -0.86173482                0.32198547               10.53126576               -2.14701912
               4.15118344                7.09863002               13.90462986                0.00010000                0.38531888                0.20730985               -0.44758631                0.75499689               21.24306818               -0.61503954
               5.15319150                7.03966717               13.97955296                0.00010000                0.02478701                0.11651976               -0.08099135                0.86040982               21.80447268                0.30887011
               6.15167918                6.98141867               14.05867290                0.00010000               -0.32058387                0.01606295                0.28229517                0.90682192               22.12476826                1.25236637
               7.14677982                6.92437422               14.14257675                0.00010000               -0.65017850               -0.11737090                0.65205026                0.90764234               22.50430805                2.34952852
               8.13867561                6.86931799               14.23164591                0.13626064               -0.63157392               -0.29198223                1.03025934                0.52694218               14.04186619                3.70303182
               9.13414835                6.80950111               14.14829248                0.41371890               -0.28435924               -0.23108251                0.77911048                0.11965069                2.72241620                1.92728965
              10.13298842                6.74851427               14.01149055                0.92436358                0.00573327                0.00687897               -0.02221564                0.00491632                0.03017373                0.52216582
              11.13426301                6.68829171               13.87425038                1.00000000                0.12745891                0.24888344               -0.82616078               -0.04363161                0.01213065               -0.89003606
               1.20737571                8.28503170               14.09450566                1.00000000               -0.00991216               -0.12701247                0.43126828               -0.04246531                0.03431945                1.05445722
               2.20727658                8.22318525               13.94321533                0.62302758                0.10968585                0.10644676               -0.36518845               -0.00020211                0.13476772               -0.58955342
               3.20956942                8.16076958               13.79387968                0.02324805                0.47249866                0.34171977               -1.15675714                0.16931450               12.15242593               -2.10896958
               4.21672656                8.10075323               13.88297241                0.00010000                0.49051604                0.20193324               -0.61994912                0.44012583               24.17106252               -0.67221049
               5.21937974                8.04076849               13.97650030                0.00010000                0.03338888                0.09020728               -0.11466939                0.56865245               24.45287565                0.18433834
               6.21739433                7.98148222               14.07413543                0.00010000               -0.42893090                0.01393092                0.38512768                0.59805356               24.83213368                0.95712998
               7.21080113                7.92291444               14.17833528                0.00010000               -0.86162872               -0.13483296                0.90505807                0.51292516               25.43089410                1.89846583
               8.20016176                7.86568736               14.29092278                0.14538514               -0.81370098               -0.41385731                1.46263086                0.19690790               15.43950180                3.33771154
               9.19452711                7.80660886               14.19789330                0.42758862               -0.38656423               -0.34317639                1.12259022                0.02508172                2.60032805                1.81409358
              10.19243048                7.74808541               14.05425310                0.94565828               -0.08432523               -0.09138935                0.28534142                0.00135926                0.04118132                0.52529381
              11.19284060                7.69038209               13.91004042                1.00000000                0.04101255                0.17100269               -0.55570191               -0.04368466                0.01599986               -0.87771273
               1.26765286                9.28406773               14.06460776                1.00000000                0.06031850               -0.06780865                0.21432561               -0.04085797                0.02274629                0.87330511
               2.26825605                9.22465605               13.90499362                0.59557121                0.18252855                0.18815380               -0.62091172                0.00203933                0.22641524               -0.55361897
               3.27130343                9.16465936               13.74940369                0.01208082                0.58654991                0.43004290               -1.43962236               -0.05195688               13.80316165               -1.61951921
               4.27998704                9.10266868               13.86135501                0.00010000                0.62660631                0.12480751               -0.77050900                0.13013398               26.98855331               -0.45090256
               5.28383556                9.04147132               13.97187970                0.00010000                0.07536289                0.06624475               -0.14600854                0.29403726               26.92507205                0.08926321
               6.28149430                8.98169729               14.08555395                0.00010000               -0.55011840                0.01930204                0.47050421                0.31724544               27.33831060                0.53135114
               7.27283319                8.92167756               14.20774406                0.00010000               -1.12874807               -0.06056493                1.12210449                0.15320543               28.31072490                1.08020641
               8.25891934                8.86104085               14.34479444                0.15475820               -1.02906336               -0.44994902                1.86026140               -0.09958750               17.06592887                2.18560900
               9.25225192                8.80263759               14.24592902                0.44164846               -0.48384828               -0.43771403                1.45112593               -0.07334622                2.75484403                1.29397333
              10.24924238                8.74668648               14.09735754                0.96688871               -0.17279806               -0.18694690                0.59158868               -0.00482697                0.12727903                0.48995538
              11.24879596                8.69171177               13.94598417                1.00000000               -0.04464134                0.09473053               -0.28786225               -0.04556426               -0.00997849               -0.72308146
               1.32538191               10.28367553               14.03139963                1.00000000                0.13438326               -0.03922045               -0.01054583                0.10018482                0.46725669                0.71132970
               2.32672575               10.22694832               13.86800423                0.78927006                0.25678685                0.22922743               -0.86542662                0.13171573                0.92671215               -0.49084849
               3.33051765               10.16937044               13.71375691                0.50262683                0.78957639                0.47110844               -1.67192512               -0.26352525               15.57478755               -1.17939940
               4.34251728               10.10324938               13.84336741                0.43808807                0.78571145                0.05806967               -0.88697050               -0.11082965               29.31868117               -0.22502572
               5.34623188               10.04209339               13.96589936                0.43216917                0.05078639                0.06220682               -0.17507391                0.17057637               28.99508066                0.07537289
               6.34353300                9.98186826               14.09141130                0.45333164               -0.58551023                0.01709713                0.53025808                0.18435766               29.46163442                0.32166797
               7.33452168                9.92170314               14.22637864                0.49911363               -1.31615105                0.00255794                1.27627901               -0.09014564               30.70401992                0.63524912
               8.31720998                9.85668838               14.38095090                0.58059127               -1.35535644               -0.43524711                2.13419507               -0.36336382               18.85811651                1.34341961
               9.30741455                9.79785458               14.28527876                0.72556112               -0.69751122               -0.47830075                1.73302613               -0.10083262                3.73684949                0.85490028
              10.30325976                9.74434648               14.13939208                0.99041324               -0.27678992               -0.23400063                0.89273888                0.12284438                0.77518518                0.43563440
              11.30187875                9.69227670               13.98465095                1.00000000               -0.13810086                0.05649366               -0.00319678                0.10130135                0.33435929               -0.57921179
               0.73918733                0.35775103               15.34544624                1.00000000               -0.54720097               -0.61248980                2.12647859               -0.12242836               -0.84816113                0.89960352
               1.73371532                0.27207740               15.24650964                1.00000000               -0.45049958               -0.45057253                1.60931590               -0.08255548               -0.86104436               -0.03139091
               2.73017734                0.18620294               15.14730066                0.70558991               -0.15375710               -0.31220317                1.08883346                0.06611253               -0.55978957               -0.80924869
               3.73064018                0.10357710               15.05446700                0.52098470                0.31109639               -0.17862373                0.57803805                0.27828009                1.17722480               -0.09844218
               4.73639926                0.03098122               14.99047743                0.44790119                0.58234648               -0.08240404                0.11010197                0.25455724                4.01595222               -0.08594894
               5.74228711               -0.03005627               14.95577714                0.45305230                0.31417954                0.03299830               -0.32896580                0.11316269                5.31617711               -0.00380601
               6.74268285               -0.08998777               14.91907417                0.52916496               -0.03708452                0.18342369               -0.75829909                0.18832139                3.82624969                0.06511726
               7.74154541               -0.15883991               14.85457413                0.68611107                0.04046656                0.33745382               -1.22613254                0.19235460                1.32366000                0.11105992
               8.74349219               -0.23605716               14.76715083                0.95224672                0.36963631                0.49523976               -1.74174393                0.06255561               -0.25974279                0.39499776
               9.74893814               -0.31648377               14.67047501                1.00000000                0.64665268                0.64804922               -2.28634851               -0.07182925               -0.67220732                0.24274899
              10.75642524               -0.39690314               14.57457826                1.00000000                0.74870983                0.80439161               -2.81294769               -0.13210420               -0.62493269               -0.62498460
               0.82363667                1.35162613               15.31181611                1.00000000               -0.49728614               -0.58209723                1.91090755               -0.04307279               -0.04845971                1.15979260
               1.81866381                1.26757168               15.21221961                1.00000000               -0.42740287               -0.41548409                1.39340205               -0.00699293                0.01874719               -0.07393788
               2.81508861                1.18308090               15.11391737                0.26369638               -0.38149882               -0.27209437                0.87764597                0.17269227                1.16053705               -1.19661582
               3.81103383                1.10179086               15.03711852                0.00010000               -0.46635467               -0.15708087                0.44628673                0.68874002                3.37574905               -1.45106466
               4.80576152                1.03015718               14.98297325                0.00010000               -0.35653029                0.27391239                0.03501181                1.37060143                6.06152232                0.42606232
               5.80390323                0.97027371               14.95962067                0.00010000                0.15981854                0.12283843               -0.32591866                1.67377220                7.46498580                0.35455052
               6.80895789                0.91184647               14.93395699                0.00627967                0.63002153               -0.01407181               -0.67323553                1.37864532                5.84064467                0.27265290
               7.81650366                0.84453462               14.87934905                0.23347624                0.69908897                0.34359459               -1.06889265                0.72781891                3.27839012                1.49486531
               8.82293967                0.76889524               14.80343936                0.63818244                0.60695918                0.46355250               -1.51416173                0.23786224                1.50129237                1.16162239
               9.82864284                0.68999672               14.71361547                1.00000000                0.62919500                0.60437047               -2.00352775                0.02352902                0.48982555                0.56834811
              10.83552357                0.61114077               14.61737716                1.00000000                0.68807288                0.76088763               -2.53841112               -0.05141328                0.17521543               -0.66600385
               0.90643478                2.34610908               15.28334133                1.00000000               -0.43140945               -0.52338952                1.71348415               -0.04485828                0.14721705                1.38198688
               1.90212068                2.26376772               15.17704010                0.79169859               -0.35113912               -0.34748027                1.17138461               -0.00963798                0.24969203               -0.30418902
               2.89941200                2.18076105               15.07272800                0.10138109               -0.23909942               -0.18542172                0.65194950                0.17508674                1.56179941               -1.98779074
               3.89733870                2.10043548               14.99264428                0.00010000               -0.20417788                0.13696236                0.21072936                1.27840121                6.41603189               -1.24744536
               4.89532844                2.03645947               14.98544117                0.00010000               -0.16327176                0.44069733                0.02245119                2.30092583                9.61609676                0.55510332
               5.89407326                1.97240050               14.97023385                0.00010000                0.03332053                0.19500945               -0.23727189                2.44641504                9.06684233                0.87119207
               6.89599485                1.90973080               14.95267602                0.00010000                0.24898822               -0.06696655               -0.50497124                2.31486530                8.72868080                1.20090108
               7.89905303                1.84803198               14.93159265                0.09031537                0.33962415                0.14990472               -0.76721209                1.37924460                5.72467339                2.74388109
               8.90278733                1.77321389               14.85492128                0.35168174                0.40550813                0.41026905               -1.18385725                0.30498590                2.19237120                2.98561962
               9.90716319                1.69560364               14.76313097                0.85225890                0.51607690                0.52532503               -1.69786240                0.03863101                0.83662252                1.11566253
              10.91310887                1.61831461               14.65918983                1.00000000                0.59456830                0.67565446               -2.27142932               -0.04359284                0.23450496               -0.59672036
               0.98742223                3.34115834               15.25410805                1.00000000               -0.36031484               -0.46284204                1.50853249               -0.04835173                0.04244223                1.28607301
               1.98381908                3.26062207               15.13810000                0.74158141               -0.27498228               -0.27662873                0.91547499               -0.01362291                0.11297623               -0.50695157
               2.98192259                3.17937247               15.02344629                0.07668564               -0.14578255               -0.09264114                0.33427622                0.35434369                3.70171969               -2.35565445
               3.98090343                3.10453011               14.97920130                0.00010000               -0.10537846                0.35819442                0.18482361                1.27320917                9.52725381                0.08839402
               4.97981502                3.03897113               14.98166478                0.00010000               -0.06716161                0.21855763                0.00782548                1.85192186               11.84768989                0.38923692
               5.97956020                2.97417390               14.98480178                0.00010000               -0.00956501                0.14807640               -0.14582872                1.97127262               11.72610187                1.20651177
               6.97962372                2.91050714               14.98582256                0.00010000                0.05226277                0.06694041               -0.31303243                1.91276463               11.30696837                2.16007352
               7.98060546                2.84753272               14.98145772                0.09497442                0.09220047                0.01128109               -0.51063368                1.33681058                8.53207242                3.28307293
               8.98146773                2.77710062               14.92764372                0.34527682                0.18546438                0.30608860               -0.73219284                0.41356014                3.21376969                3.52877930
               9.98431474                2.70050322               14.81712891                0.80962224                0.38810226                0.43966004               -1.34570733                0.01372262                0.21603313                1.21945889
              10.98922977                2.62465386               14.70314962                1.00000000                0.49150284                0.59479977               -1.98818134               -0.04724081                0.04722069               -0.51300083
               1.06654028                4.33685224               15.22366731                1.00000000               -0.29061857               -0.39580676                1.29336001               -0.04706031                0.02114356                1.20962689
               2.06363410                4.25823514               15.09879535                0.71666566               -0.19747241               -0.20107352                0.66059627               -0.01244777                0.06626875               -0.52892360
               3.06259083                4.17890823               14.97476847                0.06589715               -0.02149386               -0.00488702                0.03350496                0.43800752                5.67465457               -2.28333042
               4.06320422                4.10759937               14.96205401                0.00010000                0.00661239                0.26107260                0.06014309                1.21664146               12.78910331               -0.25865853
               5.06272308                4.04083062               14.98133778                0.00010000               -0.06207580                0.17212116                0.00434758                1.56721806               14.42619680                0.54937931
               6.06196270                3.97536203               15.00262594                0.00010000               -0.09158777                0.09985724               -0.04547291                1.63717983               14.47058506                1.44556756
               7.06089133                3.91106961               15.02401010                0.00010000               -0.13834727                0.04057650               -0.10376889                1.63287541               14.40004204                2.55580268
               8.05919576                3.84825760               15.04492820                0.10510935               -0.14016468                0.05165592               -0.18648015                1.14577804               10.56582257                4.04371611
               9.05808803                3.77933566               14.99041320                0.36162463                0.03443207                0.14912284               -0.32717481                0.37231563                3.42189355                2.72811649
              10.05988440                3.70439684               14.86870673                0.83445938                0.28873712                0.33216249               -1.00619396                0.00732579                0.03578435                0.96885135
              11.06386278                3.63021060               14.74630717                1.00000000                0.39783761                0.51535214               -1.69731715               -0.04722087                0.00498433               -0.63292755
               1.14371522                5.33324220               15.19286117                1.00000000               -0.22010762               -0.32600874                1.07580155               -0.04643227                0.02113392                1.18071507
               2.14151415                5.25660060               15.05935054                0.69209874               -0.11983543               -0.12529735                0.40332693               -0.00999131                0.07362713               -0.54278976
               3.14131851                5.17927473               14.92683192                0.05536121                0.08998589                0.07845670               -0.26392970                0.43047673                7.52338521               -2.24269216
               4.14331386                5.10975156               14.94231316                0.00010000                0.10391038                0.20559905               -0.09017283                1.06510021               16.02541632               -0.43465730
               5.14339672                5.04241355               14.98120838                0.00010000               -0.06245241                0.14821765               -0.01445625                1.27550629               17.23097751                0.51850026
               6.14206482                4.97617105               15.02241059                0.00010000               -0.20055339                0.06782401                0.06247794                1.33728303               17.36891918                1.54212386
               7.13938565                4.91131867               15.06558484                0.00010000               -0.34049275               -0.00174730                0.13080653                1.34959661               17.49857352                2.73387616
               8.13525496                4.84856584               15.11068118                0.11507268               -0.33054268               -0.03104627                0.17704220                0.92644553               12.13176513                4.12996862
               9.13277480                4.78008308               15.04751235                0.37781552               -0.08343206                0.00829444                0.05389748                0.28996135                3.36756163                2.31865546
              10.13358632                4.70714647               14.91768025                0.86041231                0.19415125                0.22015918               -0.67443885                0.00663330                0.02236813                0.75571374
              11.13665782                4.63496090               14.78748562                1.00000000                0.30715057                0.43266498               -1.41013080               -0.04550117                0.00809664               -0.79090078
               1.21889484                6.33033207               15.16180750                1.00000000               -0.14930991               -0.25651845                0.85684717               -0.04534008                0.02450471                1.15537461
               2.21740175                6.25572920               15.01970855                0.66679492               -0.04227174               -0.04853885                0.14495920               -0.00688362                0.09089232               -0.56378632
               3.21804941                6.18047736               14.87888032                0.04459649                0.19828269                0.16350277               -0.56178140                0.36867443                9.35071057               -2.24983949
               4.22136740                6.11171135               14.92198083                0.00010000                0.18821552                0.20419998               -0.26076664                0.86580126               19.23331488               -0.54036267
               5.22181372                6.04379498               14.98055515                0.00010000               -0.07820764                0.13806542               -0.04134126                0.98443735               20.07732574                0.43505865
               6.21980325                5.97671851               15.04250982                0.00010000               -0.31626256                0.04431613                0.17417181                1.02496390               20.31914219                1.49575383
               7.21548847                5.91103466               15.10782141                0.00010000               -0.54214921               -0.06133716                0.38377649                1.04142155               20.57503791                2.69975831
               8.20896026                5.84763667               15.17654743                0.12473133               -0.50909219               -0.16569880                0.57913861                0.67296589               13.53543828                4.08009652
               9.20530663                5.77950155               15.10237697                0.39322164               -0.19105122               -0.11969692                0.42258138                0.19282956                3.20639001                2.13824407
              10.20513924                5.70880002               14.96494881                0.88483953                0.10086306                0.11292966               -0.35020496                0.00531082                0.02724243                0.62325090
              11.20732389                5.63886390               14.82710902                1.00000000                0.21846485                0.34783244               -1.12810396               -0.04440426                0.01045051               -0.89464292
               1.29201416                7.32811183               15.13046572                1.00000000               -0.07829784               -0.18884886                0.63762477               -0.04395369                0.02677748                1.12376479
               2.29123118                7.25562982               14.97978526                0.64078231                0.03478450                0.02917711               -0.11315383               -0.00307428                0.11008310               -0.59090521
               3.29270985                7.18254478               14.83071574                0.03365166                0.30405447                0.25199566               -0.85869407                0.26738283               11.11844503               -2.26670718
               4.29731227                7.11383556               14.90020940                0.00010000                0.26842301                0.22484232               -0.43873666                0.62092324               22.39713160               -0.68226069
               5.29807831                7.04517486               14.97879735                0.00010000               -0.09939305                0.14091009               -0.07242737                0.69066272               22.94090984                0.31250422
               6.29532441                6.97705737               15.06152623                0.00010000               -0.43911967                0.03371068                0.28589979                0.70185681               23.27179109                1.32153789
               7.28929592                6.91009193               15.14907918                0.00010000               -0.75385118               -0.11614437                0.64577422                0.67945753               23.66827566                2.49427638
               8.28024739                6.84525186               15.24185131                0.13413466               -0.69139377               -0.30606052                1.00808012                0.38093165               14.91555939                3.94667825
               9.27546804                6.77768914               15.15609257                0.40790430               -0.29586012               -0.23927048                0.78130151                0.09583822                3.00903341                2.03884226
              10.27433018                6.70940506               15.01121113                0.90779253                0.00869679                0.01005730               -0.03291363                0.00320204                0.03163812                0.55587201
              11.27564198                6.64191755               14.86585573                1.00000000                0.13117937                0.26413466               -0.85158250               -0.04399595                0.01156899               -0.93447863
               1.36297979                8.32655509               15.09875120                1.00000000               -0.00724839               -0.12474424                0.41893784               -0.04230577                0.03308598                1.08932125
               2.36290731                8.25631274               14.93954459                0.61435480                0.11057682                0.10868170               -0.36975221                0.00057668                0.13617550               -0.63095767
               3.36519133                8.18551727               14.78234716                0.02269154                0.41242383                0.34369323               -1.15234778                0.12524702               12.82093635               -2.22017375
               4.37115579                8.11620820               14.87684255                0.00010000                0.36069167                0.23342714               -0.60887900                0.33318953               25.49741442               -0.72433839
               5.37240516                8.04661318               14.97542072                0.00010000               -0.11162350                0.13224193               -0.10416651                0.42086530               25.76985271                0.18680428
               6.36892332                7.97739272               15.07802828                0.00010000               -0.57610179                0.05430978                0.39039531                0.40467482               26.16610425                1.00989045
               7.36088313                7.90871177               15.18737771                0.00010000               -0.99708163               -0.11232455                0.90021096                0.27716668               26.80211178                2.01629712
               8.34898168                7.84151546               15.30546225                0.14347707               -0.89064713               -0.41731978                1.44180065                0.03200445               16.39981791                3.56214508
               9.34307019                7.77471614               15.20916351                0.42220329               -0.40034101               -0.35102631                1.13126337               -0.00362322                2.86407192                1.91221760
              10.34097486                7.70900117               15.05707450                0.92979931               -0.08255976               -0.08974472                0.27911349               -0.00082392                0.04375580                0.55455268
              11.34141899                7.64414660               14.90436138                1.00000000                0.04441264                0.18315800               -0.57929393               -0.04419919                0.01594461               -0.92673671
               1.43165275                9.32561695               15.06668598                1.00000000                0.06277874               -0.06490618                0.20230620               -0.04083868                0.02023442                0.90478276
               2.43228053                9.25780346               14.89876866                0.58806857                0.18332944                0.18990002               -0.62508482                0.00246619                0.23261146               -0.58832731
               3.43531933                9.18941865               14.73504955                0.01198873                0.52998110                0.43042211               -1.43420629               -0.07794318               14.56212238               -1.69837956
               4.44288016                9.11850410               14.85372810                0.00010000                0.49958786                0.16429470               -0.75818945                0.07074819               28.48404456               -0.47547809
               5.44531109                9.04781970               14.97049730                0.00010000               -0.07804214                0.11778962               -0.13389526                0.20193369               28.40933510                0.09117717
               6.44131931                8.97814356               15.09031000                0.00010000               -0.72972920                0.08023962                0.47717894                0.18534178               28.84649084                0.55967247
               7.43071651                8.90784544               15.21896533                0.00010000               -1.32181034                0.00556752                1.11850253               -0.03166166               29.88509010                1.14589721
               8.41488311                8.83690546               15.36332166                0.15307576               -1.14033179               -0.42486181                1.84149498               -0.25920018               18.12365026                2.32961033
               9.40790987                8.77066861               15.26052169                0.43673695               -0.49999271               -0.44395163                1.46645286               -0.11137012                3.01257707                1.36011506
              10.40488325                8.70761017               15.10327189                0.95188050               -0.17213672               -0.18665563                0.59034252               -0.00739443                0.13749250                0.51540125
              11.40446714                8.64558071               14.94299614                1.00000000               -0.04161139                0.10371239               -0.30939794               -0.04591786               -0.01065445               -0.76577219
               1.49779001               10.32525697               15.03123376                1.00000000                0.13649289               -0.03599835               -0.02176897                0.09910340                0.48121245                0.73839842
               2.49915494               10.26011074               14.85933666                0.78584817                0.25709080                0.23072831               -0.86923781                0.13087760                0.96546464               -0.51933013
               3.50293182               10.19412571               14.69708139                0.50270679                0.75073820                0.47070658               -1.66630276               -0.26958377               16.43456993               -1.23151784
               4.51416970               10.11949409               14.83458439                0.43877996                0.69362761                0.09899880               -0.87320960               -0.12888277               30.97431460               -0.24031483
               5.51680437               10.04896897               14.96423438                0.43241899               -0.07826414                0.11492712               -0.16164828                0.12449939               30.63080663                0.07466815
               6.51260442                9.97899751               15.09676874                0.45320198               -0.76581898                0.08539475                0.53739936                0.12121799               31.12467786                0.33577810
               7.50148799                9.90882312               15.23914014                0.49874845               -1.58149558                0.09776870                1.27210496               -0.22181558               32.44461208                0.67071652
               8.48097450                9.83301823               15.40220987                0.57979910               -1.56749584               -0.38872381                2.11396886               -0.54016075               20.02921842                1.43056102
               9.47013808                9.76583711               15.30270354                0.72321599               -0.75298151               -0.48315022                1.75048032               -0.16468793                4.04837755                0.89683274
              10.46591487                9.70526806               15.14833796                0.98311904               -0.27892654               -0.23421140                0.89450614                0.12234903                0.82651497                0.45886902
              11.46455955                9.64622084               14.98451930                1.00000000               -0.13553272                0.06401316               -0.02332354                0.10451983                0.35665088               -0.61392505
               0.83202125                0.40165111               16.36667250                1.00000000               -0.54675928               -0.61038230                2.11979861               -0.12237441               -0.88773135                0.93817364
               1.82655366                0.30712805               16.26257934                1.00000000               -0.45231232               -0.44876572                1.60561074               -0.08230228               -0.90239512               -0.03229631
               2.82297500                0.21236771               16.15818889                0.70368903               -0.16826722               -0.30935290                1.08920724                0.05814985               -0.59792387               -0.84494519
               3.82318831                0.12059721               16.06027709                0.52102579                0.26361100               -0.17492315                0.58303249                0.24889458                1.16127281               -0.09823874
               4.82824722                0.03799660               15.99161229                0.44814386                0.51510769               -0.06950510                0.11538998                0.22646257                4.02738034               -0.08703227
               5.83349047               -0.03393907               15.95246769                0.45293306                0.28354052                0.05208548               -0.33420845                0.09777661                5.34303621               -0.00106905
               6.83391803               -0.10461989               15.91140554                0.52837229               -0.01695058                0.19875154               -0.77618727                0.16545679                3.84589232                0.07026278
               7.83315146               -0.18325785               15.84219448                0.68403403                0.07269005                0.34778258               -1.25019652                0.16983458                1.31008054                0.11782557
               8.83537184               -0.26944909               15.74960756                0.94732346                0.38918642                0.50217810               -1.76707372                0.05206456               -0.30648067                0.41191089
               9.84093518               -0.35852467               15.64748247                1.00000000                0.65676558                0.65487398               -2.31227542               -0.07083175               -0.72251430                0.26095684
              10.84850715               -0.44755011               15.54633074                1.00000000                0.75719634                0.81278854               -2.83663915               -0.13131184               -0.66523858               -0.67120833
               0.92532056                1.39554728               16.33088164                1.00000000               -0.49482288               -0.57987366                1.90363205               -0.04320374               -0.05052151                1.20649095
               1.92037233                1.30264039               16.22612231                1.00000000               -0.42493182               -0.41335991                1.38653048               -0.00698494                0.01756734               -0.07831662
               2.91682192                1.20927418               16.12267714                0.26057777               -0.37547592               -0.26854144                0.87422912                0.16163824                1.20401234               -1.23887486
               3.91286281                1.11884798               16.04159915                0.00010000               -0.45209671               -0.15099585                0.45028734                0.63852794                3.47471099               -1.50226270
               4.90777999                1.03730155               15.98334055                0.00010000               -0.35431679                0.24882383                0.03800207                1.25119477                6.20178357                0.45609360
               5.90577648                0.96658178               15.95631948                0.00010000                0.12260007                0.12089778               -0.33483915                1.52971803                7.64605232                0.40061548
               6.91023199                0.89736763               15.92711442                0.00525751                0.57439625                0.00103484               -0.69567650                1.26279040                6.00983678                0.32193119
               7.91726440                0.82021997               15.86852244                0.23071392                0.66469479                0.34550454               -1.09672693                0.66003549                3.39981415                1.57479781
               8.92352589                0.73557269               15.78816148                0.63074105                0.60064869                0.46795878               -1.54168448                0.21722420                1.57604622                1.23161471
               9.92927738                0.64802407               15.69346377                1.00000000                0.63467941                0.60990720               -2.02697784                0.02187679                0.51956637                0.59787867
              10.93621948                0.56057777               15.59188035                1.00000000                0.69420992                0.77081465               -2.56109818               -0.05158176                0.18142299               -0.71589677
               1.01697095                2.39005363               16.30042288                1.00000000               -0.42838937               -0.52100932                1.70461368               -0.04451356                0.15840453                1.43381141
               2.01268706                2.29886085               16.18871501                0.77973720               -0.34853832               -0.34449067                1.16179252               -0.00949070                0.27220135               -0.32832270
               3.01000019                2.20699688               16.07923060                0.09931713               -0.23777780               -0.17969930                0.64392239                0.16241057                1.63739321               -2.08220353
               4.00793150                2.11757729               15.99477167                0.00010000               -0.22314363                0.12365969                0.21560484                1.15863223                6.65962924               -1.24337291
               5.00553732                2.04297308               15.98568727                0.00010000               -0.19563762                0.39444705                0.02624821                2.08296031                9.95748473                0.60467900
               6.00401875                1.96847888               15.96784349                0.00010000               -0.00008322                0.16940314               -0.24174522                2.22438552                9.37721705                0.95615513
               7.00553565                1.89540081               15.94756163                0.00010000                0.20641759               -0.06778407               -0.51899574                2.12241565                9.04480913                1.30501767
               8.00814710                1.82365224               15.92378632                0.08895284                0.31882841                0.13461913               -0.79466239                1.27231500                5.97797557                2.87467112
               9.01191222                1.73991008               15.84297223                0.34706310                0.41102665                0.39880591               -1.20635745                0.27402533                2.32362778                3.16984419
              10.01636764                1.65367348               15.74604815                0.83737599                0.52279483                0.52720807               -1.71889426                0.03135097                0.88842057                1.17988054
              11.02236812                1.56786618               15.63636668                1.00000000                0.60004790                0.69001816               -2.29327442               -0.04630122                0.25608209               -0.64214761
               1.10681585                3.38512710               16.26913814                1.00000000               -0.35765801               -0.46062084                1.49875337               -0.04706902                0.04219525                1.32939702
               2.10323927                3.29575058               16.14721402                0.73033118               -0.27310751               -0.27337057                0.90745408               -0.01151554                0.11842950               -0.54744225
               3.10135370                3.20568020               16.02676445                0.07503736               -0.15900032               -0.08674485                0.32853285                0.32203566                3.93412787               -2.48759378
               4.10005926                3.12132117               15.98112472                0.00010000               -0.14080468                0.32283196                0.19897849                1.12909850                9.96427766                0.13641177
               5.09853761                3.04519049               15.98177167                0.00010000               -0.11114023                0.19127784                0.01267998                1.65284835               12.28715393                0.43647387
               6.09783646                2.96996984               15.98333989                0.00010000               -0.05153285                0.12165417               -0.14786506                1.77180393               12.18107090                1.29018033
               7.09750695                2.89601195               15.98264702                0.00010000                0.01824847                0.04448834               -0.32371054                1.72522475               11.74975628                2.27817566
               8.09820143                2.82291236               15.97626293                0.09342053                0.07391028               -0.01919918               -0.53056915                1.22311897                8.96083437                3.42166831
               9.09898515                2.74354881               15.92026342                0.34067188                0.18734359                0.28219560               -0.74401889                0.38074857                3.44183686                3.74262719
              10.10194830                2.65856824               15.80358791                0.79569497                0.39614466                0.43895710               -1.36243160                0.01089968                0.23309435                1.29796501
              11.10690805                2.57437814               15.68315852                1.00000000                0.49597479                0.61317960               -2.00980667               -0.04877318                0.04993332               -0.54523616
               1.19478261                4.38084122               16.23654491                1.00000000               -0.28789554               -0.39406023                1.28343929               -0.04593527                0.02102900                1.24628963
               2.19190365                4.29339344               16.10536477                0.70544357               -0.19561469               -0.19817917                0.65320700               -0.00996165                0.06884432               -0.57067764
               3.19087031                4.20526199               15.97508906                0.06426288               -0.04502359               -0.00055098                0.02951979                0.38583449                6.00979956               -2.40604822
               4.19100318                4.12403393               15.96270127                0.00010000               -0.04623518                0.23376507                0.06857657                1.06253695               13.41463734               -0.28310939
               5.18994561                4.04679863               15.98141241                0.00010000               -0.11849012                0.15096634                0.00928032                1.37238487               15.02049204                0.58817350
               6.18863338                3.97091197               16.00217275                0.00010000               -0.14239873                0.07752635               -0.04686672                1.43656113               15.07428836                1.53126445
               7.18709763                3.89629058               16.02293623                0.00010000               -0.17803776                0.01256647               -0.11312401                1.43304420               14.99891881                2.68881710
               8.18507262                3.82326825               16.04298636                0.10322697               -0.16131617                0.01444805               -0.20459255                1.01594565               11.14059835                4.22644857
               9.18387131                3.74555400               15.98709765                0.35634948                0.03418402                0.12909222               -0.33554748                0.34131049                3.70618136                2.89781302
              10.18575630                3.66245262               15.85856674                0.81930093                0.29507703                0.33211477               -1.02123529                0.00657540                0.04294594                1.03341224
              11.18977285                3.58012977               15.72921908                1.00000000                0.40165495                0.53435016               -1.71948279               -0.04704630                0.00593165               -0.66259318
               1.28079269                5.37724589               16.20356298                1.00000000               -0.21734255               -0.32467297                1.06569183               -0.04555438                0.02064379                1.21499873
               2.27861927                5.29178700               16.06334999                0.68109509               -0.11813959               -0.12246725                0.39631011               -0.00783398                0.07571312               -0.58668382
               3.27842990                5.20566918               15.92418531                0.05381718                0.05770425                0.08263356               -0.26693434                0.36568578                7.95002717               -2.36456347
               4.27977335                5.12599647               15.94143942                0.00010000                0.03386833                0.19348020               -0.08577070                0.89988812               16.82989832               -0.48483155
               5.27910727                5.04820982               15.98109020                0.00010000               -0.13488060                0.13758343               -0.01090521                1.07780061               17.99627125                0.54049132
               6.27707574                4.97152037               16.02303755                0.00010000               -0.26478623                0.05242198                0.06077373                1.12508058               18.14179543                1.62770620
               7.27381154                4.89626327               16.06685429                0.00010000               -0.39094102               -0.02639515                0.12060734                1.12970329               18.26883970                2.88173860
               8.26925692                4.82320132               16.11235784                0.11297271               -0.35922725               -0.06547261                0.15558631                0.78488839               12.82711189                4.34238155
               9.26662700                4.74613065               16.04802010                0.37208138               -0.08764446               -0.00694131                0.04823402                0.25973435                3.68262696                2.46483684
              10.26750403                4.66521053               15.91086215                0.84432184                0.19929097                0.22146765               -0.68831522                0.00568668                0.02664630                0.80998252
              11.27061282                4.58506514               15.77326230                1.00000000                0.31087866                0.45058418               -1.43333554               -0.04534623                0.00821689               -0.82502372
               1.36478931                6.37434776               16.17031946                1.00000000               -0.14656214               -0.25531593                0.84658099               -0.04471493                0.02361064                1.18843702
               2.36332369                6.29094410               16.02112691                0.65628736               -0.04073772               -0.04570111                0.13830613               -0.00513800                0.09260532               -0.60820780
               3.36397455                6.20691466               15.87326101                0.04325775                0.15683061                0.16773997               -0.56384851                0.29797093                9.85981884               -2.37140438
               4.36646030                6.12790353               15.91939857                0.00010000                0.10015835                0.20633021               -0.25753637                0.69533759               20.21372519               -0.60510104
               5.36597772                6.04955030               15.98016815                0.00010000               -0.16893839                0.14209350               -0.03834533                0.78212391               21.02533646                0.44738935
               6.36308153                5.97196040               16.04425397                0.00010000               -0.39834837                0.04053005                0.17200860                0.79848956               21.27426337                1.57794561
               7.35801075                5.89576267               16.11161536                0.00010000               -0.60892597               -0.07799154                0.37209955                0.80035511               21.53333491                2.85486941
               8.35090301                5.82195880               16.18222396                0.12254778               -0.54769852               -0.19322884                0.55322725                0.51844933               14.33463327                4.31810481
               9.34705678                5.74541517               16.10659046                0.38730466               -0.19837322               -0.13196162                0.42051211                0.16326878                3.52730205                2.26972355
              10.34693555                5.66688197               15.96138203                0.86832553                0.10499633                0.11477458               -0.36233487                0.00401397                0.03006629                0.66839068
              11.34915671                5.58914146               15.81570352                1.00000000                0.22211622                0.36423210               -1.15173815               -0.04443341                0.01013566               -0.93440750
               1.44670572                7.37213957               16.13678545                1.00000000               -0.07561065               -0.18749458                0.62728388               -0.04359227                0.02559551                1.15663618
               2.44594961                7.29087298               15.97862493                0.63102523                0.03620843                0.03192971               -0.11947466               -0.00175760                0.11164596               -0.63440759
               3.44742988                7.20902398               15.82213277                0.03262187                0.25474247                0.25588191               -0.85990471                0.19828634               11.70638458               -2.38577656
               4.45104446                7.13012308               15.89585513                0.00010000                0.16314959                0.24221154               -0.43462666                0.45843512               23.55130743               -0.74688554
               5.45069288                7.05105169               15.97810441                0.00010000               -0.21056472                0.16271599               -0.06904536                0.49106238               24.07554902                0.31973530
               6.44683316                6.97233097               16.06439090                0.00010000               -0.54363137                0.04679261                0.28381748                0.46648283               24.41612363                1.39544685
               7.43982025                6.89470344               16.15549223                0.00010000               -0.84298769               -0.12042202                0.63335928                0.42022037               24.82814946                2.64459799
               8.42997341                6.81933674               16.25180751                0.13199297               -0.74255224               -0.32494445                0.97957760                0.21286371               15.80784834                4.19581907
               9.42496920                6.74349142               16.16391851                0.40205859               -0.30576926               -0.24955396                0.78385415                0.06543958                3.31724667                2.15881001
              10.42385802                6.66750602               16.01083228                0.89132651                0.01179907                0.01168672               -0.04236729                0.00152701                0.03400356                0.59362246
              11.42520518                6.59234978               15.85721873                1.00000000                0.13471603                0.27827438               -0.87474176               -0.04417306                0.01112324               -0.97965288
               1.52645066                8.37059787               16.10288442                1.00000000               -0.00465271               -0.12293725                0.40858863               -0.04219450                0.03203788                1.12317797
               2.52640413                8.29158269               15.93582028                0.60552696                0.11197602                0.11122254               -0.37583826                0.00147606                0.13844163               -0.67292881
               3.52869018                8.21203229               15.77083272                0.02203823                0.35985780                0.34667791               -1.15283202                0.06608172               13.49042897               -2.33108036
               4.53360129                8.13274776               15.87079483                0.00010000                0.24504458                0.26471063               -0.60370124                0.19740273               26.82389972               -0.77482897
               5.53359107                8.05280462               15.97441697                0.00010000               -0.24209285                0.17147551               -0.10000839                0.24479891               27.08519725                0.19215009
               6.52875943                7.97289626               16.08194334                0.00010000               -0.70908397                0.09096541                0.38886055                0.18362674               27.49837971                1.06695159
               7.51940939                7.89335423               16.19633950                0.00010000               -1.11935605               -0.09351888                0.88811384                0.01333691               28.17107678                2.14011315
               8.50637231                7.81545991               16.31975880                0.14145484               -0.96065504               -0.42256533                1.41325370               -0.15337822               17.38409104                3.79425507
               9.50019629                7.74042409               16.22051857                0.41660137               -0.41322926               -0.35957757                1.13913678               -0.03800849                3.15355449                2.01938957
              10.49810773                7.66711571               16.05983537                0.91371719               -0.08052803               -0.08874852                0.27299922               -0.00286994                0.04750594                0.58846142
              11.49858573                7.59470694               15.89845454                1.00000000                0.04780055                0.19443101               -0.60132746               -0.04441777                0.01601809               -0.97591882
               1.60389217                9.36968083               16.06865388                1.00000000                0.06525270               -0.06249705                0.19207994               -0.04085511                0.01770050                0.93569345
               2.60454470                9.29309743               15.89249193                0.58020259                0.18471356                0.19215167               -0.63114893                0.00299894                0.23966883               -0.62372327
               3.60758644                9.21595753               15.72071956                0.01172128                0.48377418                0.43220505               -1.43436926               -0.12044968               15.32214285               -1.77760343
               4.61422018                9.13541729               15.84619122                0.00010000                0.39269582                0.19913713               -0.75256500               -0.01135232               29.97974319               -0.49968917
               5.61544036                9.05448120               15.96920179                0.00010000               -0.21320471                0.16539821               -0.12904454                0.09027898               29.89218523                0.09444039
               6.60995609                8.97415028               16.09509753                0.00010000               -0.89585156                0.13850421                0.47615321                0.03566171               30.35350896                0.59048038
               7.59752333                8.89283307               16.23011411                0.00010000               -1.50600517                0.07068053                1.10681640               -0.23507264               31.45959353                1.21601254
               8.57983599                8.81088543               16.38162434                0.15117167               -1.24850453               -0.39683671                1.81441289               -0.43372757               19.21094894                2.48055012
               9.57255324                8.73629987               16.27525808                0.43139055               -0.51591069               -0.44982731                1.47952241               -0.15483306                3.29970359                1.43329616
              10.56951777                8.66573105               16.10916439                0.93624125               -0.17094407               -0.18619953                0.58749719               -0.00974513                0.14904758                0.54473921
              11.56913436                8.59623840               15.93979621                1.00000000               -0.03834149                0.11224701               -0.33027948               -0.04609803               -0.01133509               -0.80880899
               1.67880036               10.36934792               16.03096425                1.00000000                0.13870430               -0.03329046               -0.03142889                0.09859907                0.49468156                0.76524674
               2.68018741               10.29542572               15.85061948                0.78218186                0.25804807                0.23282984               -0.87519628                0.13069422                1.00475483               -0.54856006
               3.68396133               10.22067640               15.68043085                0.50267736                0.73315857                0.47188616               -1.66646422               -0.29727280               17.29583416               -1.28453567
               4.69485058               10.13673051               15.82590322                0.43942597                0.63511674                0.13132189               -0.86660698               -0.16515098               32.63052609               -0.25657816
               5.69666366               10.05611259               15.96266639                0.43265732               -0.18648899                0.16313886               -0.15603298                0.06912162               32.26405143                0.07364006
               6.69112080                9.97566634               16.10215929                0.45305631               -0.93454366                0.15160611                0.53629772                0.04923363               32.78485681                0.35019885
               7.67797279                9.89476784               16.25182074                0.49832765               -1.84449201                0.19347757                1.25941627               -0.36221236               34.18417551                0.70748778
               8.65423096                9.80752318               16.42323028                0.57886537               -1.78593875               -0.33622539                2.08539826               -0.72751769               21.23408235                1.52316675
               9.64225401                9.73142754               16.32028837                0.72058996               -0.81283341               -0.48723236                1.76486490               -0.23649581                4.39409693                0.94419278
              10.63797429                9.66339172               16.15728220                0.97538449               -0.28024697               -0.23393350                0.89330991                0.12186873                0.88092983                0.48463614
              11.63664907                9.59695188               15.98418448                1.00000000               -0.13252174                0.07134824               -0.04368402                0.10748816                0.37949551               -0.64924442
               0.92961902                0.44809621               17.38784221                1.00000000               -0.54679918               -0.60906452                2.11461601               -0.12248139               -0.92444122                0.97649673
               1.92415103                0.34434552               17.27862185                1.00000000               -0.45489540               -0.44758546                1.60350756               -0.08157193               -0.94054419               -0.03673327
               2.92052111                0.24032752               17.16908481                0.70157707               -0.18544002               -0.30658218                1.08931607                0.04822498               -0.63317130               -0.88221685
               3.92044222                0.13896819               17.06612765                0.52096794                0.21175779               -0.17171740                0.58655221                0.21507028                1.14456284               -0.09640001
               4.92475626                0.04578407               16.99278523                0.44835944                0.44561805               -0.05799958                0.11773360                0.19458894                4.03155725               -0.08813670
               5.92935459               -0.03778122               16.94909297                0.45279913                0.25588268                0.06914492               -0.34186023                0.08036333                5.35732746                0.00198829
               6.92987392               -0.12000028               16.90355042                0.52752393                0.00952080                0.21292873               -0.79540193                0.13987002                3.85474692                0.07597757
               7.92954500               -0.20913932               16.82957020                0.68179293                0.11003305                0.35780557               -1.27484762                0.14446340                1.29046691                0.12511419
               8.93207458               -0.30492678               16.73180936                0.94206247                0.41098397                0.50896447               -1.79254155                0.04007341               -0.35705142                0.42861570
               9.93776468               -0.40322723               16.62422950                1.00000000                0.66746772                0.66158407               -2.33829383               -0.06992671               -0.77512939                0.28112182
              10.94542393               -0.50142654               16.51784547                1.00000000                0.76592528                0.82134364               -2.86043177               -0.13043915               -0.70652766               -0.71956694
               1.03214489                1.44200557               17.34988875                1.00000000               -0.49252398               -0.57837023                1.89874529               -0.04361079               -0.05348964                1.25216586
               2.02721965                1.33986967               17.23995022                0.99566581               -0.42264351               -0.41179822                1.38113984               -0.00689515                0.01784080               -0.08627852
               3.02369202                1.23726170               17.13140195                0.25717217               -0.36775016               -0.26489256                0.87558496                0.14817231                1.25153011               -1.28477689
               4.01986465                1.13725102               17.04612426                0.00010000               -0.43075797               -0.14628708                0.45597697                0.57873821                3.57423470               -1.55199222
               5.01507686                1.04520408               16.98373330                0.00010000               -0.34071266                0.21689258                0.04073915                1.11546287                6.33232746                0.48680482
               6.01305040                0.96291023               16.95292389                0.00010000                0.09374030                0.11422056               -0.34445157                1.36567950                7.81148850                0.45010433
               7.01695167                0.88212901               16.92004346                0.00415568                0.52012437                0.01494203               -0.71862504                1.13013927                6.16786599                0.37744335
               8.02345288                0.79443873               16.85741451                0.22772135                0.62837981                0.34621159               -1.12487871                0.58453979                3.51793288                1.65692911
               9.02951927                0.70016287               16.77260567                0.62282634                0.59312065                0.47178065               -1.56952921                0.19366824                1.65250078                1.30489095
              10.03531530                0.60338861               16.67307591                1.00000000                0.63997959                0.61521668               -2.05063891                0.01982469                0.55112833                0.62928334
              11.04231886                0.50678689               16.56615520                1.00000000                0.70035605                0.78100135               -2.58404439               -0.05169579                0.18771319               -0.76798823
               1.13301860                2.43652881               17.31743361                1.00000000               -0.42616062               -0.51906579                1.69920409               -0.04345037                0.16630828                1.48319472
               2.12875699                2.33610956               17.20027595                0.76752485               -0.34576986               -0.34230987                1.15120172               -0.00787148                0.29217914               -0.35339764
               3.12610320                2.23502967               17.08560645                0.09712550               -0.23411930               -0.17497851                0.63066988                0.14676592                1.71904917               -2.17681390
               4.12407461                2.13604245               16.99695637                0.00010000               -0.23484425                0.10388632                0.22359464                1.02046888                6.90707744               -1.23540203
               5.12140632                2.05012192               16.98596614                0.00010000               -0.21656799                0.33856941                0.02895136                1.83633979               10.29124823                0.65595182
               6.11974325                1.96450319               16.96539895                0.00010000               -0.02290593                0.13690134               -0.24799244                1.97162572                9.67761855                1.04677824
               7.12094820                1.88029856               16.94229611                0.00010000                0.17293446               -0.07164765               -0.53504914                1.90129289                9.35014905                1.41811951
               8.12320194                1.79778491               16.91569940                0.08749597                0.30249323                0.11636571               -0.82302728                1.14815660                6.22931249                3.01237165
               9.12699806                1.70450884               16.83079413                0.34225030                0.41676061                0.38324380               -1.22947127                0.23762082                2.46025376                3.36381379
              10.13153715                1.60907711               16.72875309                0.82225718                0.52976967                0.52776619               -1.74025561                0.02254390                0.94264646                1.24707395
              11.13759346                1.51419348               16.61332434                1.00000000                0.60563078                0.70549233               -2.31528232               -0.04994459                0.27889315               -0.69006527
               1.23211438                3.43162425               17.28408312                1.00000000               -0.35530199               -0.45878065                1.49131796               -0.04495111                0.04236531                1.37031599
               2.22856136                3.33302347               17.15624908                0.71899527               -0.27099692               -0.27119672                0.90015496               -0.00761467                0.12462360               -0.58750166
               3.22669445                3.23376213               17.03001694                0.07332890               -0.16897978               -0.08316329                0.32281744                0.28262003                4.17647596               -2.61783166
               4.22518177                3.13932875               16.98318087                0.00010000               -0.16757607                0.27900152                0.21171083                0.96561755               10.40554708                0.18401354
               5.22334292                3.05197547               16.98191838                0.00010000               -0.14377461                0.15768212                0.01577965                1.42873171               12.71776077                0.48486884
               6.22230628                2.96564825               16.98184448                0.00010000               -0.08235584                0.08932362               -0.15267873                1.54509983               12.62871391                1.37758147
               7.22169581                2.88069605               16.97934835                0.00010000               -0.00502683                0.01700589               -0.33769361                1.51128398               12.18546419                2.40163563
               8.22220574                2.79676605               16.97084633                0.09183736                0.06418383               -0.05466222               -0.55469308                1.08880289                9.39330242                3.56793777
               9.22297948                2.70782774               16.91276334                0.33601477                0.19378932                0.25132032               -0.75625704                0.34055582                3.67711165                3.96570999
              10.22608153                2.61394394               16.78988028                0.78180030                0.40538622                0.43568672               -1.37912429                0.00768689                0.24999357                1.37933028
              11.23108721                2.52089674               16.66295348                1.00000000                0.50056820                0.63307413               -2.03106603               -0.05055617                0.05245545               -0.58015774
               1.32932114                4.42735319               17.24933609                1.00000000               -0.28543134               -0.39283151                1.27572807               -0.04477183                0.02119312                1.28106637
               2.32646682                4.33068562               17.11185949                0.69425581               -0.19354062               -0.19593431                0.64574280               -0.00710394                0.07231684               -0.61337414
               3.32545033                4.23336640               16.97535887                0.06261915               -0.06466034                0.00246944                0.02359295                0.32360220                6.35118487               -2.52911263
               4.32517362                4.14162248               16.96342554                0.00010000               -0.08944402                0.20144399                0.07533209                0.88671720               14.04395826               -0.31313764
               5.32366145                4.05327557               16.98152339                0.00010000               -0.16244808                0.12460882                0.01133581                1.15241342               15.60997451                0.62730340
               6.32192466                3.96628966               17.00168860                0.00010000               -0.18026801                0.04978447               -0.05196886                1.20967350               15.67259985                1.61954093
               7.32005608                3.88063868               17.02174762                0.00010000               -0.20391762               -0.02108733               -0.12697077                1.20741773               15.59282169                2.82542830
               8.31784630                3.79669166               17.04083635                0.10136368               -0.17123984               -0.02950876               -0.22817577                0.86611043               11.72264739                4.41246500
               9.31663129                3.70953524               16.98370225                0.35112458                0.03877928                0.10296282               -0.34351176                0.30213574                4.00034493                3.07289768
              10.31862189                3.61779084               16.84828203                0.80437675                0.30227188                0.32934459               -1.03542198                0.00576237                0.05030607                1.09949615
              11.32267673                3.52685497               16.71191752                1.00000000                0.40548362                0.55396230               -1.74027352               -0.04685409                0.00695027               -0.69512116
               1.42455409                5.42376762               17.21417500                1.00000000               -0.21480103               -0.32374277                1.05752077               -0.04473208                0.02036750                1.24756463
               2.42240608                5.32910478               17.06727674                0.67017882               -0.11622299               -0.11977620                0.38883905               -0.00553121                0.07853752               -0.63138561
               3.42222963                5.23381151               16.92149323                0.05228305                0.03004334                0.08677089               -0.27267003                0.28883211                8.38017162               -2.48664527
               4.42300695                5.14335763               16.94059774                0.00010000               -0.02528068                0.17855673               -0.08405128                0.71086361               17.63725800               -0.53777310
               5.42172402                5.05446764               16.98099028                0.00010000               -0.19351546                0.12264937               -0.01119533                0.85449574               18.75937411                0.56295657
               6.41913664                4.96664394               17.02362607                0.00010000               -0.31409283                0.03172040                0.05435235                0.88616545               18.91074740                1.71566821
               7.41544216                4.88027431               17.06799698                0.00010000               -0.42526265               -0.05722864                0.10500541                0.88305121               19.03437260                3.03224534
               8.41063138                4.79617587               17.11379291                0.11090526               -0.37595685               -0.10712848                0.12827822                0.62221091               13.53373373                4.55561469
               9.40792302                4.70988700               17.04847703                0.36642919               -0.08771675               -0.02688154                0.04329789                0.22091340                4.01209333                2.61640458
              10.40887705                4.62053083               16.90391394                0.82854488                0.20494253                0.22034350               -0.70082732                0.00473012                0.03149452                0.86587788
              11.41202187                4.53197599               16.75881891                1.00000000                0.31448241                0.46821749               -1.45446131               -0.04513967                0.00848346               -0.86172970
               1.51775217                6.42087834               17.17873912                1.00000000               -0.14398631               -0.25440077                0.83811320               -0.04417262                0.02291924                1.22010462
               2.51631231                6.32829010               17.02247467                0.64584729               -0.03890222               -0.04282433                0.13086766               -0.00329058                0.09507760               -0.65328808
               3.51697413                6.23510182               16.86760335                0.04192069                0.12112280                0.17230129               -0.56918429                0.21406177               10.37102158               -2.49291799
               4.51873476                6.14519362               16.91683010                0.00010000                0.02454598                0.20719800               -0.25819583                0.49932849               21.19617028               -0.66980198
               5.51746504                6.05572855               16.97978825                0.00010000               -0.24467306                0.14265516               -0.04031508                0.55299775               21.97220998                0.46132130
               6.51384130                5.96692407               17.04594999                0.00010000               -0.46399319                0.03164987                0.16405084                0.54439866               22.22619810                1.66296991
               7.50818518                5.87949410               17.11526340                0.00010000               -0.65817361               -0.10072791                0.35403964                0.53125795               22.48666143                3.01303428
               8.50067783                5.79454909               17.18761197                0.12037677               -0.57452915               -0.22712328                0.52080233                0.34250969               15.14989284                4.55764049
               9.49669460                5.70899761               17.11078722                0.38143230               -0.20251618               -0.14748830                0.41884383                0.12569014                3.86791906                2.40755644
              10.49662751                5.62219771               16.95770212                0.85207023                0.10945092                0.11466710               -0.37316449                0.00273453                0.03365352                0.71597144
              11.49888362                5.53621932               16.80407426                1.00000000                0.22561111                0.37987446               -1.17313238               -0.04435640                0.00997686               -0.97585701
               1.60884712                7.41867960               17.14301139                1.00000000               -0.07303280               -0.18640574                0.61862831               -0.04329810                0.02460816                1.18839842
               2.60811679                7.32824830               16.97739577                0.62125530                0.03801153                0.03485338               -0.12688469               -0.00032665                0.11401914               -0.67854610
               3.60960735                7.23725754               16.81351764                0.03155819                0.21249959                0.26035253               -0.86485941                0.11522628               12.29614745               -2.50486429
               4.61236678                7.14750159               16.89151687                0.00010000                0.07230872                0.25909514               -0.43563173                0.26889869               24.70710955               -0.81034360
               5.61105352                7.05732075               16.97741644                0.00010000               -0.30538595                0.18151198               -0.07177741                0.26354536               25.20927486                0.32914434
               6.60625906                6.96727694               17.06720257                0.00010000               -0.63056139                0.05505267                0.27480992                0.20330418               25.55791103                1.47269881
               7.59844229                6.87825975               17.16174637                0.00010000               -0.91404948               -0.13009737                0.61342234                0.13302456               25.98346333                2.79907632
               8.58797807                6.79163340               17.26144287                0.12980931               -0.78270421               -0.34826800                0.94330852                0.02420484               16.72128887                4.44894033
               9.58278821                6.70693723               17.17176965                0.39615818               -0.31340184               -0.26166197                0.78602691                0.02804343                3.65007876                2.28608188
              10.58171003                6.62282417               17.01036378                0.87495035                0.01516615                0.01202863               -0.05109230               -0.00011271                0.03725921                0.63466978
              11.58309153                6.53957348               16.84836089                1.00000000                0.13814975                0.29157152               -0.89595859               -0.04419951                0.01082039               -1.02560095
               1.69774882                8.41715022               17.10692298                1.00000000               -0.00209848               -0.12143114                0.39980366               -0.04212849                0.03115808                1.15619391
               2.69772784                8.32898717               16.93202782                0.59655186                0.11382692                0.11407500               -0.38331970                0.00250418                0.14159568               -0.71565631
               3.70002536                8.24030887               16.75929052                0.02129863                0.31608464                0.35054559               -1.15758960               -0.00780476               14.16180275               -2.44235432
               4.70404953                8.15037552               16.86476853                0.00010000                0.14676188                0.29501734               -0.60461780                0.03379673               28.15194024               -0.82470738
               5.70296060                8.05935879               16.97342055                0.00010000               -0.35405746                0.20691727               -0.10298049                0.04222857               28.39987168                0.19927341
               6.69696838                7.96802512               17.08580549                0.00010000               -0.82356960                0.12301442                0.37936185               -0.06242605               28.82904355                1.12718270
               7.68648921                7.87689216               17.20513998                0.00010000               -1.22419708               -0.07876490                0.86738985               -0.27510584               29.53697192                2.26867249
               8.67248444                7.78758373               17.33372732                0.13931684               -1.02122529               -0.42942098                1.37567583               -0.35738688               18.39449907                4.03269196
               9.66606470                7.70376437               17.23194625                0.41079534               -0.42477155               -0.36862498                1.14559090               -0.07848831                3.47153651                2.13423189
              10.66398901                7.62243828               17.06253448                0.89745934               -0.07818425               -0.08830229                0.26669379               -0.00487939                0.05220039                0.62603644
              11.66450102                7.54205075               16.89233483                1.00000000                0.05120067                0.20505591               -0.62200108               -0.04448975                0.01621405               -1.02540204
               1.78433066                9.41625098               17.07052757                1.00000000                0.06775664               -0.06045361                0.18328969               -0.04089994                0.01513365                0.96617287
               2.78500823                9.33052980               16.88614568                0.57203552                0.18661187                0.19486374               -0.63888802                0.00365338                0.24757964               -0.65993212
               3.78806290                9.24426845               16.70636216                0.01130763                0.44922814                0.43517792               -1.43930363               -0.17942294               16.08412533               -1.85761625
               4.79399279                9.15340193               16.83867680                0.00010000                0.30927970                0.22815101               -0.75365498               -0.11571052               31.47710157               -0.52407889
               5.79424849                9.06145909               16.96791641                0.00010000               -0.32578060                0.20768935               -0.13208550               -0.03979857               31.37458395                0.09846147
               6.78747718                8.96973723               17.09983306                0.00010000               -1.04334635                0.19264268                0.46637552               -0.12979092               31.85945161                0.62315782
               7.77338156                8.87668445               17.24110166                0.00010000               -1.67595290                0.13337317                1.08572668               -0.45404694               33.03327966                1.28982403
               8.75395812                8.78304499               17.39960992                0.14907201               -1.35088354               -0.36570227                1.77753659               -0.62078169               20.32926473                2.63741087
               9.74636389                8.69956473               17.29011214                0.42567623               -0.53160239               -0.45519953                1.49001982               -0.20417334                3.61819807                1.51237261
              10.74332607                8.62105812               17.11502183                0.92011797               -0.16935431               -0.18565598                0.58349132               -0.01208953                0.16156866                0.57700407
              11.74297681                8.54367459               16.93639055                1.00000000               -0.03492636                0.12043330               -0.35052648               -0.04615881               -0.01202453               -0.85229840
               1.86837319               10.41594115               17.03060518                1.00000000                0.14102421               -0.03098306               -0.03984281                0.09858246                0.50778936                0.79198460
               2.86978344               10.33288444               16.84183274                0.77832080                0.25957863                0.23546444               -0.88303674                0.13108481                1.04476110               -0.57859836
               3.87356477               10.24901243               16.66375211                0.50255989                0.73806230                0.47439755               -1.67152572               -0.34710809               18.15956828               -1.33862442
               4.88454468               10.15493854               16.81725225                0.44003129                0.61322834                0.15366075               -0.86710013               -0.21980298               34.28861592               -0.27391935
               5.88582933               10.06351258               16.96111372                0.43288466               -0.26987391                0.20534908               -0.15876913                0.00505594               33.89576058                0.07212985
               6.87914720                9.97187798               17.10749469                0.45290015               -1.08644112                0.21407473                0.52600529               -0.03064532               34.44240187                0.36476119
               7.86410051                9.87955962               17.26432847                0.49786039               -2.09793405                0.28751703                1.23701353               -0.50851966               35.92200767                0.74539073
               8.83718852                9.78026969               17.44391783                0.57781289               -2.00662079               -0.27752970                2.04691597               -0.92192155               22.47372378                1.62045527
               9.82396810                9.69466038               17.33800083                0.71773414               -0.87755817               -0.49043530                1.77619258               -0.31680609                4.77477986                0.99573276
              10.81963736                9.61872516               17.16620415                0.96732416               -0.28115967               -0.23329616                0.89037273                0.12108047                0.93774891                0.51252169
              11.81834490                9.54445941               16.98364562                1.00000000               -0.12924577                0.07848194               -0.06390967                0.11023448                0.40298506               -0.68531510
               1.03197315                0.49708796               18.40896482                1.00000000               -0.54729692               -0.60887588                2.11084987               -0.11966346               -0.96049485                1.01526975
               2.02650018                0.38373665               18.29464949                1.00000000               -0.45836853               -0.44759202                1.60209976               -0.07836767               -0.97935926               -0.04523913
               3.02280578                0.27008908               18.17997521                0.69928333               -0.20605186               -0.30320750                1.08880514                0.03423697               -0.66862929               -0.91760476
               4.02237914                0.15867598               18.07200813                0.52081908                0.15536365               -0.16965705                0.58987239                0.17613520                1.12736175               -0.09530423
               5.02591305                0.05433774               17.99396697                0.44854757                0.37463417               -0.04809981                0.11766079                0.15952958                4.02934157               -0.08942581
               6.02987183               -0.04156115               17.94563049                0.45265531                0.23113457                0.08390378               -0.35140017                0.06121803                5.36106234                0.00518816
               7.03053574               -0.13608641               17.89549750                0.52662709                0.04150158                0.22572226               -0.81551547                0.11214212                3.85444214                0.08215717
               8.03070186               -0.23644420               17.81669752                0.67941114                0.15178800                0.36735493               -1.29966745                0.11675007                1.26586179                0.13286353
               9.03357150               -0.34246940               17.71375673                0.93651001                0.43473104                0.51551351               -1.81780270                0.02675770               -0.41085628                0.44491911
              10.03939648               -0.45059505               17.60071659                1.00000000                0.67865713                0.66812022               -2.36414630               -0.06918165               -0.82970882                0.30332941
              11.04714465               -0.55856090               17.48912210                1.00000000                0.77481669                0.83000421               -2.88419391               -0.12953343               -0.74849389               -0.76976850
               1.14412783                1.49099921               18.36885655                1.00000000               -0.49118849               -0.57824036                1.89475490               -0.04188314               -0.05607646                1.29811941
               2.13921595                1.37926073               18.25374511                0.98202250               -0.42246739               -0.41213040                1.38267543               -0.00422883                0.02259309               -0.10099584
               3.13567848                1.26705700               18.14018884                0.25351336               -0.35998906               -0.26217329                0.88749371                0.13068236                1.30339932               -1.34404408
               4.13201617                1.15697941               18.05071869                0.00010000               -0.40257846               -0.14316701                0.46297762                0.50669777                3.67061777               -1.60235247
               5.12762691                1.05385674               17.98415533                0.00010000               -0.31600406                0.17846442                0.04382937                0.96525630                6.45209535                0.51567087
               6.12569608                0.95927789               17.94943045                0.00010000                0.07358872                0.10275048               -0.35441615                1.18416964                7.96117200                0.50145634
               7.12909869                0.86617081               17.91274192                0.00298110                0.46823843                0.02723616               -0.74164850                0.98269488                6.31491409                0.43791341
               8.13506085                0.76722935               17.84602486                0.22451598                0.59079082                0.34560255               -1.15287365                0.50241982                3.63285905                1.74080158
               9.14091451                0.66268573               17.75677090                0.61449307                0.58447803                0.47490451               -1.59731118                0.16744541                1.73074611                1.38120852
              10.14675041                0.55608615               17.65245099                1.00000000                0.64503289                0.62028193               -2.07429236                0.01736409                0.58459377                0.66263491
              11.15381516                0.44973914               17.54019946                1.00000000                0.70647498                0.79137451               -2.60716941               -0.05175975                0.19410145               -0.82187444
               1.25461244                2.48552316               18.33440696                1.00000000               -0.42546367               -0.51841372                1.69518260               -0.04274126                0.17030552                1.53062063
               2.25035781                2.37549404               18.21173905                0.75507619               -0.34558481               -0.34218631                1.14639643               -0.00477852                0.30990783               -0.38314775
               3.24770075                2.26484561               18.09184399                0.09481698               -0.23222217               -0.17429304                0.62582199                0.12957700                1.81230766               -2.28577154
               4.24571336                2.15581264               17.99924357                0.00010000               -0.23905215                0.07764302                0.23373195                0.86570084                7.15995898               -1.22724411
               5.24291970                2.05790703               17.98626630                0.00010000               -0.22361044                0.27369384                0.03045304                1.56417598               10.61556315                0.70615013
               6.24124115                1.96049386               17.96288364                0.00010000               -0.03407624                0.09769666               -0.25600562                1.69179832                9.96816313                1.14069628
               7.24223818                1.86445831               17.93686064                0.00010000                0.14970882               -0.07888301               -0.55290619                1.65448414                9.64532010                1.53803024
               8.24423533                1.77046785               17.90732578                0.08593281                0.29127152                0.09524077               -0.85182492                1.00810073                6.47924901                3.15481533
               9.24806361                1.66702869               17.81838280                0.33723696                0.42275129                0.36345758               -1.25285483                0.19608372                2.60231202                3.56734397
              10.25269035                1.56181059               17.71124304                0.80692426                0.53699328                0.52698755               -1.76183725                0.01227553                0.99932210                1.31748107
              11.25880347                1.45726659               17.59006103                1.00000000                0.61131187                0.72213322               -2.33747038               -0.05462081                0.30293880               -0.73976670
               1.36333124                3.48063093               18.29896450                1.00000000               -0.35333200               -0.45762467                1.48573710               -0.04403146                0.04379412                1.40820731
               2.35979792                3.37241700               18.16521712                0.70754777               -0.26899074               -0.26978711                0.89360153               -0.00451881                0.13309546               -0.62852757
               3.35795142                3.26357114               18.03322080                0.07155457               -0.17645761               -0.08210845                0.31712342                0.23712405                4.42866358               -2.74909806
               4.35626877                3.15853227               17.98535894                0.00010000               -0.18611040                0.22708337                0.22397452                0.78819678               10.85022005                0.22685222
               5.35422922                3.05933062               17.98208727                0.00010000               -0.16439988                0.11828882                0.01675556                1.18309417               13.13958149                0.53268598
               6.35298077                2.96123182               17.98028632                0.00010000               -0.10074192                0.05136694               -0.16053428                1.29412606               13.06882600                1.46696482
               7.35221438                2.86459315               17.97589314                0.00010000               -0.01641411               -0.01539006               -0.35502900                1.27352446               12.61371832                2.52866581
               8.35265249                2.76913416               17.96516907                0.09020012                0.06395315               -0.09484368               -0.58243414                0.93486708                9.83061058                3.71932920
               9.35349344                2.66995489               17.90513828                0.33126243                0.20527686                0.21347855               -0.76907224                0.29303319                3.92117072                4.19822905
              10.35675802                2.56662590               17.77600542                0.76788081                0.41586522                0.42991463               -1.39593055                0.00418606                0.26677549                1.46414472
              11.36181075                2.46418181               17.64253720                1.00000000                0.50527212                0.65476681               -2.05212317               -0.05253967                0.05476145               -0.61671563
               1.47015967                4.47637066               18.26205947                1.00000000               -0.28324547               -0.39183855                1.26935754               -0.04397029                0.02158494                1.31399413
               2.46732722                4.37009830               18.11827962                0.68305807               -0.19158558               -0.19364492                0.63840096               -0.00466751                0.07668426               -0.65771807
               3.46632796                4.26320344               17.97556092                0.06095013               -0.08046970                0.00603199                0.01630054                0.25084573                6.69963415               -2.65493080
               4.46571782                4.16035431               17.96420791                0.00010000               -0.12229608                0.16520919                0.07978058                0.69110294               14.67767506               -0.35031102
               5.46388204                4.06027281               17.98163913                0.00010000               -0.19283391                0.09367360                0.01002117                0.91020501               16.19454428                0.66505767
               6.46186114                3.96152120               18.00113337                0.00010000               -0.20378581                0.01702636               -0.06130365                0.95904600               16.26527859                1.70890835
               7.45980632                3.86415051               18.02039681                0.00010000               -0.21451053               -0.06003743               -0.14568243                0.95837770               16.18106168                2.96413786
               8.45757093                3.76857098               18.03842285                0.09948519               -0.16868944               -0.07980879               -0.25724817                0.69734076               12.31394106                4.60051925
               9.45643253                3.67129826               17.98022741                0.34588940                0.04881119                0.07094460               -0.35169151                0.25461489                4.30691564                3.25367977
              10.45854716                3.57040888               17.83785830                0.78959845                0.31041717                0.32410485               -1.04923922                0.00488398                0.05783112                1.16772869
              11.46264088                3.47036193               17.69441361                1.00000000                0.40937188                0.57459988               -1.76014193               -0.04660522                0.00798679               -0.72946146
               1.57499656                5.47279416               18.22471340                1.00000000               -0.21247765               -0.32286022                1.05065247               -0.04416005                0.02028255                1.27865936
               2.57287179                5.36854410               18.07112677                0.65929485               -0.11421170               -0.11694947                0.38097993               -0.00342934                0.08209915               -0.67711359
               3.57271233                5.26369178               17.91873191                0.05074226                0.00748387                0.09142203               -0.28054804                0.20019760                8.81453703               -2.60974027
               4.57302147                5.16183645               17.93975839                0.00010000               -0.07229514                0.16170316               -0.08550298                0.49966487               18.44818901               -0.59490959
               5.57126643                5.06120409               17.98086629                0.00010000               -0.23687396                0.10388812               -0.01597825                0.60779401               19.52028506                0.58441454
               6.56828399                4.96157235               18.02412459                0.00010000               -0.34671383                0.00610497                0.04250954                0.62287535               19.67550850                1.80453270
               7.56433215                4.86339240               18.06895439                0.00010000               -0.44162181               -0.09382690                0.08329924                0.61206623               19.79458640                3.18404879
               8.55945155                4.76753799               18.11492340                0.10883593               -0.37921584               -0.15546600                0.09441161                0.43937472               14.25411965                4.76875193
               9.55674783                4.67137378               18.04888606                0.36080135               -0.08297552               -0.05122936                0.03832628                0.17312511                4.35890390                2.77318844
              10.55779204                4.57310800               17.89684561                0.81298616                0.21123592                0.21713416               -0.71262433                0.00372214                0.03688452                0.92363433
              11.56097255                4.47567380               17.74417307                1.00000000                0.31805132                0.48602029               -1.47409689               -0.04486558                0.00886087               -0.90036473
               1.67777658                6.46991346               18.18708173                1.00000000               -0.14155770               -0.25352367                0.83092009               -0.04378696                0.02239657                1.25070271
               2.67636101                6.36775931               18.02374426                0.63542669               -0.03685108               -0.03975977                0.12270686               -0.00148110                0.09829069               -0.69918221
               3.67703956                6.26503189               17.86187732                0.04057106                0.09189032                0.17738681               -0.57725240                0.11742312               10.88491062               -2.61503606
               4.67819881                6.16358837               17.91423465                0.00010000               -0.03687677                0.20706601               -0.26303043                0.27925340               22.18126650               -0.73584578
               5.67630203                6.06235057               17.97936185                0.00010000               -0.30342353                0.13990890               -0.04785781                0.29905820               22.91802042                0.47541463
               6.67213034                5.96164330               18.04753499                0.00010000               -0.51100112                0.01785532                0.14951494                0.26504364               23.17467294                1.74935421
               7.66608200                5.86227397               18.11869616                0.00010000               -0.68766458               -0.12920083                0.32870292                0.23677165               23.43444280                3.17282042
               8.65837705                5.76546166               18.19264001                0.11818701               -0.58784905               -0.26688951                0.48082594                0.14620289               15.98391126                4.79747534
               9.65432502                5.67027367               18.11496734                0.37555931               -0.20277373               -0.16598778                0.41688649                0.07959694                4.23137562                2.55106203
              10.65432158                5.57475156               17.95391874                0.83600534                0.11434683                0.11295243               -0.38330355                0.00142921                0.03800602                0.76573948
              11.65661196                5.48008233               17.79224087                1.00000000                0.22903835                0.39516932               -1.19283340               -0.04418275                0.00996708               -1.01878272
               1.77842913                7.46772369               18.14915802                1.00000000               -0.07053864               -0.18539484                0.61121356               -0.04310035                0.02379297                1.21934371
               2.77772374                7.36774891               17.97608724                0.61144212                0.04013026                0.03801702               -0.13530226                0.00116633                0.11721369               -0.72344550
               3.77923173                7.26723952               17.80483558                0.03045414                0.17820555                0.26544010               -0.87303572                0.01874155               12.88812670               -2.62453822
               4.78128785                7.16597777               17.88714249                0.00010000               -0.00195326                0.27526591               -0.44184444                0.05370010               25.86499414               -0.87385021
               5.77919267                7.06400227               17.97666886                0.00010000               -0.38131975                0.19697771               -0.08113023                0.01005986               26.34222502                0.33944222
               6.77366146                6.96192945               18.06988710                0.00010000               -0.69717220                0.05830646                0.25811322               -0.08516778               26.69678612                1.55191724
               7.76524922                6.86080838               18.16776068                0.00010000               -0.96427758               -0.14507893                0.58502658               -0.17921284               27.13340029                2.95623206
               8.75437590                6.76220020               18.27067368                0.12756822               -0.80996786               -0.37574775                0.89827350               -0.18376921               17.65853905                4.70455902
               9.74904987                6.66805402               18.17963905                0.39017950               -0.31819690               -0.27537162                0.78730882               -0.01691559                4.01078195                2.41963033
              10.74801197                6.57536705               18.00981043                0.85863483                0.01887495                0.01134112               -0.05952044               -0.00176280                0.04138671                0.67839476
              11.74942736                6.48357719               17.83929956                1.00000000                0.14153979                0.30434558               -0.91564898               -0.04411798                0.01066224               -1.07244676
               1.87686413                8.46620556               18.11088049                1.00000000                0.00043664               -0.12008039                0.39220135               -0.04211640                0.03042519                1.18861242
               2.87686850                8.36851965               17.92815389                0.58743334                0.11606971                0.11724803               -0.39206426                0.00365436                0.14564279               -0.75924700
               3.87918553                8.27034069               17.74768093                0.02047792                0.28207830                0.35520516               -1.16602512               -0.09599277               14.83533434               -2.55450552
               4.88251007                8.16909369               17.85870247                0.00010000                0.06830090                0.32371099               -0.61157477               -0.15652237               29.48190058               -0.87480581
               5.88055154                8.06629012               17.97235736                0.00010000               -0.44445969                0.23774943               -0.11346437               -0.18505770               29.71401358                0.20721504
               6.87362087                7.96280942               18.08953058                0.00010000               -0.91622723                0.14973911                0.36120664               -0.33096560               30.15757798                1.18950362
               7.86222700                7.85937239               18.21368730                0.00010000               -1.30824222               -0.06836606                0.83715419               -0.58499393               30.89865919                2.40071534
               8.84745603                7.75794670               18.34727231                0.13706505               -1.07035704               -0.43785299                1.32811163               -0.57856271               19.43340537                4.27607580
               9.84081986                7.66476624               18.24343038                0.40479843               -0.43464370               -0.37806428                1.15037274               -0.12564455                3.82121085                2.25554827
              10.83876315                7.57497839               18.06516925                0.88106221               -0.07552709               -0.08827921                0.26007972               -0.00691171                0.05777359                0.66650959
              11.83930932                7.48616924               17.88601452                1.00000000                0.05461652                0.21522269               -0.64155489               -0.04446169                0.01651820               -1.07550138
               1.97295863                9.46532208               18.07231967                1.00000000                0.07030771               -0.05865820                0.17560202               -0.04097528                0.01252717                0.99639567
               2.97366170                9.37009387               17.87971417                0.56361087                0.18896062                0.19800037               -0.64811512                0.00443741                0.25635095               -0.69701788
               3.97673784                9.27434362               17.69193349                0.01077045                0.42731335                0.43916656               -1.44829253               -0.25471109               16.84836582               -1.93869854
               4.98220797                9.17245199               17.83111812                0.00010000                0.25189694                0.25037683               -0.76128428               -0.24175735               32.97646730               -0.54905111
               5.98177578                9.06875726               17.96656008                0.00010000               -0.41240476                0.24352195               -0.14329030               -0.18714397               32.85661635                0.10275437
               6.97395987                8.96492423               18.10442504                0.00010000               -1.16818549                0.24144392                0.44723460               -0.30914882               33.36374260                0.65713707
               7.95841207                8.85944106               18.25182864                0.00010000               -1.82745365                0.19248222                1.05439632               -0.68591485               34.60479041                1.36657504
               8.93741080                8.75344314               18.41717507                0.14680021               -1.44533887               -0.33151246                1.72995566               -0.81856411               21.48049320                2.79922561
               9.92950529                8.66049274               18.30505847                0.41965223               -0.54700351               -0.46007156                1.49806704               -0.25991215                3.97099244                1.59635392
              10.92647073                8.57360146               18.12083422                0.90363570               -0.16744353               -0.18504420                0.57857856               -0.01448832                0.17497383                0.61162205
              11.92615642                8.48788164               17.93278568                1.00000000               -0.03143122                0.12831011               -0.37008923               -0.04615616               -0.01272790               -0.89650731
               2.06650105               10.46503240               18.03016740                1.00000000                0.14346556               -0.02896803               -0.04732390                0.09896801                0.52065528                0.81873791
               3.06793570               10.37247966               17.83295874                0.77430091                0.26160664                0.23857879               -0.89255461                0.13198105                1.08567712               -0.60947415
               4.07173318               10.27912402               17.64700034                0.50237007                0.76627903                0.47803955               -1.68074300               -0.41938735               19.02614214               -1.39386627
               5.08326128               10.17410122               17.80856121                0.44060066                0.63016223                0.16492311               -0.87447333               -0.29284147               35.94877144               -0.29236503
               6.08433642               10.07116056               17.95949101                0.43310558               -0.32535969                0.24033033               -0.17008443               -0.06708126               35.52602488                0.07004069
               7.07675409                9.96763830               18.11267939                0.45273579               -1.21733128                0.27140685                0.50596042               -0.11750469               36.09687251                0.37932903
               8.05998980                9.86322204               18.27656101                0.49735431               -2.33605100                0.37809737                1.20407639               -0.65831925               37.65701934                0.78423061
               9.03003307                9.75131645               18.46416860                0.57665874               -2.22632546               -0.21266858                1.99768550               -1.12063446               23.74970339                1.72165742
              10.01546329                9.65556481               18.35581222                0.71469302               -0.94742948               -0.49279273                1.78480727               -0.40614740                5.19283430                1.05067179
              11.01108448                9.57127750               18.17508966                0.95902374               -0.28187264               -0.23239618                0.88622232                0.11990666                0.99674432                0.54214737
              12.00982584                9.48873544               17.98290629                1.00000000               -0.12586429                0.08538017               -0.08363825                0.11273606                0.42709425               -0.72226242
               1.13903977                0.54861815               19.43005921                1.00000000               -0.54863259               -0.60923357                2.10887450               -0.11621912               -0.99923827                1.05178322
               2.13355345                0.42524950               19.31066385                1.00000000               -0.46249469               -0.44893040                1.60248814               -0.07492272               -1.02115587               -0.05044474
               3.12978988                0.30154815               19.19086091                0.69682737               -0.22778733               -0.30361253                1.09091020                0.01922966               -0.70536002               -0.94306256
               4.12899770                0.17964099               19.07792510                0.52058925                0.09654293               -0.16724547                0.59360308                0.13481555                1.10863791               -0.09789069
               5.13172074                0.06361883               18.99513845                0.44871204                0.30237987               -0.04006681                0.11653620                0.12270886                4.02057268               -0.09081195
               6.13504530               -0.04527738               18.94206496                0.45250262                0.20874937                0.09635786               -0.36213313                0.04095366                5.35563530                0.00832594
               7.13589573               -0.15284598               18.88724011                0.52568776                0.07788533                0.23701138               -0.83606773                0.08301338                3.84638308                0.08869268
               8.13660301               -0.26513673               18.80357685                0.67690079                0.19713292                0.37632389               -1.32431047                0.08727149                1.23731528                0.14098729
               9.13983838               -0.38205673               18.69545330                0.93070697                0.46010645                0.52176918               -1.84257950                0.01233285               -0.46725454                0.46063120
              10.14580513               -0.50062943               18.57694657                1.00000000                0.69023276                0.67442947               -2.38960157               -0.06864883               -0.88586304                0.32764314
              11.15364304               -0.61897664               18.46016160                1.00000000                0.78379052                0.83871131               -2.90777802               -0.12863178               -0.79080182               -0.82151963
               1.26124623                1.54252581               19.38778385                1.00000000               -0.49070156               -0.57924422                1.89226291               -0.04052397               -0.05141707                1.34258807
               2.25633922                1.42076019               19.26760373                0.96794931               -0.42299024               -0.41374514                1.38773594               -0.00245588                0.03541325               -0.11857834
               3.25278643                1.29851203               19.14915183                0.24963155               -0.35143498               -0.26329389                0.90117604                0.11316512                1.35529004               -1.40854751
               4.24931052                1.17796854               19.05538382                0.00010000               -0.36897080               -0.13918336                0.47035074                0.42799578                3.75968447               -1.65653822
               5.24540701                1.06321816               18.98460988                0.00010000               -0.28116377                0.13470806                0.04629060                0.80372139                6.56130290                0.54121527
               6.24368724                0.95568620               18.94583557                0.00010000                0.06242618                0.08693111               -0.36491809                0.98864163                8.09531934                0.55326252
               7.24665554                0.84952413               18.90521049                0.00173610                0.41969241                0.03769641               -0.76459751                0.82285219                6.45153158                0.50207860
               8.25208109                0.73862651               18.83435704                0.22111877                0.55262630                0.34368704               -1.18042831                0.41492948                3.74485549                1.82592756
               9.25770806                0.62316097               18.74065944                0.60579173                0.57487564                0.47725290               -1.62475000                0.13885081                1.81088110                1.46029670
              10.26357860                0.50611486               18.63159006                1.00000000                0.64979351                0.62508605               -2.09775126                0.01448659                0.62002749                0.69795351
              11.27070393                0.38941047               18.51401181                1.00000000                0.71253289                0.80185255               -2.63037043               -0.05177903                0.20059397               -0.87717850
               1.38176053                2.53703326               19.35133726                1.00000000               -0.42424186               -0.51949612                1.69177898               -0.04392697                0.17756881                1.57743530
               2.37751811                2.41697459               19.22320388                0.74240950               -0.34578479               -0.34239250                1.14620135               -0.00616160                0.33138307               -0.42104202
               3.37484484                2.29628227               19.09812289                0.09239854               -0.23333160               -0.17243961                0.63007026                0.11111017                1.91203387               -2.41136869
               4.37285148                2.17685732               19.00163101                0.00010000               -0.23836666                0.04664548                0.24462501                0.70199524                7.41382811               -1.22195584
               5.37007750                2.06631299               18.98657520                0.00010000               -0.21696591                0.20190964                0.03028541                1.27020393               10.93108405                0.75325132
               6.36851216                1.95646124               18.96027884                0.00010000               -0.03325207                0.05258109               -0.26598849                1.38923141               10.24917723                1.23576581
               7.36941246                1.84790794               18.93123798                0.00010000                0.13762970               -0.08954639               -0.57249311                1.38538271                9.93127660                1.66255803
               8.37126476                1.74173701               18.89866291                0.08425976                0.28572904                0.07145264               -0.88074283                0.85360566                6.72842313                3.29983298
               9.37512704                1.62748833               18.80573703                0.33202792                0.42903009                0.33933738               -1.27624882                0.14968806                2.74980524                3.78000232
              10.37984536                1.51187229               18.69351634                0.79140614                0.54446001                0.52483543               -1.78353312                0.00057926                1.05839257                1.39120165
              11.38601624                1.39706041               18.56657493                1.00000000                0.61708837                0.73996906               -2.35982078               -0.06044091                0.32818087               -0.79061197
               1.50048503                3.53213589               19.31379786                1.00000000               -0.35180590               -0.45745412                1.48116316               -0.04475515                0.04450461                1.44511211
               2.49696697                3.41391234               19.17412111                0.69596363               -0.26795659               -0.26764907                0.88788745               -0.00458571                0.14169508               -0.67405527
               3.49512590                3.29506323               19.03635941                0.06970604               -0.18236333               -0.07628005                0.31090894                0.18294954                4.69087297               -2.88784649
               4.49331971                3.17890145               18.98766036                0.00010000               -0.19593640                0.16797418                0.23513152                0.59952755               11.29903129                0.26348533
               5.49120717                3.06725635               18.98225349                0.00010000               -0.17213941                0.07423515                0.01507744                0.91928716               13.55201773                0.57847448
               6.48987692                2.95673782               18.97863379                0.00010000               -0.10598740                0.00841536               -0.17167712                1.02186139               13.50152398                1.55668646
               7.48908742                2.84773320               18.97224777                0.00010000               -0.01520516               -0.05238804               -0.37569974                1.01465575               13.03451773                2.65734638
               8.48957282                2.74005556               18.95919765                0.08848897                0.07395587               -0.13946473               -0.61332558                0.76221391               10.27386825                3.87312970
               9.49056654                2.62994771               18.89738189                0.32638750                0.22226475                0.16863623               -0.78255391                0.23815613                4.17528614                4.43997706
              10.49401811                2.51661157               18.76196167                0.75390068                0.42761670                0.42164696               -1.41292210                0.00045492                0.28351189                1.55276399
              11.49911888                2.40420985               18.62191102                1.00000000                0.51007653                0.67847295               -2.07306567               -0.05469212                0.05684105               -0.65399422
               1.61731252                4.52788418               19.27472324                1.00000000               -0.28134696               -0.39086707                1.26369970               -0.04385845                0.02217374                1.34590534
               2.61449905                4.41162161               19.12462751                0.67180134               -0.18989002               -0.19072333                0.63119346               -0.00324657                0.08164067               -0.70356359
               3.61351472                4.29475667               18.97568488                0.05923819               -0.09250700                0.01185370                0.00796711                0.16790225                7.05460151               -2.78317231
               4.61264891                4.18021681               18.96502115                0.00010000               -0.14439254                0.12656226                0.08134808                0.47788303               15.31567794               -0.39612656
               5.61062687                4.06779769               18.98172381                0.00010000               -0.20881842                0.05884293                0.00488839                0.64845417               16.77416566                0.70009149
               6.60847255                3.95662955               19.00046253                0.00010000               -0.21195166               -0.02024242               -0.07520719                0.68721370               16.85207365                1.79785257
               7.60638784                3.84686018               19.01883397                0.00010000               -0.20890107               -0.10386317               -0.16938454                0.68829103               16.76314009                3.10324142
               8.60429452                3.73894771               19.03569139                0.09756198               -0.15268431               -0.13609053               -0.29164857                0.51050855               12.91626677                4.78881898
               9.60333415                3.63086106               18.97666842                0.34059874                0.06488971                0.03315645               -0.36051354                0.19849337                4.62815160                3.44019143
              10.60559232                3.52030523               18.82729724                0.77489083                0.31958437                0.31657492               -1.06302571                0.00392140                0.06554779                1.23852015
              11.60972584                3.41062987               18.67671468                1.00000000                0.41335221                0.59657858               -1.77941473               -0.04627191                0.00901358               -0.76472014
               1.73213300                5.52431855               19.23518805                1.00000000               -0.21034517               -0.32182034                1.04458370               -0.04394164                0.02028469                1.30912078
               2.73002955                5.41009788               19.07489634                0.64839737               -0.11221253               -0.11378120                0.37279434               -0.00173837                0.08623132               -0.72400664
               3.72988875                5.29530031               18.91588227                0.04917967               -0.00966004                0.09703789               -0.29011033                0.10010199                9.25297985               -2.73448465
               4.72983635                5.18143269               18.93888769                0.00010000               -0.10626177                0.14378962               -0.09046203                0.26797789               19.26244441               -0.65706442
               5.72776351                5.06843321               18.98067071                0.00010000               -0.26388216                0.08182929               -0.02566034                0.33992620               20.27870723                0.60357638
               6.72455870                4.95633297               19.02447626                0.00010000               -0.36142163               -0.02404502                0.02485220                0.33753160               20.43566123                1.89282718
               7.72053508                4.84565594               19.06966297                0.00010000               -0.43882959               -0.13579764                0.05515772                0.31909789               20.54879212                3.33560148
               8.71578211                4.73733375               19.11568114                0.10673459               -0.36780937               -0.20996982                0.05364863                0.23726263               14.99060703                4.98041540
               9.71317889                4.63061084               19.04924355                0.35514745               -0.07271931               -0.07975989                0.03275487                0.11592740                4.72591766                2.93496626
              10.71432773                4.52294307               18.88966146                0.79757098                0.21826329                0.21212213               -0.72419274                0.00261780                0.04280352                0.98340081
              11.71754416                4.41614143               18.72933697                1.00000000                0.32164333                0.50436508               -1.49270849               -0.04452213                0.00930847               -0.94034436
               1.84487503                6.52144777               19.19535752                1.00000000               -0.13925100               -0.25254153                0.82458716               -0.04360154                0.02200614                1.28079980
               2.84348252                6.40934599               19.02492881                0.62498923               -0.03465444               -0.03640573                0.11389682                0.00018062                0.10217956               -0.74594527
               3.84418195                6.29669743               18.85605830                0.03919362                0.06965214                0.18314302               -0.58756345                0.00862444               11.40140313               -2.73828404
               4.84487557                6.18309260               18.91156949                0.00010000               -0.08284155                0.20620343               -0.27215198                0.03669414               23.16869875               -0.80428414
               5.84252512                6.06943428               18.97883109                0.00010000               -0.34375574                0.13404312               -0.06127889                0.02229764               23.86236055                0.48842629
               6.83800045                5.95614865               19.04894029                0.00010000               -0.53780471               -0.00066379                0.12798814               -0.03728946               24.11909497                1.83567746
               7.83176902                5.84414423               19.12183746                0.00010000               -0.69577904               -0.16313458                0.29560708               -0.08058503               24.37584599                3.33270101
               8.82408487                5.73474832               19.19722849                0.11595810               -0.58628210               -0.31207359                0.43264743               -0.06950028               16.83928009                5.03619386
               9.82004338                5.62926586               19.11912495                0.36964768               -0.19853901               -0.18720245                0.41412789                0.02437786                4.62088405                2.69964619
              10.82011409                5.52454767               18.95003604                0.82006426                0.11976560                0.10992423               -0.39322793                0.00004211                0.04311632                0.81749096
              11.82243869                5.42071717               18.78021759                1.00000000                0.23245990                0.41047343               -1.21132030               -0.04393233                0.01007921               -1.06298501
               1.95546454                7.51926772               19.15523566                1.00000000               -0.06810378               -0.18434770                0.60467808               -0.04302070                0.02311824                1.24989512
               2.95478350                7.40936976               18.97468972                0.60156381                0.04250426                0.04146547               -0.14462636                0.00265913                0.12119264               -0.76916089
               3.95631462                7.29896317               18.79605693                0.02930694                0.15249399                0.27117077               -0.88392499               -0.09057422               13.48217608               -2.74527532
               4.95783338                7.18555676               18.88267998                0.00010000               -0.05806039                0.29055867               -0.45319536               -0.18567754               27.02458671               -0.93836909
               5.95515342                7.07111408               18.97579384                0.00010000               -0.43652084                0.20887953               -0.09729002               -0.26747055               27.47394999                0.34951769
               6.94910296                6.95631970               19.07236484                0.00010000               -0.74148523                0.05643008                0.23334702               -0.39656384               27.83196716                1.63181747
               7.94032371                6.84239325               19.17344690                0.00010000               -0.99162436               -0.16528658                0.54764174               -0.51378931               28.27688100                3.11463678
               8.92927048                6.73109228               19.27940834                0.12525734               -0.82283081               -0.40722307                0.84375176               -0.41009312               18.62225939                4.96110961
               9.92386710                6.62686679               19.18751583                0.38410704               -0.31966106               -0.29049713                0.78737371               -0.07010577                4.40281429                2.55858896
              10.92287726                6.52514156               19.00917337                0.84235574                0.02297100                0.00985072               -0.06797321               -0.00348220                0.04638111                0.72431127
              11.92432652                6.42435089               18.83004791                1.00000000                0.14492600                0.31687164               -0.93418803               -0.04395884                0.01062947               -1.12030974
               2.06381053                8.51776082               19.11476700                1.00000000                0.00297221               -0.11878641                0.38546094               -0.04216844                0.02981496                1.22075131
               3.06384025                8.41017530               18.92418653                0.57817224                0.11864645                0.12074129               -0.40193198                0.00489767                0.15055653               -0.80373883
               4.06618346                8.30212085               18.73597002                0.01958328                0.25854278                0.36059531               -1.17757742               -0.19799450               15.51081899               -2.66792140
               5.06901111                8.18890377               18.85253703                0.00010000                0.01146529                0.35027061               -0.62434562               -0.37234085               30.81332373               -0.92576628
               6.06641277                8.07361187               18.97115126                0.00010000               -0.51105525                0.26332289               -0.13153505               -0.43530185               31.02711634                0.21517248
               7.05879001                7.95727725               19.09302962                0.00010000               -0.98460565                0.17057291                0.33407431               -0.61964337               31.48302455                1.25293590
               8.04672065                7.84083850               19.22188307                0.00010000               -1.36902716               -0.06255029                0.79690245               -0.91348858               32.25472662                2.53508296
               9.03140946                7.72660386               19.36028955                0.13469923               -1.10643348               -0.44795327                1.26985244               -0.81574529               20.50348753                4.52305873
              10.02459198                7.62345592               19.25495371                0.39862360               -0.44245573               -0.38784081                1.15340316               -0.18008347                4.20623107                2.38236464
              11.02256035                7.52474469               19.06773608                0.86455274               -0.07255731               -0.08856998                0.25306889               -0.00901142                0.06421304                0.70928561
              12.02314084                7.42705460               18.87950373                1.00000000                0.05804912                0.22508928               -0.66017532               -0.04436756                0.01691907               -1.12648134
               2.16979221                9.51689199               19.07403961                1.00000000                0.07292125               -0.05701796                0.16872284               -0.04108618                0.00987420                1.02657300
               3.17052143                9.41178459               18.87318338                0.55496420                0.19170215                0.20152567               -0.65865376                0.00534365                0.26598228               -0.73499997
               4.17362626                9.30617508               18.67739631                0.01012823                0.41870570                0.44402824               -1.46070083               -0.34603686               17.61470240               -2.02105569
               5.17889554                9.19256217               18.82345111                0.00010000                0.22238223                0.26506432               -0.77512900               -0.38881064               34.47736514               -0.57488832
               6.17807390                9.07638053               18.96505060                0.00010000               -0.47060357                0.27198394               -0.16265052               -0.35060660               34.33769221                0.10693204
               7.16948347                8.95973116               19.10877775                0.00010000               -1.26732832                0.28392993                0.41846750               -0.50068231               34.86533591                0.69191678
               8.15272734                8.84114224               19.26218959                0.00010000               -1.95726581                0.24705010                1.01234314               -0.92834539               36.17254875                1.44556791
               9.13033815                8.72213321               19.43420903                0.14437542               -1.53013697               -0.29440345                1.67098872               -1.02551722               22.66715258                2.96517445
              10.12212460                8.61910998               19.32007348                0.41336442               -0.56199065               -0.46447973                1.50384979               -0.32256584                4.36165500                1.68447611
              11.11909834                8.52337016               19.12659340                0.88688626               -0.16526324               -0.18437248                0.57291706               -0.01697331                0.18925690                0.64812513
              12.11881933                8.42885268               18.92898877                1.00000000               -0.02790087                0.13591727               -0.38892444               -0.04611328               -0.01343664               -0.94160862
               2.27320361               10.51662046               19.02965871                1.00000000                0.14604276               -0.02715284               -0.05415755                0.09967488                0.53338510                0.84564698
               3.27466404               10.41420581               18.82398164                0.77015035                0.26407625                0.24212242               -0.90356547                0.13330892                1.12766658               -0.64119762
               4.27848514               10.31100141               18.63013725                0.50212078                0.81826995                0.48263364               -1.69347477               -0.51414950               19.89546666               -1.45033100
               5.29102944               10.19420506               18.79976278                0.44113846                0.68732574                0.16428876               -0.88837767               -0.38410330               37.61036732               -0.31188576
               6.29223165               10.07905155               18.95771203                0.43331886               -0.35073938                0.26710158               -0.18994580               -0.14668549               37.15425900                0.06732364
               7.28401465                9.96295585               19.11761390                0.45256606               -1.32399813                0.32246947                0.47591760               -0.21048424               37.74735352                0.39379378
               8.26575169                9.84577950               19.28841000                0.49681513               -2.55416357                0.46372596                1.16012517               -0.80956774               39.38788143                0.82380976
               9.23293138                9.72071579               19.48387154                0.57541899               -2.44239830               -0.14174246                1.93698716               -1.32133623               25.06435286                1.82619181
              10.21690372                9.61416632               19.37369698                0.71150000               -1.02266007               -0.49436556                1.79103055               -0.50501480                5.65153035                1.10845397
              11.21247818                9.52105724               19.18392860                0.95055263               -0.28250984               -0.23129191                0.88120522                0.11831520                1.05780155                0.57320280
              12.21125353                9.42977295               18.98197286                1.00000000               -0.12246520                0.09202696               -0.10265183                0.11499067                0.45181169               -0.76013437
               1.25077911                0.60267435               20.45114231                1.00000000               -0.55037478               -0.61014335                2.10881844               -0.11457430               -1.03774692                1.08788942
               2.24527536                0.46884799               20.32669925                1.00000000               -0.46708925               -0.44988566                1.60489471               -0.07333113               -1.06275993               -0.05567525
               3.24143733                0.33464599               20.20179341                0.69422917               -0.25005012               -0.30219136                1.09517765                0.00432397               -0.74356933               -0.96597774
               4.24027436                0.20180073               20.08388019                0.52028193                0.03736563               -0.16579979                0.59735861                0.09437564                1.08520606               -0.10074138
               5.24218464                0.07357863               19.99629769                0.44885470                0.23042531               -0.03343333                0.11507507                0.08482978                4.00446695               -0.09294718
               6.24488287               -0.04893584               19.93838783                0.45234227                0.18834406                0.10651016               -0.37355024                0.02030225                5.34126677                0.01136153
               7.24595152               -0.17025332               19.87877614                0.52470936                0.11760524                0.24678256               -0.85673474                0.05318265                3.83157456                0.09544798
               8.24723497               -0.29518484               19.79021131                0.67427596                0.24525824                0.38466810               -1.34855950                0.05661623                1.20575479                0.14939608
               9.25085669               -0.42366906               19.67690514                0.92468681                0.48679762                0.52769975               -1.86666442               -0.00297463               -0.52557825                0.47556802
              10.25697093               -0.55332917               19.55292456                1.00000000                0.70209401                0.68046181               -2.41444658               -0.06836607               -0.94317737                0.35410119
              11.26489857               -0.68269172               19.43096654                1.00000000                0.79276404                0.84739564               -2.93100824               -0.12775762               -0.83311368               -0.87451960
               1.38345973                1.59657292               20.40670180                1.00000000               -0.49034982               -0.58082510                1.89198914               -0.03980478               -0.04451509                1.38588585
               2.37855623                1.46434913               20.28149983                0.95349084               -0.42277672               -0.41460854                1.39069248               -0.00121818                0.05159180               -0.13836719
               3.37500420                1.33162408               20.15821236                0.24555267               -0.34022171               -0.26176680                0.90901520                0.09352796                1.40777696               -1.47350663
               4.37175180                1.20014273               20.06012571                0.00010000               -0.33014874               -0.13518776                0.47661701                0.34417347                3.84443297               -1.71118513
               5.36840122                1.07324430               19.98508114                0.00010000               -0.23749674                0.08749073                0.04691197                0.63477244                6.66020536                0.56334111
               6.36700186                0.95212926               19.94213209                0.00010000                0.06033126                0.06733927               -0.37641739                0.78246284                8.21536584                0.60482831
               7.36960785                0.83221451               19.89744997                0.00043161                0.37535718                0.04627532               -0.78753572                0.65303503                6.57872356                0.56883911
               8.37450901                0.70866184               19.82241630                0.21754084                0.51456278                0.34043688               -1.20743801                0.32315975                3.85439511                1.91191085
               9.37989910                0.58160794               19.72427590                0.59676325                0.56447947                0.47876735               -1.65166764                0.10815990                1.89306153                1.54189782
              10.38579860                0.45347545               19.61049596                1.00000000                0.65422223                0.62960912               -2.12085270                0.01118379                0.65748737                0.73522600
              11.39298355                0.32578223               19.48759206                1.00000000                0.71849506                0.81234312               -2.65351047               -0.05175466                0.20718548               -0.93353657
               1.51443059                2.59105785               20.36824254                1.00000000               -0.42307461               -0.52128643                1.68986352               -0.04444775                0.18488159                1.62284570
               2.51019984                2.46055582               20.23466307                0.72953253               -0.34581497               -0.34184359                1.14505740               -0.00665772                0.35412678               -0.46331584
               3.50751429                2.32941065               20.10444540                0.08988300               -0.23311146               -0.16859268                0.63302492                0.08832946                2.01647922               -2.54233610
               4.50553761                2.19909697               20.00413607                0.00010000               -0.23103648                0.01345507                0.25504825                0.52606522                7.66706902               -1.22018426
               5.50289356                2.07532845               19.98687201                0.00010000               -0.19878496                0.12535994                0.02805101                0.96044462               11.23653942                0.79694396
               6.50156191                1.95241095               19.95756387                0.00010000               -0.02069581                0.00262955               -0.27820079                1.06794273               10.52133269                1.33057870
               7.50247964                1.83067219               19.92541078                0.00010000                0.13714142               -0.10352092               -0.59381374                1.09729906               10.20927398                1.78979623
               8.50430474                1.71162390               19.88971092                0.08247534                0.28633159                0.04532168               -0.90967931                0.68604084                6.97774121                3.44553453
               9.50820627                1.58590629               19.79285783                0.32663086                0.43577829                0.31075511               -1.29949516                0.09875807                2.90269269                4.00123315
              10.51302031                1.45926302               19.67557238                0.77572871                0.55218190                0.52124160               -1.80524866               -0.01253056                1.11974748                1.46825534
              11.51924991                1.33355514               19.54286462                1.00000000                0.62296050                0.75899716               -2.38227127               -0.06752211                0.35455016               -0.84199763
               1.64357484                3.58614719               20.32858777                1.00000000               -0.35045656               -0.45796328                1.47724745               -0.04529161                0.04463147                1.48151490
               2.64007027                3.45751226               20.18297487                0.68423845               -0.26726039               -0.26520103                0.88294929               -0.00482035                0.14977731               -0.72284323
               3.63822963                3.32825222               20.03943898                0.06778390               -0.18574798               -0.06967575                0.30514707                0.12058157                4.96151207               -3.03277393
               4.63635531                3.20041183               19.99006157                0.00010000               -0.19667438                0.10537407                0.24332644                0.39770539               11.75131325                0.29246697
               5.63429614                3.07575150               19.98238881                0.00010000               -0.16691698                0.02644840                0.01030743                0.64002183               13.95518505                0.62127549
               6.63301697                2.95218185               19.97685278                0.00010000               -0.09776334               -0.03875817               -0.18628257                0.73115715               13.92695642                1.64535515
               7.63234088                2.83014409               19.96837915                0.00010000               -0.00106224               -0.09360259               -0.39963580                0.73735243               13.44816882                2.78590091
               8.63299573                2.70956828               19.95290256                0.08669091                0.09471353               -0.18800177               -0.64691927                0.57180112               10.72415814                4.02667435
               9.63423515                2.58782304               19.88948720                0.32137201                0.24517031                0.11670714               -0.79675380                0.17577221                4.44050328                4.69046230
              10.63789913                2.46390028               19.74774698                0.73984199                0.44068571                0.41082403               -1.43011706               -0.00346574                0.30029327                1.64535402
              11.64304886                2.34096218               19.60107589                1.00000000                0.51497262                0.70432169               -2.09389182               -0.05699261                0.05870112               -0.69121281
               1.77079461                4.58189858               20.28733346                1.00000000               -0.27962128               -0.39024445                1.25869314               -0.04413639                0.02258983                1.37784411
               2.76799840                4.45525180               20.13090349                0.66046057               -0.18841323               -0.18747946                0.62403780               -0.00247601                0.08659871               -0.75124859
               3.76702635                4.32801714               19.97572027                0.05747597               -0.10029759                0.01882190               -0.00120598                0.07518053                7.41499780               -2.91429240
               4.76599245                4.20120446               19.96583487                0.00010000               -0.15511862                0.08674983                0.07962069                0.24834358               15.95726948               -0.45078645
               5.76392397                4.07585741               19.98173690                0.00010000               -0.20999935                0.02084215               -0.00444389                0.36935923               17.34871952                0.73133669
               6.76179246                3.95163578               19.99962922                0.00010000               -0.20418534               -0.06153627               -0.09382461                0.39653559               17.43283700                1.88497573
               7.75984027                3.82880014               20.01700912                0.00010000               -0.18653223               -0.15215752               -0.19801925                0.39951566               17.33874769                3.24099143
               8.75806182                3.70786386               20.03258988                0.09557462               -0.12252793               -0.19795422               -0.33097766                0.30638341               13.53132180                4.97534510
               9.75738971                3.58824043               19.97301714                0.33521857                0.08750204               -0.01032307               -0.37027449                0.13331820                4.96602668                3.63227196
              10.75981186                3.46747950               19.81659778                0.76020289                0.32982834                0.30684653               -1.07698835                0.00283498                0.07350322                1.31208014
              11.76398628                3.34764157               19.65882531                1.00000000                0.41744200                0.62009134               -1.79827112               -0.04585093                0.01000735               -0.80017799
               1.89598568                5.57834230               20.24560507                1.00000000               -0.20834867               -0.32083697                1.03911425               -0.04398721                0.02031872                1.33972030
               2.89390219                5.45376267               20.07858266                0.63744488               -0.11025495               -0.11023883                0.36432274               -0.00041112                0.09074783               -0.77207927
               3.89378058                5.32862866               19.91292971                0.04757715               -0.02101422                0.10372034               -0.30105060               -0.01076217                9.69478215               -2.86124682
               4.89348191                5.20214683               19.93794915                0.00010000               -0.12642914                0.12529684               -0.09916793                0.01736166               20.07918180               -0.72477788
               5.89125200                5.07616834               19.98035309                0.00010000               -0.27384759                0.05692788               -0.04043939                0.05293793               21.03416677                0.61941931
               6.88800496                4.95095113               20.02462164                0.00010000               -0.35744458               -0.05837598                0.00125312                0.03230088               21.19073436                1.97916603
               7.88410311                4.82710094               20.07005755                0.00010000               -0.41609269               -0.18280414                0.02053348                0.00642603               21.29628574                3.48525645
               8.87968311                4.70560919               20.11599637                0.10457973               -0.34086160               -0.27027615                0.00606219                0.01644917               15.74543246                5.18894272
               9.87728588                4.58761658               20.04954116                0.34943197               -0.05642068               -0.11230544                0.02618248                0.04867331                5.11584427                3.10146554
              10.87855469                4.47003722               19.88236175                0.78222837                0.22609073                0.20549854               -0.73587084                0.00134127                0.04926322                1.04524042
              11.88180769                4.35336400               19.71431890                1.00000000                0.32529991                0.52350575               -1.51062318               -0.04411253                0.00979850               -0.98118846
               2.01907412                6.57548184               20.20357347                1.00000000               -0.13703104               -0.25150956                0.81887944               -0.04359774                0.02169651                1.31099650
               3.01770381                6.45304702               20.02602220                0.61449681               -0.03235894               -0.03273516                0.10451108                0.00169180                0.10664696               -0.79362292
               4.01842694                6.33009155               19.85012605                0.03777993                0.05480945                0.18968179               -0.59974772               -0.11161073               11.91996325               -2.86312915
               5.01880000                6.20371039               19.90879161                0.00010000               -0.11242552                0.20480097               -0.28557291               -0.22674039               24.15757354               -0.87586846
               6.01617843                6.07699597               19.97813627                0.00010000               -0.36470638                0.12520541               -0.08065618               -0.27536606               24.80450997                0.49933379
               7.01150587                5.95046826               20.05009475                0.00010000               -0.54338553               -0.02373282                0.09936721               -0.36045688               25.05868234                1.92061026
               8.00531072                5.82514406               20.12460830                0.00010000               -0.68153567               -0.20227174                0.25459478               -0.41848426               25.30985430                3.49110397
               8.99787516                5.70245834               20.20129296                0.11366842               -0.56877864               -0.36239318                0.37600263               -0.30403374               17.71862353                5.27224382
               9.99393515                5.58599432               20.12324990                0.36366152               -0.18919523               -0.21097681                0.41022658               -0.04068153                5.03970044                2.85282620
              10.99409126                5.47158947               19.94605418                0.80419513                0.12576488                0.10580122               -0.40327463               -0.00149111                0.04898947                0.87104461
              11.99645045                5.35811169               19.76801447                1.00000000                0.23591920                0.42604244               -1.22895488               -0.04361915                0.01028519               -1.10830794
               2.13998337                7.57331211               20.16125158                1.00000000               -0.06570452               -0.18326026                0.59877769               -0.04305189                0.02255360                1.28049276
               3.13932633                7.45310797               19.97319471                0.59159765                0.04508119                0.04520966               -0.15474978                0.00414936                0.12590777               -0.81570323
               4.14088500                7.33242230               19.78715708                0.02810838                0.13581753                0.27756640               -0.89708844               -0.21203283               14.07775022               -2.86744777
               5.14204268                7.20624285               19.87807859                0.00010000               -0.09490945                0.30484191               -0.46950974               -0.44772784               28.18489864               -1.00462491
               6.13898681                7.07867245               19.97472306                0.00010000               -0.46974713                0.21704162               -0.12020693               -0.56717649               28.60359390                0.35845836
               7.13264774                6.95047647               20.07455404                0.00010000               -0.76217310                0.04934825                0.20043814               -0.72866283               28.96239208                1.71122657
               8.12374335                6.82305551               20.17871351                0.00010000               -0.99477852               -0.19063451                0.50105300               -0.86821328               29.41256533                3.27286093
               9.11275217                6.69836133               20.28754872                0.12286639               -0.82011138               -0.44255792                0.77928424               -0.65392428               19.61530225                5.21711225
              10.10734112                6.58339704               20.19538653                0.37792321               -0.31723310               -0.30692197                0.78603009               -0.13226415                4.82986016                2.70229627
              11.10640750                6.47215324               20.00845097                0.82608273                0.02748750                0.00773006               -0.07668125               -0.00530312                0.05224993                0.77203742
              12.10789087                6.36188485               19.82061580                1.00000000                0.14833646                0.32935365               -0.95186543               -0.04374173                0.01070362               -1.16928368
               2.25862137                8.57181664               20.11858971                1.00000000                0.00552443               -0.11751360                0.37934094               -0.04228241                0.02930362                1.25293993
               3.25867661                8.45395121               19.92011525                0.56876960                0.12150203                0.12453968               -0.41277823                0.00622786                0.15629917               -0.84912198
               4.26105141                8.33564287               19.72412938                0.01861857                0.24593422                0.36664916               -1.19173089               -0.31324123               16.18770232               -2.78287061
               5.26359530                8.20980723               19.84621556                0.00010000               -0.02250625                0.37428165               -0.64258687               -0.61238838               32.14515920               -0.97803817
               6.26060128                8.08133680               19.96972666                0.00010000               -0.55228684                0.28313408               -0.15704082               -0.70679151               32.33819602                0.22249762
               7.25254956                7.95145523               20.09621206                0.00010000               -1.02698403                0.18509103                0.29793213               -0.92627801               32.80408392                1.31661317
               8.24006160                7.82133137               20.22962535                0.00010000               -1.40472094               -0.06150075                0.74637470               -1.25798133               33.60354341                2.67065037
               9.22445514                7.69360718               20.37266936                0.13222309               -1.12818227               -0.45983452                1.20046254               -1.06788453               21.60770576                4.77240423
              10.21749796                7.57985588               20.26649845                0.39228063               -0.44788775               -0.39790284                1.15467787               -0.24251051                4.63057421                2.51392867
              11.21549739                7.47174407               20.07023063                0.84795110               -0.06927837               -0.08908966                0.24560210               -0.01120225                0.07153771                0.75390420
              12.21611239                7.36469876               19.87281101                1.00000000                0.06150040                0.23477479               -0.67801814               -0.04422677                0.01741188               -1.17853702
               2.37486857                9.57096184               20.07569413                1.00000000                0.07560745               -0.05547407                0.16241116               -0.04123214                0.00716835                1.05691484
               3.37562465                9.45559876               19.86654109                0.54612089                0.19477908                0.20539846               -0.67032496                0.00636621                0.27646301               -0.77386121
               4.37876416                9.33975528               19.66271947                0.00939397                0.42381667                0.44963270               -1.47593660               -0.45301550               18.38262385               -2.10479098
               5.38410098                9.21372848               19.81561554                0.00010000                0.22194120                0.27164729               -0.79475698               -0.55608010               35.97870456               -0.60176946
               6.38320298                9.08433513               19.96330707                0.00010000               -0.49866847                0.29236860               -0.18994223               -0.52904946               35.81671456                0.11069850
               7.37412761                8.95417829               20.11279439                0.00010000               -1.33856074                0.31933278                0.38007357               -0.70279992               36.36281787                0.72706764
               8.35643176                8.82182549               20.27207551                0.00010000               -2.06288268                0.29630207                0.95931045               -1.17927355               37.73475148                1.52615889
               9.33286996                8.68916464               20.45059485                0.14181238               -1.60388722               -0.25459597                1.60003085               -1.24042506               23.89217342                3.13446499
              10.32435402                8.57543899               20.33513547                0.40685046               -0.57646894               -0.46844960                1.50756234               -0.39271529                4.79425776                1.77614713
              11.32134058                8.47037145               20.13229256                0.86994087               -0.16285355               -0.18364546                0.56662815               -0.01956949                0.20444263                0.68615593
              12.32109695                8.36658035               19.92500719                1.00000000               -0.02436306                0.14329103               -0.40703499               -0.04605142               -0.01414660               -0.98771902
               2.48852287               10.57070716               20.02908425                1.00000000                0.14876166               -0.02546794               -0.06058138                0.10063263                0.54606533                0.87284215
               3.49001049               10.45805918               19.81488743                0.76588970                0.26692516                0.24604217               -0.91587658                0.13500282                1.17086403               -0.67375711
               4.49386138               10.34463553               19.61313084                0.50182069                0.89416774                0.48802477               -1.70912189               -0.63122819               20.76707432               -1.50801936
               5.50789385               10.21524018               19.79079366                0.44164883                0.78545530                0.15116942               -0.90835854               -0.49328128               39.27215928               -0.33241638
               6.50957048               10.08718418               19.95569209                0.43352971               -0.34453240                0.28490464               -0.21811050               -0.23316425               38.77936733                0.06396241
               7.50100320                9.95784188               20.12219774                0.45239092               -1.40403490                0.36635919                0.43588419               -0.30877986               39.39254770                0.40806889
               8.48148979                9.82725741               20.29976351                0.49624802               -2.74850262                0.54319160                1.10489900               -0.96052900               41.11299952                0.86395773
               9.44603314                9.68851526               20.50290834                0.57410402               -2.65264718               -0.06493747                1.86410516               -1.52220725               26.42054656                1.93348329
              10.42843684                9.57048689               20.39163283                0.70817794               -1.10342558               -0.49520954                1.79516491               -0.61392298                6.15483485                1.16865628
              11.42396463                9.46807116               20.19271376                0.94195619               -0.28316423               -0.23002860                0.87557157                0.11628989                1.12086776                0.60544260
              12.42277356                9.36756458               19.98085325                1.00000000               -0.11910762                0.09842336               -0.12084411                0.11700292                0.47711453               -0.79894615
               1.36717094                0.65925694               21.47223558                1.00000000               -0.55238004               -0.61136440                2.11044813               -0.11331672               -1.07569242                1.12377270
               2.36164714                0.51453484               21.34276174                1.00000000               -0.47166960               -0.45058102                1.60741674               -0.07197714               -1.10388964               -0.06115261
               3.35773755                0.36939069               21.21276446                0.69150164               -0.27247996               -0.30007878                1.09817741               -0.01213079               -0.78182969               -0.98643359
               4.35619754                0.22513514               21.08987227                0.51991105               -0.02175536               -0.16461777                0.60013416                0.05339997                1.05838184               -0.10354574
               5.35730245                0.08419298               20.99743995                0.44897976                0.15973174               -0.02823163                0.11265869                0.04653905                3.98066244               -0.09525049
               6.35939218               -0.05253867               20.93459396                0.45217425                0.17006422                0.11453890               -0.38566450               -0.00052826                5.31812863                0.01419683
               7.36070373               -0.18828468               20.87010542                0.52369454                0.15984628                0.25509543               -0.87748089                0.02320152                3.81074499                0.10231337
               8.36258911               -0.32655877               20.77660566                0.67154770                0.29549216                0.39238904               -1.37235114                0.02528670                1.17201612                0.15799738
               9.36661357               -0.46728688               20.65812002                0.91846934                0.51455414                0.53331129               -1.88996894               -0.01896629               -0.58517105                0.48954946
              10.37288019               -0.60869021               20.52865764                1.00000000                0.71416177                0.68617784               -2.43852138               -0.06835907               -1.00123543                0.38273378
              11.38089681               -0.74971806               20.40154143                1.00000000                0.80166201                0.85597279               -2.95367853               -0.12692075               -0.87509564               -0.92844993
               1.51075988                1.65314329               21.42562363                1.00000000               -0.48993860               -0.58263627                1.89271841               -0.03911952               -0.03603288                1.42857538
               2.50586049                1.51002902               21.29541758                0.93867709               -0.42218944               -0.41507992                1.39253305               -0.00013715                0.07042622               -0.16018641
               3.50231609                1.36638991               21.16733213                0.24129643               -0.32650474               -0.25908800                0.91404301                0.07119077                1.46101843               -1.53991958
               4.49933040                1.22348896               21.06491616                0.00010000               -0.28556763               -0.13086809                0.48017001                0.25447357                3.92554661               -1.76381259
               5.49660474                1.08391067               20.98554812                0.00010000               -0.18523356                0.03756069                0.04525457                0.45979002                6.75022872                0.58333668
               6.49562573                0.94860672               20.93830722                0.00010000                0.06705290                0.04453982               -0.38928079                0.56817353                8.32308700                0.65596019
               7.49794580                0.81426627               20.88945978                0.00010000                0.33586704                0.05296863               -0.81062976                0.47527788                6.69789344                0.63734182
               8.50234307                0.67736512               20.81020828                0.21380265                0.47719147                0.33601075               -1.23392504                0.22816986                3.96209683                1.99835618
               9.50748963                0.53804624               20.70762609                0.58744324                0.55345609                0.47942829               -1.67799671                0.07561623                1.97749134                1.62576552
              10.51341219                0.39817157               20.58917301                1.00000000                0.65829143                0.63382938               -2.14346404                0.00743787                0.69703526                0.77442282
              11.52065546                0.25884166               20.46094160                1.00000000                0.72432642                0.82273433               -2.67640372               -0.05169271                0.21386358               -0.99058698
               1.65261709                2.64760421               21.38513453                1.00000000               -0.42193043               -0.52340155                1.68887704               -0.04491889                0.19203925                1.66707431
               2.64839779                2.50623324               21.24610502                0.71646739               -0.34578316               -0.34069834                1.14289689               -0.00722350                0.37857612               -0.50930034
               3.64570143                2.36420893               21.11078338                0.08727457               -0.23157668               -0.16285082                0.63345248                0.06189466                2.12647766               -2.68052228
               4.64376626                2.22251778               21.00673198                0.00010000               -0.21604719               -0.02184908                0.26269239                0.34005010                7.91803038               -1.21878788
               5.64138049                2.08494420               20.98713622                0.00010000               -0.16831063                0.04531538                0.02331842                0.63746380               11.53192923                0.83724623
               6.64040004                1.94835213               20.95471482                0.00010000                0.00352023               -0.05135746               -0.29282612                0.73152399               10.78512312                1.42438755
               7.64145089                1.81277469               20.91936171                0.00010000                0.14862477               -0.12066967               -0.61686596                0.79322683               10.48065479                1.91817930
               8.64337254                1.68016144               20.88046932                0.08058528                0.29342761                0.01724883               -0.93862145                0.50659275                7.22804110                3.59021888
               9.64731944                1.54230169               20.77974713                0.32105438                0.44304900                0.27757030               -1.32250752                0.04337465                3.06099636                4.23043544
              10.65223352                1.40398638               20.65741137                0.75991922                0.56016606                0.51608391               -1.82688080               -0.02709862                1.18324726                1.54861737
              11.65852276                1.26673662               20.51892951                1.00000000                0.62892463                0.77916192               -2.40468395               -0.07599438                0.38194544               -0.89333738
               1.79260346                3.64267526               21.34334281                1.00000000               -0.34921523               -0.45902296                1.47417007               -0.04566245                0.04437539                1.51722960
               2.78911130                3.50321506               21.19178010                0.67235929               -0.26670063               -0.26221925                0.87789953               -0.00479696                0.15783098               -0.77443945
               3.78726944                3.36313289               21.04246235                0.06578033               -0.18575826               -0.06144170                0.29884354                0.05093965                5.23906702               -3.18405226
               4.78539614                3.22305198               20.99252689                0.00010000               -0.18748894                0.03978591                0.24765809                0.18477505               12.20563622                0.31416362
               5.78351967                3.08481697               20.98245964                0.00010000               -0.14852130               -0.02420201                0.00203238                0.34770069               14.34948376                0.66025230
               6.78242571                2.94757957               20.97490814                0.00010000               -0.07593220               -0.08959628               -0.20439010                0.42464622               14.34539301                1.73184977
               7.78200102                2.81185288               20.96425505                0.00010000                0.02611064               -0.13865409               -0.42668292                0.44408856               13.85517794                2.91271613
               8.78294793                2.67771009               20.94625927                0.08480111                0.12655802               -0.24003208               -0.68271355                0.36425820               11.18240425                4.17750579
               9.78453218                2.54359764               20.88144682                0.31620831                0.27436800                0.05754249               -0.81170073                0.10552464                4.71757387                4.94902129
              10.78843529                2.40849325               20.73335933                0.72568491                0.45514491                0.39728417               -1.44749320               -0.00760232                0.31721121                1.74197219
              11.79363508                2.27442490               20.58003319                1.00000000                0.51997937                0.73233374               -2.11451235               -0.05942639                0.06035659               -0.72767703
               1.93062426                4.63842375               21.29989711                1.00000000               -0.27800323               -0.39011602                1.25441704               -0.04445268                0.02281691                1.40994649
               2.92784422                4.50098885               21.13710827                0.64901059               -0.18704775               -0.18387361                0.61680849               -0.00175436                0.09146991               -0.80081845
               3.92688330                4.36298010               20.97566076                0.05565457               -0.10332756                0.02683469               -0.01117602               -0.02634506                7.77966311               -3.04903320
               4.92577767                4.22331350               20.96661357                0.00010000               -0.15381958                0.04642061                0.07411138                0.00402610               16.60121870               -0.51427527
               5.92380691                4.08446016               20.98163493                0.00010000               -0.19603056               -0.01973745               -0.01817790                0.07507013               17.91812105                0.75800034
               6.92185706                3.94656020               20.99858604                0.00010000               -0.18023842               -0.10644033               -0.11710799                0.08923342               18.00751059                1.96900957
               7.92020214                3.81000161               21.01487358                0.00010000               -0.14720610               -0.20454950               -0.23133870                0.09428185               17.90775919                3.37565654
               8.91891294                3.67536080               21.02907183                0.09351307               -0.07776799               -0.26502841               -0.37463568                0.08550789               14.16041046                5.15784383
               9.91864678                3.54345254               20.96926293                0.32972862                0.11706368               -0.05951222               -0.38114772                0.05847408                5.32211260                3.82957292
              10.92125421                3.41193206               20.80575748                0.74549129                0.34120730                0.29491168               -1.09123614                0.00153582                0.08178961                1.38846274
              11.92547093                3.28138330               20.64074926                1.00000000                0.42167145                0.64517993               -1.81676782               -0.04533902                0.01096896               -0.83531046
               2.06658421                5.63487294               21.25597034                1.00000000               -0.20643367               -0.32012793                1.03425074               -0.04417294                0.02030688                1.37079883
               3.06451987                5.49953759               21.08218280                0.62640789               -0.10831547               -0.10636879                0.35553518                0.00076486                0.09549820               -0.82144304
               4.06441790                5.36366958               20.90986126                0.04592340               -0.02616333                0.11136882               -0.31328153               -0.13143495               10.13902645               -2.99050078
               5.06399660                5.22398039               20.93690433                0.00010000               -0.13217687                0.10661503               -0.11184005               -0.25041046               20.89726162               -0.79835381
               6.06177436                5.08442223               20.97986193                0.00010000               -0.26638385                0.02954126               -0.06033237               -0.25121817               21.78613664                0.63110826
               7.05866893                4.94545076               21.02450132                0.00010000               -0.33441500               -0.09658726               -0.02817482               -0.29076615               21.94023525                2.06226190
               8.05508606                4.80776189               21.07007364                0.00010000               -0.37308869               -0.23456322               -0.02033952               -0.32377383               22.03641147                3.63132278
               9.05120715                4.67240952               21.11580239                0.10235823               -0.29778307               -0.33599746               -0.04794954               -0.22258434               16.52038949                5.39222523
              10.04913040                4.54240740               21.04976720                0.34362367               -0.03359546               -0.14877632                0.01834718               -0.02943307                5.53107251                3.27238698
              11.05053524                4.41439148               20.87494404                0.76691244                0.23477144                0.19736426               -0.74786201               -0.00018999                0.05629190                1.10911037
              12.05382583                4.28732850               20.69912451                1.00000000                0.32905838                0.54354070               -1.52802245               -0.04365329                0.01029894               -1.02259471
               2.20041151                6.63202120               21.21173511                1.00000000               -0.13486318               -0.25058049                0.81370722               -0.04371466                0.02143112                1.34167002
               3.19906288                6.49886148               21.02701903                0.60391862               -0.02998586               -0.02874702                0.09459654                0.00312843                0.11160661               -0.84225672
               4.19981180                6.36520748               20.84406335                0.03631839                0.04769707                0.19706515               -0.61358332               -0.24239121               12.43980620               -2.98995300
               5.20001682                6.22544580               20.90585803                0.00010000               -0.12498107                0.20299605               -0.30329726               -0.50938625               25.14669085               -0.95109059
               6.19731217                6.08505098               20.97721797                0.00010000               -0.36573745                0.11353135               -0.10587354               -0.59209285               25.74361999                0.50729289
               7.19270207                5.94462846               21.05092764                0.00010000               -0.52721347               -0.05119231                0.06380616               -0.70246051               25.99253414                2.00290848
               8.18676790                5.80531035               21.12692935                0.00010000               -0.64431647               -0.24642379                0.20582628               -0.77466650               26.23534778                3.64642641
               9.17981574                5.66864085               21.20474854                0.11131010               -0.53458709               -0.41757046                0.31094119               -0.55684885               18.62422636                5.50367749
              10.17607616                5.54047701               21.12732948                0.35758593               -0.17432165               -0.23716158                0.40496797               -0.11649271                5.49096125                3.01018279
              11.17632931                5.41587935               20.94197055                0.78835532                0.13238294                0.10071890               -0.41365974               -0.00325843                0.05562122                0.92621881
              12.17872382                5.29225411               20.75563849                1.00000000                0.23945111                0.44200868               -1.24596858               -0.04326892                0.01054774               -1.15466834
               2.33202935                7.62986133               21.16721122                1.00000000               -0.06331949               -0.18220632                0.59337462               -0.04316806                0.02206888                1.31147012
               3.33139616                7.49896265               20.97159473                0.58152327                0.04782000                0.04924998               -0.16557892                0.00566190                0.13130093               -0.86306890
               4.33298575                7.36761089               20.77811516                0.02685378                0.12846077                0.28467819               -0.91220546               -0.34484666               14.67407601               -2.99134459
               5.33396537                7.22804031               20.87328979                0.00010000               -0.11179552                0.31801284               -0.49054266               -0.73089211               29.34459536               -1.07308280
               6.33074984                7.08669285               20.97338970                0.00010000               -0.48025105                0.22134133               -0.14965343               -0.88726916               29.73006186                0.36552616
               7.32436035                6.94442692               21.07637360                0.00010000               -0.75847526                0.03703532                0.15956089               -1.07942566               30.08679185                1.78905417
               8.31558034                6.80283341               21.18346796                0.00010000               -0.97284221               -0.22104170                0.44532362               -1.24012421               30.53892186                3.42947048
               9.30490351                6.66405812               21.29499402                0.12039051               -0.80091452               -0.48175202                0.70467422               -0.91472567               20.64038545                5.47086007
              10.29956205                6.53766417               21.20323643                0.37162055               -0.31052656               -0.32457331                0.78316149               -0.20431061                5.29569394                2.85020267
              11.29869298                6.41640586               21.00763975                0.80979485                0.03244369                0.00509155               -0.08579202               -0.00731331                0.05899356                0.82126498
              12.30021092                6.29616867               20.81101061                1.00000000                0.15179437                0.34191820               -0.96889884               -0.04349440                0.01086503               -1.21946999
               2.46134553                8.62837707               21.12235382                1.00000000                0.00810380               -0.11627931                0.37367750               -0.04244419                0.02887021                1.28544079
               3.46142657                8.49984648               20.91593097                0.55922259                0.12458332                0.12862665               -0.42446226                0.00765775                0.16282975               -0.89535012
               4.46383719                8.37090104               20.71213540                0.01758312                0.24452244                0.37334553               -1.20805827               -0.44109462               16.86520908               -2.89950633
               5.46631701                8.23180605               20.83968530                0.00010000               -0.03285041                0.39541864               -0.66588516               -0.87532868               33.47597763               -1.03187876
               6.46318019                8.08947781               20.96801045                0.00010000               -0.56720085                0.29681109               -0.18965502               -0.99786927               33.64594343                0.22868455
               7.45497300                7.94536916               21.09898827                0.00010000               -1.04229811                0.19299554                0.25296777               -1.24886274               34.11917704                1.37974270
               8.44233422                7.80088951               21.23681056                0.00010000               -1.41412601               -0.06530806                0.68554156               -1.61608936               34.94326117                2.80633396
               9.42669048                7.65900581               21.38429881                0.12964150               -1.13460085               -0.47372912                1.11957344               -1.33429069               22.74904858                5.02266708
              10.41964221                7.53398555               21.27804726                0.38577459               -0.45059701               -0.40828151                1.15426761               -0.31373198                5.09845824                2.64965325
              11.41767854                7.41598118               21.07264812                0.83126642               -0.06569518               -0.08978599                0.23765361               -0.01352893                0.07977037                0.80001357
              12.41832830                7.29909248               20.86594337                1.00000000                0.06497659                0.24436934               -0.69523168               -0.04405923                0.01798399               -1.23183886
               2.58824166                9.62753575               21.07728784                1.00000000                0.07836858               -0.05400003                0.15648418               -0.04140580                0.00440544                1.08758394
               3.58902534                9.50153518               20.85977688                0.53710021                0.19813133                0.20957565               -0.68294279                0.00751059                0.28778326               -0.81355046
               4.59220428                9.37507780               20.64787758                0.00857496                0.44283448                0.45586259               -1.49345045               -0.57516448               19.15137141               -2.18992660
               5.59788203                9.23594869               20.80755597                0.00010000                0.25125321                0.26972233               -0.81965811               -0.74271817               37.47895861               -0.62976528
               6.59722935                9.09262907               20.96125176                0.00010000               -0.49553188                0.30414771               -0.22477787               -0.72135637               37.29221480                0.11383726
               7.58797140                8.94828683               21.11637923                0.00010000               -1.38037215                0.34706777                0.33225437               -0.91403168               37.85446935                0.76220421
               8.56962191                8.80152725               21.28137579                0.00010000               -2.14248675                0.33965645                0.89520629               -1.43682193               39.28929189                1.60777279
               9.54512166                8.65458353               21.46620965                0.13912129               -1.66549328               -0.21236712                1.51651851               -1.46230996               25.15878886                3.30615248
              10.53631204                8.52949854               21.35022473                0.40013776               -0.59030944               -0.47204126                1.50942343               -0.47102988                5.27336948                1.87091209
              11.53331547                8.41461014               21.13792596                0.85284783               -0.16024483               -0.18287440                0.55981887               -0.02229489                0.22058618                0.72544305
              12.53310714                8.30105606               20.92084807                1.00000000               -0.02083283                0.15047154               -0.42447397               -0.04598096               -0.01484555               -1.03493192
               2.71251855               10.62729707               21.02844708                1.00000000                0.15161779               -0.02386789               -0.06677464                0.10178124                0.55875244                0.90041544
               3.71403473               10.50403799               20.80566411                0.76152923                0.27009234                0.25028101               -0.92927591                0.13699962                1.21535047               -0.70711445
               4.71792040               10.38001829               20.59595481                0.50147643                0.99383233                0.49404947               -1.72711730               -0.77026317               21.64019207               -1.56686897
               5.73391137               10.23720050               20.78159561                0.44213451                0.92472594                0.12518135               -0.93388625               -0.61994230               40.93247731               -0.35386047
               6.73641492               10.09556076               20.95334982                0.43373548               -0.30585950                0.29316888               -0.25416695               -0.32594232               40.39986986                0.05996257
               7.72779418                9.95231052               21.12633159                0.45221407               -1.45569171                0.40236895                0.38607203               -0.41162717               41.03084420                0.42207740
               8.70730108                9.80768264               21.31050798                0.49565199               -2.91605951                0.61553876                1.03827568               -1.10968497               42.83043882                0.90450653
               9.66947299                9.65475847               21.52115365                0.57272182               -2.85530395                0.01749342                1.77842617               -1.72176253               27.82171869                2.04295025
              10.65019500                9.52454472               21.40960028                0.70475071               -1.18989395               -0.49538151                1.79749560               -0.73344254                6.70736412                1.23093635
              11.64567512                9.41232369               21.20144003                0.93327441               -0.28390811               -0.22864491                0.86952159                0.11382361                1.18595720                0.63867738
              12.64451684                9.30210191               20.97955597                1.00000000               -0.11582751                0.10458450               -0.13819778                0.11879131                0.50299752               -0.83870899
               1.48821294                0.71837370               22.49335127                1.00000000               -0.55442526               -0.61282255                2.11297833               -0.11221979               -1.11324257                1.15929821
               2.48266869                0.56231326               22.35884759                1.00000000               -0.47613687               -0.45111402                1.60950061               -0.07082904               -1.14462291               -0.06718241
               3.47869020                0.40578198               22.22375696                0.68865384               -0.29510887               -0.29752164                1.09952653               -0.02998264               -0.81988999               -1.00509893
               4.47676651                0.24964204               22.09588288                0.51947572               -0.08070021               -0.16352686                0.60079296                0.01178758                1.02937853               -0.10634034
               5.47707620                0.09545727               21.99855086                0.44908973                0.09067307               -0.02425121                0.10835994                0.00783025                3.95027864               -0.09760362
               6.47857997               -0.05607842               21.93067454                0.45200308                0.15392611                0.12060256               -0.39896515               -0.02145410                5.28691808                0.01690331
               7.48015472               -0.20691576               21.86122653                0.52264900                0.20403629                0.26208202               -0.89856871               -0.00659231                3.78467924                0.10920899
               8.48266070               -0.35923014               21.76276429                0.66872150                0.34732787                0.39954394               -1.39584769               -0.00633010                1.13689033                0.16670707
               9.48710128               -0.51289022               21.63910576                0.91207722                0.54320510                0.53863571               -1.91254100               -0.03546244               -0.64537939                0.50241668
              10.49352480               -0.66670522               21.50415413                1.00000000                0.72638983                0.69154041               -2.46172534               -0.06864265               -1.05958388                0.41358213
              11.50162908               -0.82006106               21.37189297                1.00000000                0.81042753                0.86434783               -2.97558670               -0.12612790               -0.91637678               -0.98295978
               1.64315118                1.71224547               22.44455617                1.00000000               -0.48949234               -0.58467724                1.89404488               -0.03846303               -0.02613808                1.47070072
               2.63825626                1.55780212               22.30935049                0.92354554               -0.42125969               -0.41529841                1.39376467                0.00075554                0.09176700               -0.18425080
               3.63472599                1.40280676               22.17649322                0.23687882               -0.31047591               -0.25559965                0.91744977                0.04656680                1.51556193               -1.60811291
               4.63204674                1.24800677               22.06972911                0.00010000               -0.23556266               -0.12657813                0.48136222                0.15934364                4.00375186               -1.81452962
               5.63001473                1.09521476               21.98598623                0.00010000               -0.12473944               -0.01477117                0.04122291                0.27969641                6.83241025                0.60173507
               6.62955195                0.94512760               21.93434647                0.00010000                0.08249605                0.01880978               -0.40360420                0.34746029                8.42012346                0.70659335
               7.63166466                0.79570506               21.88123738                0.00010000                0.30163386                0.05781318               -0.83406184                0.29106094                6.81036332                0.70688274
               8.63558463                0.64476530               21.79773780                0.20990955                0.44097721                0.33037127               -1.26002131                0.13052589                4.06861537                2.08498859
               9.64048420                0.49249613               21.69071596                0.57786070                0.54195824                0.47922478               -1.70375466                0.04138726                2.06439932                1.71170702
              10.64642379                0.34021018               21.56762668                1.00000000                0.66197180                0.63771351               -2.16546611                0.00321786                0.73875005                0.81553322
              11.65372364                0.18858242               21.43406398                1.00000000                0.72998424                0.83289349               -2.69880991               -0.05160295                0.22062705               -1.04794120
               1.79633039                2.70668015               22.40202008                1.00000000               -0.42078763               -0.52581349                1.68849740               -0.04545624                0.19885490                1.71027205
               2.79212251                2.55400729               22.25752101                0.70322887               -0.34567488               -0.33909471                1.13993097               -0.00795369                0.40463560               -0.55855981
               3.78941689                2.40066999               22.11711445                0.08458097               -0.22885621               -0.15564785                0.63191277                0.03206860                2.24249682               -2.82491614
               4.78754539                2.24711048               22.00938991                0.00010000               -0.19337952               -0.05966300                0.26782743                0.14579371                8.16771027               -1.21833771
               5.78554930                2.09516185               21.98733838                0.00010000               -0.12532502               -0.03784672                0.01565071                0.30385647               11.81774674                0.87424456
               6.78503888                1.94429777               21.95170735                0.00010000                0.03944712               -0.10899866               -0.30987397                0.38280596               11.04142153                1.51647287
               7.78633824                1.79424050               21.91307346                0.00010000                0.17206278               -0.14092579               -0.64155572                0.47540866               10.74676437                2.04635763
               8.78848014                1.64737729               21.87093849                0.07858722                0.30729543               -0.01247140               -0.96762323                0.31605961                7.48016731                3.73255341
               9.79248415                1.49669427               21.76640768                0.31531100                0.45113670                0.23957663               -1.34520463               -0.01629406                3.22464084                4.46696595
              10.79750287                1.34604905               21.63903476                0.74399979                0.56841983                0.50917216               -1.84828585               -0.04321326                1.24871181                1.63223909
              11.80385255                1.19659681               21.49477094                1.00000000                0.63496711                0.80032358               -2.42680457               -0.08599180                0.41022896               -0.94405615
               1.94758778                3.70172920               22.35807117                1.00000000               -0.34804277               -0.46050823                1.47182007               -0.04598553                0.04386098                1.55224638
               2.94410735                3.55102023               22.20053286                0.66032482               -0.26618026               -0.25872815                0.87239904               -0.00468791                0.16608322               -0.82839385
               3.94226417                3.39969381               22.04541585                0.06370142               -0.18183008               -0.05162082                0.29106461               -0.02546467                5.52283409               -3.34117542
               4.94047075                3.24681351               21.99501473                0.00010000               -0.16798021               -0.02844809                0.24765557               -0.03693593               12.66156803                0.32827369
               5.93890457                3.09445783               21.98242946                0.00010000               -0.11706639               -0.07733582               -0.00984966                0.04493722               14.73563658                0.69490418
               6.93812942                2.94294763               21.97276497                0.00010000               -0.04056289               -0.14374887               -0.22587859                0.10469245               14.75732521                1.81514890
               7.93809331                2.79288654               21.95984549                0.00010000                0.06613138               -0.18729064               -0.45652830                0.13698315               14.25622067                3.03633688
               8.93945205                2.64451588               21.93924828                0.08281619                0.16966252               -0.29498362               -0.72020891                0.14008298               11.64934525                4.32341198
               9.94148656                2.49728767               21.87325319                0.31088961                0.31024710               -0.00913834               -0.82736161                0.02699590                5.00691650                5.21484778
              10.94565699                2.35039362               21.71879712                0.71143311                0.47108574                0.38074971               -1.46493671               -0.01201641                0.33432930                1.84254285
              11.95090828                2.20458889               21.55878564                1.00000000                0.52512856                0.76236167               -2.13467689               -0.06199616                0.06180642               -0.76283704
               2.09682863                4.69746999               22.31242180                1.00000000               -0.27644807               -0.39044648                1.25086683               -0.04476973                0.02289180                1.44213363
               3.09406415                4.54883273               22.14323966                0.63743014               -0.18571601               -0.17985908                0.60926062               -0.00092666                0.09639374               -0.85221614
               4.09311431                4.39963757               21.97549675                0.05376930               -0.10107516                0.03611229               -0.02232414               -0.13579031                8.14765926               -3.18755583
               5.09204264                4.24654152               21.96731710                0.00010000               -0.14001918                0.00608882                0.06442022               -0.25333546               17.24653913               -0.58641699
               6.09031392                4.09361513               21.98137334                0.00010000               -0.16693117               -0.06251785               -0.03629751               -0.23227756               18.48251775                0.77941490
               7.08870402                3.94142280               21.99728706                0.00010000               -0.14021340               -0.15464313               -0.14480647               -0.23259575               18.57621274                2.04877746
               8.08750966                3.79049469               22.01238235                0.00010000               -0.09116731               -0.26074562               -0.26886612               -0.22541094               18.47025996                3.50557924
               9.08688068                3.64147762               22.02509716                0.09136557               -0.01816688               -0.33694455               -0.42192721               -0.15189511               14.80458899                5.33402992
              10.08714632                3.49651150               21.96539419                0.32411277                0.15403240               -0.11449464               -0.39323239               -0.02672318                5.69754060                4.03163035
              11.08996132                3.35366404               21.79477306                0.73073562                0.35378872                0.28063614               -1.10575986               -0.00006150                0.09044889                1.46756971
              12.09422209                3.21184404               21.62248996                1.00000000                0.42607703                0.67169919               -1.83478990               -0.04477720                0.01186462               -0.86979864
               2.24396690                5.69392027               22.26629009                1.00000000               -0.20456664               -0.31978131                1.03000377               -0.04440933                0.02023621                1.40237691
               3.24192124                5.54742304               22.08569336                0.61527111               -0.10636613               -0.10213882                0.34635124                0.00196681                0.10046581               -0.87214960
               4.24183958                5.40041605               21.90666408                0.04421963               -0.02473803                0.12005075               -0.32685739               -0.26089970               10.58478718               -3.12254713
               5.24142648                5.24693529               21.93571235                0.00010000               -0.12309206                0.08808021               -0.12864361               -0.53360112               21.71547436               -0.87788398
               6.23937774                5.09320747               21.97914644                0.00010000               -0.24142605               -0.00005387               -0.08520252               -0.57066083               22.53423990                0.63796844
               7.23659795                4.93985477               22.02405814                0.00010000               -0.29237342               -0.13843225               -0.06310479               -0.62973460               22.68378738                2.14088220
               8.23353027                4.78767163               22.06965076                0.00010000               -0.31003125               -0.29082132               -0.06695320               -0.66953332               22.76866638                3.77209530
               9.23039733                4.63777699               22.11503738                0.10005518               -0.23822977               -0.40686810               -0.10772518               -0.47974843               17.31713299                5.58799716
              10.22876568                4.49499777               22.04990810                0.33770680               -0.00370527               -0.18913773                0.00913514               -0.11922943                5.97363615                3.44736014
              11.23032322                4.35600635               21.86740451                0.75158843                0.24435281                0.18770480               -0.76024266               -0.00207795                0.06391956                1.17486744
              12.23365273                4.21802287               21.68375845                1.00000000                0.33295073                0.56440911               -1.54492614               -0.04317620                0.01077437               -1.06442963
               2.38893490                6.69107436               22.21984762                1.00000000               -0.13271940               -0.24987371                0.80904136               -0.04389955                0.02118396                1.37294826
               3.38760771                6.54678995               22.02791413                0.59324263               -0.02754146               -0.02441959                0.08414784                0.00456949                0.11701234               -0.89187197
               4.38838407                6.40203859               21.83785439                0.03480270                0.04857491                0.20536504               -0.62897672               -0.38274767               12.96005660               -3.11891686
               5.38857920                6.24830312               21.90272567                0.00010000               -0.12014202                0.20093197               -0.32528023               -0.80954777               26.13471182               -1.03016442
               6.38598123                6.09361406               21.97601880                0.00010000               -0.34670157                0.09915086               -0.13666546               -0.92612407               26.67887557                0.51159789
               7.38164517                5.93865415               22.05137088                0.00010000               -0.48922286               -0.08289209                0.02166359               -1.06142206               26.91978929                2.08137497
               8.37619677                5.78467826               22.12872482                0.00010000               -0.58428048               -0.29539611                0.14975298               -1.14714010               27.15122450                3.79698923
               9.36995956                5.63334026               22.20751178                0.10886527               -0.48322016               -0.47743585                0.23789862               -0.82777174               19.55838610                5.72838730
              10.36653237                5.49272875               22.13134926                0.35139739               -0.15324486               -0.26572307                0.39821107               -0.20392609                5.97767213                3.17134614
              11.36689467                5.35741814               21.93778099                0.77250952                0.13965750                0.09473115               -0.42449542               -0.00532756                0.06302155                0.98279782
              12.36932552                5.22313222               21.74309509                1.00000000                0.24308541                0.45838516               -1.26248720               -0.04290541                0.01084422               -1.20213012
               2.53165773                7.68892280               22.17311907                1.00000000               -0.06093271               -0.18127644                0.58839443               -0.04333595                0.02164176                1.34299390
               3.53104840                7.54693465               21.96988313                0.57133159                0.05068642                0.05360513               -0.17705062                0.00722363                0.13732303               -0.91121496
               4.53267146                7.40452335               21.76891297                0.02554600                0.13058222                0.29258704               -0.92904549               -0.48817659               15.27029129               -3.11703162
               5.53366005                7.25095393               21.86826773                0.00010000               -0.10836154                0.33001732               -0.51600939               -1.03361327               30.50221524               -1.14393499
               6.53050423                7.09519049               21.97172999                0.00010000               -0.46773688                0.22171874               -0.18526343               -1.22605254               30.85216784                0.37012192
               7.52430531                6.93819693               22.07774525                0.00010000               -0.73014325                0.01951540                0.11108753               -1.44694843               31.20383869                1.86424972
               8.51590136                6.78176371               22.18761998                0.00010000               -0.92569525               -0.25640241                0.38075882               -1.62745718               31.65430453                3.58293379
               9.50579141                6.62822827               22.30164220                0.11782174               -0.76460454               -0.52476794                0.62005077               -1.19202731               21.70035675                5.72052339
              10.50060927                6.48968331               22.21104976                0.36518422               -0.29891030               -0.34340494                0.77877298               -0.28709312                5.80417525                3.00193770
              11.49981320                6.35790097               22.00673513                0.79347920                0.03785887                0.00199931               -0.09538339               -0.00953587                0.06664338                0.87172601
              12.50136645                6.22719057               21.80123783                1.00000000                0.15532505                0.35461481               -0.98545888               -0.04323702                0.01109039               -1.27105428
               2.67204447                8.68744883               22.12606326                1.00000000                0.01071513               -0.11512705                0.36836533               -0.04263476                0.02849658                1.31840121
               3.67215162                8.54786206               21.91162600                0.54953768                0.12783949                0.13299788               -0.43685444                0.00918288                0.17009536               -0.94232415
               4.67460126                8.40789033               21.69996822                0.01647809                0.25440893                0.38069937               -1.22616927               -0.58087768               17.54244365               -3.01775376
               5.67723980                8.25490347               21.83289786                0.00010000               -0.01920406                0.41344677               -0.69378047               -1.15979829               34.80413192               -1.08734339
               6.67421718                8.09804843               21.96593356                0.00010000               -0.55534084                0.30410052               -0.22892495               -1.30696068               34.94885844                0.23334623
               7.66613299                7.93904446               22.10127142                0.00010000               -1.03004478                0.19410655                0.19955057               -1.58552822               35.42656627                1.44157069
               8.65361629                7.77955021               22.24333618                0.00010000               -1.39667874               -0.07400864                0.61457516               -1.98568726               36.27178178                2.94094150
               9.63819941                7.62284490               22.39506083                0.12695551               -1.12492402               -0.48977119                1.02690277               -1.61420813               23.93079498                5.27235679
              10.63111781                7.48586065               22.28958380                0.37911393               -0.45013635               -0.41895488                1.15229901               -0.39454759                5.61443275                2.78918067
              11.62919668                7.35745812               22.07498370                0.81451457               -0.06181185               -0.09062863                0.22922128               -0.01601850                0.08893843                0.84733945
              12.62988157                7.23022452               21.85890638                1.00000000                0.06848844                0.25392656               -0.71195611               -0.04389146                0.01861683               -1.28657792
               2.80997859                9.68662026               22.07882381                1.00000000                0.08119770               -0.05259241                0.15081238               -0.04159567                0.00158420                1.11866294
               3.81079057                9.54959461               21.85288224                0.52790682                0.20169510                0.21401906               -0.69631227                0.00876119                0.29992889               -0.85396626
               4.81401249                9.41213734               21.63285047                0.00768195                0.47577036                0.46266823               -1.51274574               -0.71196440               19.92002097               -2.27630363
               5.82030598                9.25922286               21.79922238                0.00010000                0.31057648                0.25901140               -0.84926645               -0.94781326               38.97632613               -0.65883774
               6.82022402                9.10127250               21.95881152                0.00010000               -0.46065051                0.30694336               -0.26664522               -0.92645426               38.76247084                0.11619568
               7.81109297                8.94207906               22.11943948                0.00010000               -1.39184218                0.36671268                0.27537214               -1.13300115               39.33833084                0.79696645
               8.79238718                8.78028353               22.28997963                0.00010000               -2.19480810                0.37664804                0.82010768               -1.69929992               40.83375054                1.68974100
               9.76719680                8.61843284               22.48092522                0.13631317               -1.71410425               -0.16793139                1.41992981               -1.69017560               26.47049415                3.47930863
              10.75810509                8.48130421               22.36532394                0.39324289               -0.60339215               -0.47530675                1.50969669               -0.55822564                5.80406508                1.96845260
              11.75512896                8.35608840               22.14348894                0.83564192               -0.15746337               -0.18207753                0.55258809               -0.02518559                0.23776101                0.76578722
              12.75495583                8.23226911               21.91651771                1.00000000               -0.01731335                0.15750354               -0.44134738               -0.04592649               -0.01553155               -1.08335067
               2.94526385               10.68639699               22.02774875                1.00000000                0.15459111               -0.02232726               -0.07286259                0.10307146                0.57146197                0.92839935
               3.94680977               10.55214244               21.79630191                0.75708660                0.27349332                0.25478264               -0.94352571                0.13925498                1.26115331               -0.74119356
               4.95073372               10.41714369               21.57858849                0.50109122                1.11693065                0.50063504               -1.74699049               -0.93081431               22.51384692               -1.62674758
               5.96914838               10.26008370               21.77211593                0.44259551                1.10490912                0.08608314               -0.96435477               -0.76357923               42.58935059               -0.37609101
               6.97283190               10.10418730               21.95060875                0.43393610               -0.23432252                0.29148008               -0.29757400               -0.42446110               42.01403963                0.05534614
               7.96446193                9.94637871               22.12991918                0.45203233               -1.47777022                0.42996556                0.32685828               -0.51831003               42.66035060                0.43573007
               8.94327650                9.78708317               22.32052903                0.49503207               -3.05433550                0.67996400                0.96031325               -1.25569016               44.53794120                0.94523453
               9.90337522                9.61948627               22.53847687                0.57127537               -3.04893796                0.10534246                1.67933931               -1.91859137               29.27146091                2.15396473
              10.88229774                9.47635452               22.42758274                0.70122629               -1.28235694               -0.49496974                1.79837543               -0.86422026                7.31434524                1.29504595
              11.87772808                9.35381657               22.21010419                0.92452590               -0.28480598               -0.22718245                0.86323466                0.11091564                1.25315643                0.67277342
              12.87660162                9.23337459               21.97808929                1.00000000               -0.11264592                0.11054846               -0.15477584                0.12038115                0.52946875               -0.87945162
               1.61391346                0.78003310               23.51449515                1.00000000               -0.55644625               -0.61445976                2.11597692               -0.11126907               -1.15055589                1.19447371
               2.60834899                0.61218538               23.37495175                1.00000000               -0.48044972               -0.45147961                1.61105509               -0.06986643               -1.18522041               -0.07391935
               3.60430446                0.44381619               23.23475499                0.68570279               -0.31788913               -0.29460295                1.09931400               -0.04904992               -0.85784536               -1.02212775
               4.60199121                0.27531587               23.10188813                0.51898307               -0.13940521               -0.16245420                0.59904535               -0.03017914                0.99873513               -0.10926490
               5.60151636                0.10737017               22.99960715                0.44917827                0.02318331               -0.02123162                0.10154991               -0.03109514                3.91456132               -0.10004936
               6.60245488               -0.05954447               22.92661466                0.45182566                0.13956003                0.12502458               -0.41408161               -0.04240115                5.24892348                0.01947461
               7.60430756               -0.22612220               22.85213404                0.52156601                0.24963992                0.26791938               -0.92052546               -0.03594046                3.75439355                0.11606180
               8.60744768               -0.39317164               22.74868870                0.66580860                0.40042919                0.40623268               -1.41945270               -0.03792539                1.10123632                0.17546205
               9.61231614               -0.56045894               22.61986919                0.90551850                0.57268133                0.54374056               -1.93461285               -0.05234260               -0.70550384                0.51402009
              10.61890130               -0.72736366               22.47942314                1.00000000                0.73877289                0.69652696               -2.48407063               -0.06923012               -1.11775558                0.44669321
              11.62709160               -0.89371928               22.34202970                1.00000000                0.81902975                0.87241547               -2.99658318               -0.12538246               -0.95658763               -1.03762092
               1.78064848                1.77388850               23.46350453                1.00000000               -0.48896991               -0.58692184                1.89580272               -0.03784804               -0.01493541                1.51229104
               2.77575878                1.60767058               23.32329287                0.90811600               -0.41998836               -0.41528539                1.39442826                0.00143993                0.11562671               -0.21071560
               3.77224872                1.44087016               23.18568113                0.23231422               -0.29231778               -0.25141030                0.91947229                0.01993765                1.57163529               -1.67833664
               4.76991243                1.27369133               23.07454340                0.00010000               -0.18065679               -0.12252370                0.48048272                0.05965105                4.07960345               -1.86366909
               5.76863558                1.10715786               22.98637258                0.00010000               -0.05676874               -0.06921569                0.03497737                0.09580350                6.90781688                0.61817206
               6.76877705                0.94170577               22.93023513                0.00010000                0.10630796               -0.00962231               -0.41943526                0.12188223                8.50791330                0.75635846
               7.77076174                0.77655699               22.87277854                0.00010000                0.27298694                0.06079667               -0.85799814                0.10161935                6.91731071                0.77685649
               8.77423679                0.61089069               22.78500785                0.20587473                0.40634941                0.32368305               -1.28591774                0.03077340                4.17455536                2.17149794
               9.77888873                0.44497846               22.67355100                0.56803204                0.53011902                0.47813632               -1.72902269                0.00553864                2.15402811                1.79958026
              10.78483917                0.27960161               22.54586369                1.00000000                0.66523348                0.64121936               -2.18674619               -0.00152018                0.78271310                0.85855603
              11.79219340                0.11500487               22.40696540                1.00000000                0.73542241                0.84265605               -2.72042345               -0.05150421                0.22746137               -1.10514501
               1.94559233                2.76829466               23.41890448                1.00000000               -0.41961942               -0.52850145                1.68859766               -0.04605827                0.20514798                1.75260320
               2.94139613                2.60387967               23.26890364                0.68982383               -0.34549301               -0.33710264                1.13624877               -0.00885880                0.43227465               -0.61101378
               3.93868247                2.43878798               23.12342164                0.08180611               -0.22497984               -0.14715367                0.62878178               -0.00093649                2.36492207               -2.97558676
               4.93689654                2.27286540               23.01208852                0.00010000               -0.16322400               -0.10005318                0.27102901               -0.05503308                8.41671369               -1.22020775
               5.93541799                2.10598586               22.98744923                0.00010000               -0.07015745               -0.12388809                0.00519157               -0.03778726               12.09455743                0.90732895
               6.93549339                1.94026308               22.94851734                0.00010000                0.08685242               -0.17014704               -0.32918377                0.02435050               11.29119453                1.60590841
               7.93715503                1.77509373               22.90653059                0.00010000                0.20741429               -0.16431292               -0.66767257                0.14596611               11.00876321                2.17307535
               8.93964167                1.61330202               22.86111685                0.07648609                0.32804797               -0.04355115               -0.99668678                0.11501980                7.73485340                3.87147452
               9.94371599                1.44910379               22.75284304                0.30940366                0.46014100                0.19648113               -1.36749995               -0.08041716                3.39364169                4.71024623
              10.94884449                1.28546073               22.62044565                0.72799237                0.57694971                0.50020992               -1.86922380               -0.06098525                1.31590112                1.71905129
              11.95525499                1.12313384               22.47039342                1.00000000                0.64104960                0.82221365               -2.44819743               -0.09765076                0.43921476               -0.99355440
               2.10855729                3.76331847               23.37277921                1.00000000               -0.34690085               -0.46235764                1.47005434               -0.04629170                0.04313912                1.58669593
               3.10508828                3.60092853               23.20922808                0.64814055               -0.26565180               -0.25478215                0.86637037               -0.00451801                0.17461345               -0.88447267
               4.10324426                3.43792709               23.04828365                0.06155121               -0.17371969               -0.04036115                0.28169787               -0.10808382                5.81193923               -3.50381213
               5.10161389                3.27169027               22.99748001                0.00010000               -0.13810521               -0.09889324                0.24317634               -0.26558321               13.11888738                0.33383744
               6.10048215                3.10468009               22.98226265                0.00010000               -0.07288503               -0.13271901               -0.02516035               -0.26590610               15.11475104                0.72451303
               7.10015619                2.93830283               22.97039057                0.00010000                0.00799856               -0.20102498               -0.25041173               -0.22652193               15.16343502                1.89421500
               8.10064212                2.77327073               22.95512449                0.00010000                0.11854726               -0.23929028               -0.48868420               -0.18204815               14.65210526                3.15534705
               9.10252714                2.61001966               22.93185509                0.08073182                0.22397776               -0.35248601               -0.75878118               -0.10057201               12.12556540                4.46256641
              10.10512168                2.44890809               22.86489959                0.30541775                0.35311398               -0.08367760               -0.84362576               -0.06040767                5.30863385                5.48704761
              11.10958941                2.28960581               22.70406059                0.69708075                0.48862384                0.36076686               -1.48219650               -0.01680057                0.35165443                1.94686416
              12.11489416                2.13144914               22.53733965                1.00000000                0.53047411                0.79403387               -2.15392451               -0.06469418                0.06304458               -0.79628027
               2.26944637                4.75904751               23.32491444                1.00000000               -0.27492144               -0.39119003                1.24796105               -0.04509297                0.02286165                1.47439258
               3.26669716                4.59878403               23.14929348                0.62572711               -0.18436595               -0.17542005                0.60123518                0.00000845                0.10147410               -0.90536317
               4.26575905                4.43798076               22.97521427                0.05181656               -0.09326467                0.04669566               -0.03494677               -0.25230479                8.51811944               -3.32971267
               5.26483186                4.27088754               22.96790197                0.00010000               -0.11358760               -0.03380623                0.05040946               -0.52197204               17.89242985               -0.66696437
               6.26348730                4.10333148               22.98090898                0.00010000               -0.12297770               -0.10719808               -0.05860213               -0.55068690               19.04241436                0.79484869
               7.26237231                3.93624258               22.99568991                0.00010000               -0.08450283               -0.20591185               -0.17645782               -0.56696934               19.13928979                2.12308801
               8.26179724                3.77030793               23.00949626                0.00010000               -0.01897148               -0.32047067               -0.30992408               -0.55761289               19.02654197                3.62907231
               9.26199288                3.60625230               23.02063329                0.08912800                0.05622275               -0.41324058               -0.47195206               -0.40561777               15.46463085                5.50167361
              10.26292170                3.44743023               22.96139828                0.31835525                0.19872722               -0.17542766               -0.40649123               -0.12309615                6.09299290                4.23793323
              11.26596742                3.29267606               22.78364228                0.71591762                0.36763649                0.26375489               -1.12041653               -0.00209247                0.09955621                1.54910547
              12.27027443                3.13901452               22.60405346                1.00000000                0.43070041                0.69928123               -1.85204235               -0.04419081                0.01267400               -0.90363635
               2.42818239                5.75549467               23.27657041                1.00000000               -0.20271890               -0.31981651                1.02633510               -0.04466407                0.02011998                1.43438796
               3.42615520                5.59742013               23.08910982                0.60400882               -0.10438677               -0.09748813                0.33665461                0.00327650                0.10571273               -0.92420836
               4.42609465                5.43886100               22.90332411                0.04245543               -0.01657346                0.12997432               -0.34192167               -0.39818240               11.03126015               -3.25741370
               5.42582373                5.27101414               22.93433145                0.00010000               -0.09906433                0.06997950               -0.14959192               -0.83050406               22.53285240               -0.96326269
               6.42411337                5.10253613               22.97815788                0.00010000               -0.19916877               -0.03160456               -0.11477084               -0.90361848               23.27837863                0.63935903
               7.42184036                4.93418460               23.02323922                0.00010000               -0.23166090               -0.18368694               -0.10300860               -0.98276421               23.42122609                2.21377703
               8.41948015                4.76686132               23.06873457                0.00010000               -0.22739413               -0.35135109               -0.11859699               -1.02877478               23.49273968                3.90576258
               9.41729247                4.60175485               23.11364788                0.09766793               -0.16220777               -0.48242618               -0.17225204               -0.75478158               18.13696371                5.77384457
              10.41623599                4.44539953               23.04994990                0.33166531                0.03354052               -0.23339760               -0.00149226               -0.22176225                6.44508383                3.62606971
              11.41796328                4.29488090               22.85973919                0.73622852                0.25487199                0.17643124               -0.77298717               -0.00441425                0.07214923                1.24220753
              12.42133343                4.14543477               22.66822598                1.00000000                0.33701502                0.58588107               -1.56124189               -0.04271044                0.01119770               -1.10690443
               2.58470217                6.75265118               23.22791594                1.00000000               -0.13058117               -0.24945501                0.80484472               -0.04410680                0.02094855                1.40480566
               3.58339636                6.59683427               23.02870199                0.58244666               -0.02503896               -0.01968286                0.07311338                0.00612968                0.12288136               -0.94245349
               4.58420139                6.44058025               22.83148382                0.03323217                0.05751457                0.21477139               -0.64594506               -0.53174071               13.47991858               -3.25004417
               5.58454665                6.27228713               22.89935243                0.00010000               -0.09784555                0.19876395               -0.35135436               -1.12559651               27.12041546               -1.11308396
               6.58224448                6.10269939               22.97448466                0.00010000               -0.30774053                0.08221985               -0.17266382               -1.27579850               27.60964751                0.51164802
               7.57839184                5.93256884               23.05136091                0.00010000               -0.42964923               -0.11866131               -0.02650772               -1.43558523               27.83971988                2.15481089
               8.57365149                5.76328090               23.12992441                0.00010000               -0.50164014               -0.34902929                0.08698867               -1.53378673               28.05651464                3.94096113
               9.56835903                5.59660378               23.20950652                0.10633529               -0.41455463               -0.54176602                0.15788183               -1.11651110               20.52312947                5.94397406
              10.56536040                5.44276228               23.13529370                0.34508234               -0.12575655               -0.29655782                0.38997220               -0.30412281                6.50246331                3.33608641
              11.56584390                5.29620469               22.93348064                0.75663713                0.14760439                0.08783819               -0.43580987               -0.00778257                0.07122466                1.04049714
              12.56831249                5.15073214               22.73038875                1.00000000                0.24685850                0.47507684               -1.27858402               -0.04255990                0.01114605               -1.25100441
               2.73893407                7.75050557               23.17897911                1.00000000               -0.05853500               -0.18054110                0.58378245               -0.04351934                0.02126214                1.37508276
               3.73834872                7.59702647               22.96805372                0.56101880                0.05364529                0.05833114               -0.18914538                0.00890096                0.14396455               -0.96003796
               4.74000698                7.44315643               22.75953425                0.02417031                0.14219677                0.30141122               -0.94746034               -0.64121127               15.86556346               -3.24432454
               5.74119266                7.27498942               22.86296960                0.00010000               -0.08456505                0.34087058               -0.54559303               -1.35441176               31.65632441               -1.21713938
               6.73831568                7.10418053               22.96968443                0.00010000               -0.43227628                0.21819102               -0.22657368               -1.58193675               31.96879099                0.37175254
               7.73254713                6.93181137               23.07859535                0.00010000               -0.67730981               -0.00312440                0.05556227               -1.82949630               32.31223597                1.93577761
               8.72476948                6.75988073               23.19108314                0.00010000               -0.85331297               -0.29661046                0.30787424               -2.02814423               32.75707397                3.73157196
               9.71548087                6.59091953               23.30739504                0.11516229               -0.71084279               -0.57169242                0.52588137               -1.48563172               22.79788725                5.96384018
              10.71055263                6.43946838               23.21881189                0.35862317               -0.28215491               -0.36336506                0.77293440               -0.38171333                6.35904343                3.15727751
              11.70983778                6.29663767               23.00573208                0.77712472                0.04373548               -0.00152648               -0.10548140               -0.01206232                0.07519482                0.92315089
              12.71142734                6.15493631               22.79130143                1.00000000                0.15895601                0.36744480               -1.00169539               -0.04299662                0.01135262               -1.32435535
               2.89078997                8.74904035               23.12972113                1.00000000                0.01335435               -0.11410282                0.36333455               -0.04282541                0.02817524                1.35184406
               3.89092352                8.59800089               22.90719388                0.53970706                0.13121192                0.13767354               -0.44984649                0.01083311                0.17809223               -0.98986164
               4.89341421                8.44660847               22.68761202                0.01530980                0.27553960                0.38875102               -1.24574018               -0.73193859               18.21849174               -3.13728767
               5.89643431                8.27910454               22.82580969                0.00010000                0.01847916                0.42822165               -0.72578655               -1.46452087               36.12791290               -1.14427941
               6.89378379                8.10706321               22.96343195                0.00010000               -0.51663015                0.30486335               -0.27431858               -1.63260947               36.24538772                0.23619205
               7.88610171                7.93250636               23.10297928                0.00010000               -0.99016737                0.18835118                0.13819717               -1.93458745               36.72445483                1.50133434
               8.87398045                7.75734869               23.24910207                0.00010000               -1.35214746               -0.08757543                0.53385042               -2.36473687               37.58685274                3.07321938
               9.85905876                7.58516993               23.40483686                0.12416651               -1.09862254               -0.50829294                0.92237258               -1.90736753               25.15620715                5.51955032
              10.85200800                7.43549498               23.30109324                0.37230552               -0.44620143               -0.42998652                1.14892115               -0.48593875                6.18329519                2.93219372
              11.85013473                7.29617416               23.07723255                0.79768973               -0.05763590               -0.09161392                0.22033134               -0.01874027                0.09909437                0.89565254
              12.85085528                7.15808103               22.85170425                1.00000000                0.07205509                0.26349133               -0.72837454               -0.04373085                0.01932514               -1.34302868
               3.04015650                9.74822351               23.08030409                1.00000000                0.08407732               -0.05125899                0.14531028               -0.04178201               -0.00129091                1.15013631
               4.04099727                9.59977994               22.84585064                0.51856416                0.20540314                0.21869371               -0.71022520                0.01012362                0.31287333               -0.89492610
               5.04426456                9.45093145               22.61762267                0.00671545                0.52251174                0.46994058               -1.53334386               -0.86284918               20.68753038               -2.36365269
               6.05144750                9.28355386               22.79057064                0.00010000                0.39985555                0.23935177               -0.88298189               -1.17049149               40.46882805               -0.68878840
               7.05226167                9.11027780               22.95591886                0.00010000               -0.39388037                0.30050031               -0.31495251               -1.14333987               40.22561614                0.11767441
               8.04356990                8.93557839               23.12188667                0.00010000               -1.37252485                0.37796743                0.20991926               -1.35846769               40.81231208                0.83096630
               9.02481117                8.75812923               23.29777795                0.00010000               -2.21913291                0.40699236                0.73423560               -1.96514726               42.36544557                1.77138325
               9.99918724                8.58075367               23.49460824                0.13339077               -1.74907756               -0.12177294                1.30993524               -1.92354193               27.83124282                3.65278856
              10.98982962                8.43086865               23.38041866                0.38618309               -0.61551605               -0.47834752                1.50868703               -0.65508493                6.39195662                2.06855881
              11.98687692                8.29480539               23.14897773                0.81834849               -0.15453266               -0.18127531                0.54503451               -0.02827745                0.25606659                0.80705012
              12.98673897                8.16020613               22.91202112                1.00000000               -0.01379491                0.16443373               -0.45782929               -0.04588894               -0.01618731               -1.13314024
               3.18684147               10.74801517               23.02698983                1.00000000                0.15765832               -0.02083376               -0.07892394                0.10445627                0.58415825                0.95674444
               4.18841805               10.60237476               22.78679360                0.75255897                0.27709219                0.25948199               -0.95835076                0.14168381                1.30812874               -0.77584680
               5.19238331               10.45600728               22.56101500                0.50067060                1.26300375                0.50758351               -1.76819745               -1.11228397               23.38679407               -1.68745011
               6.21367813               10.28389157               22.76230851                0.44303352                1.32545723                0.03377164               -0.99913146               -0.92364096               44.24069436               -0.39890591
               7.21889246               10.11307321               22.94739834                0.43413521               -0.12986032                0.27954172               -0.34769734               -0.52821450               43.61998823                0.05013287
               8.21108092                9.94006570               23.13286875                0.45184535               -1.46951176                0.44873106                0.25876157               -0.62813104               44.27904062                0.44889825
               9.18950222                9.76548854               23.32971424                0.49438826               -3.16162129                0.73593163                0.87120584               -1.39745669               46.23287455                0.98584941
              10.14784850                9.58273447               23.55474043                0.56977347               -3.23238216                0.19807970                1.56642716               -2.11189985               30.77404514                2.26581318
              11.12485458                9.42592803               23.44556779                0.69761536               -1.38084020               -0.49406174                1.79817445               -1.00679502                7.98171824                1.36086708
              12.12023169                9.29254865               23.21870472                0.91572889               -0.28592840               -0.22567378                0.85686527                0.10756137                1.32257769                0.70765071
              13.11913601                9.16136971               22.97646046                1.00000000               -0.10956800                0.11635746               -0.17071876                0.12180998                0.55654841               -0.92124056
               1.74428861                0.84424440               24.53567081                1.00000000               -0.55841762               -0.61624438                2.11931000               -0.11045894               -1.18780399                1.22938766
               2.73870443                0.66415264               24.39106869                1.00000000               -0.48458447               -0.45167176                1.61204336               -0.06908632               -1.22591448               -0.08142767
               3.73459692                0.48348716               24.24574324                0.68264041               -0.34076878               -0.29137723                1.09758258               -0.06919739               -0.89591054               -1.03753638
               4.73188906                0.30214620               24.10786378                0.51843115               -0.19780105               -0.16132054                0.59492225               -0.07225701                0.96659199               -0.11239878
               5.73064090                0.11992542               24.00058186                0.44925481               -0.04287554               -0.01893026                0.09197511               -0.06996054                3.87425446               -0.10266982
               6.73103155               -0.06292989               23.92239290                0.45164080                0.12638228                0.12819740               -0.43157028               -0.06317588                5.20519418                0.02183568
               7.73316855               -0.24588352               23.84281602                0.52046054                0.29593633                0.27291545               -0.94406197               -0.06450470                3.72085163                0.12280883
               8.73695027               -0.42835919               23.73437524                0.66281479                0.45441125                0.41263055               -1.44383259               -0.06919546                1.06587456                0.18420530
               9.74225677               -0.60997343               23.60041350                0.89881848                0.60294564                0.54873255               -1.95663467               -0.06944773               -0.76480754                0.52421787
              10.74900919               -0.79065246               23.45447272                1.00000000                0.75137153                0.70112451               -2.50573955               -0.07012664               -1.17519558                0.48213689
              11.75728420               -0.97068489               23.31196131                1.00000000                0.82750142                0.88006883               -3.01666914               -0.12472004               -0.99526489               -1.09188571
               1.92327579                1.83808196               24.48247223                1.00000000               -0.48835945               -0.58934358                1.89789073               -0.03728394               -0.00246735                1.55344906
               2.91839219                1.65963592               24.33723906                0.89241270               -0.41838125               -0.41504122                1.39451258                0.00189152                0.14202732               -0.23970151
               3.91490816                1.48057338               24.19488267                0.22761105               -0.27224201               -0.24657117                0.92017185               -0.00846981                1.62939488               -1.75076092
               4.91294735                1.30053299               24.07933876                0.00010000               -0.12144131               -0.11882406                0.47759095               -0.04371279                4.15363313               -1.91134711
               5.91247934                1.11973612               23.98668578                0.00010000                0.01784522               -0.12535297                0.02662761               -0.09050892                6.97742570                0.63208626
               6.91330426                0.93835209               23.92595777                0.00010000                0.13794064               -0.04048035               -0.43673265               -0.10703086                8.58761686                0.80468958
               7.91523815                0.75684564               23.86407741                0.00010000                0.24995083                0.06197887               -0.88254720               -0.09197637                7.01956913                0.84663404
               8.91830328                0.57576711               23.77201944                0.20170318                0.37353883                0.31593698               -1.31180998               -0.07086256                4.28026172                2.25762403
               9.92270893                0.39551389               23.65613551                0.55798892                0.51801876                0.47620203               -1.75386866               -0.03184585                2.24654342                1.88923346
              10.92866365                0.21635878               23.52389176                1.00000000                0.66802516                0.64428143               -2.20716084               -0.00683836                0.82901948                0.90352893
              11.93606943                0.03811580               23.37965551                1.00000000                0.74057798                0.85181841               -2.74086963               -0.05144304                0.23437695               -1.16162483
               2.10043502                2.83245753               24.43579203                1.00000000               -0.41841752               -0.53144023                1.68911640               -0.04671987                0.21078589                1.79422941
               3.09625084                2.65585181               24.28024599                0.67626875               -0.34522845               -0.33474913                1.13187091               -0.00994035                0.46150792               -0.66668185
               4.09353045                2.47855573               24.12969008                0.07896111               -0.21993876               -0.13742269                0.62416403               -0.03696130                2.49422351               -3.13276958
               5.09185207                2.29976972               24.01481049                0.00010000               -0.12594090               -0.14280906                0.27257717               -0.26076146                8.66556250               -1.22601945
               6.09101163                2.11741836               23.98744221                0.00010000               -0.00353260               -0.21238903               -0.00774414               -0.38497635               12.36287682                0.93557237
               7.09178141                1.93626051               23.94512367                0.00010000                0.14511811               -0.23463623               -0.35038612               -0.34151399               11.53541533                1.69156659
               8.09391399                1.75535606               23.89972001                0.00010000                0.25416750               -0.19089103               -0.69484792               -0.19341049               11.26765166                2.29704718
               9.09686476                1.57795955               23.85100476                0.07428435                0.35570955               -0.07581718               -1.02563096               -0.09602328                7.99250223                4.00604975
              10.10102818                1.39955061               23.73905768                0.30335039                0.47028768                0.14797387               -1.38904800               -0.14907872                3.56777998                4.95948235
              11.10627052                1.22223317               23.60165028                0.71190756                0.58565656                0.48877496               -1.88924938               -0.08063834                1.38454754                1.80890868
              12.11274131                1.04635148               23.44580699                1.00000000                0.64707962                0.84437226               -2.46816213               -0.11108759                0.46866506               -1.04125658
               2.27555284                3.82745316               24.38747225                1.00000000               -0.34576471               -0.46454449                1.46880168               -0.04658344                0.04223873                1.62071656
               3.27209519                3.65294094               24.21786027                0.63580311               -0.26509024               -0.25040437                0.85977925               -0.00426335                0.18345327               -0.94260517
               4.27025103                3.47782493               24.05104981                0.05931829               -0.16128466               -0.02764404                0.27072286               -0.19631822                6.10550836               -3.67200736
               5.26886949                3.29767681               23.99987826                0.00010000               -0.09810028               -0.17094695                0.23430392               -0.49960616               13.57763249                0.32953717
               6.26828902                3.11548834               23.98192625                0.00010000               -0.01666058               -0.19007412               -0.04353876               -0.58274032               15.48820034                0.74810408
               7.26853628                2.93365936               23.96775674                0.00010000                0.06909375               -0.26123017               -0.27744592               -0.56696992               15.56459141                1.96784369
               8.26967090                2.75302782               23.95007181                0.00010000                0.18259879               -0.29450053               -0.52246453               -0.51127340               15.04375976                3.26829518
               9.27218826                2.57425077               23.92407266                0.07854935                0.28914166               -0.41206266               -0.79752240               -0.35739695               12.61130385                4.59323123
              10.27545373                2.39847337               23.85638067                0.29979018                0.40308793               -0.16653800               -0.86016552               -0.15737403                5.62239445                5.76444428
              11.28025002                2.22613428               23.68915319                0.68263395                0.50786635                0.33671956               -1.49883780               -0.02216874                0.36913771                2.05446621
              12.28561106                2.05500324               23.51570715                1.00000000                0.53610423                0.82667504               -2.17156475               -0.06750911                0.06403429               -0.82795295
               2.44852779                4.82316664               24.33738102                1.00000000               -0.27339884               -0.39233081                1.24562311               -0.04540933                0.02275641                1.50674322
               3.44579380                4.65084372               24.15526437                0.61387615               -0.18297920               -0.17052837                0.59264028                0.00114060                0.10679098               -0.96027332
               4.44486820                4.47800285               23.97479781                0.04979365               -0.07986336                0.05866532               -0.04916347               -0.37504128                8.89029210               -3.47550830
               5.44419653                4.29635078               23.96832529                0.00010000               -0.07469649               -0.07286165                0.03215441               -0.80028536               18.53858366               -0.75577426
               6.44337427                4.11361688               23.98020130                0.00010000               -0.06469970               -0.15346810               -0.08471825               -0.87831806               19.59867877                0.80346225
               7.44290254                3.93103590               23.99375791                0.00010000               -0.01385792               -0.26000264               -0.21140550               -0.91206675               19.69739799                2.19064193
               8.44309712                3.74946605               24.00618387                0.00010000                0.06843646               -0.38345432               -0.35360556               -0.90060517               19.57715749                3.74434550
               9.44427127                3.56971829               24.01565812                0.08679747                0.14500360               -0.49350597               -0.52352907               -0.67565932               16.14088251                5.65846497
              10.44599719                3.39621985               23.95726436                0.31246306                0.25130024               -0.24248101               -0.42070200               -0.23142091                6.50856802                4.44768996
              11.44929727                3.22896756               23.77236473                0.70103406                0.38280126                0.24389250               -1.13492557               -0.00473806                0.10907453                1.63246630
              12.45365321                3.06288498               23.58544911                1.00000000                0.43559404                0.72731251               -1.86807460               -0.04365677                0.01333427               -0.93730692
               2.61929049                5.81960654               24.28681679                1.00000000               -0.20086955               -0.32024306                1.02317660               -0.04491839                0.01998340                1.46674195
               3.61728179                5.64953037               24.09242645                0.59262499               -0.10236692               -0.09233679                0.32633015                0.00476749                0.11132140               -0.97764367
               4.61724315                5.47899824               23.89982564                0.04062125               -0.00160164                0.14123557               -0.35861637               -0.54234940               11.47779192               -3.39511344
               5.61724976                5.29621958               23.93272051                0.00010000               -0.06028034                0.05262593               -0.17461019               -1.13945601               23.34879892               -1.05434892
               6.61603754                5.11241898               23.97685102                0.00010000               -0.14019890               -0.06482079               -0.14860078               -1.24844238               24.01883883                0.63463220
               7.61444578                4.92845931               24.02199797                0.00010000               -0.15305685               -0.23208310               -0.14717051               -1.34814860               24.15269870                2.27961952
               8.61297640                4.74535873               24.06727882                0.00010000               -0.12622547               -0.41585648               -0.17428126               -1.39971591               24.20862156                4.03032129
               9.61192127                4.56438065               24.11159234                0.09519334               -0.07001772               -0.56228548               -0.24032952               -1.04766908               18.98060002                5.94715088
              10.61157605                4.39362375               24.04987825                0.32549098                0.07844289               -0.28156779               -0.01344244               -0.33790982                6.94635700                3.80807859
              11.61349013                4.23101213               23.85194477                0.72081669                0.26635181                0.16338146               -0.78597466               -0.00737126                0.08099942                1.31061121
              12.61690309                4.06954949               23.65253362                1.00000000                0.34129576                0.60758579               -1.57681681               -0.04231338                0.01152896               -1.15065825
               2.78778176                6.81676178               24.23594451                1.00000000               -0.12843105               -0.24936378                0.80105064               -0.04431595                0.02073860                1.43713313
               3.78649745                6.64899699               24.02937640                0.57152324               -0.02248800               -0.01441825                0.06139710                0.00782699                0.12926440               -0.99396111
               4.78733200                6.48082756               23.82493549                0.03159513                0.07446091                0.22552123               -0.66457331               -0.68849962               13.99878262               -3.38321243
               5.78798667                6.29740330               23.89569858                0.00010000               -0.05831527                0.19671505               -0.38132309               -1.45602498               28.10298556               -1.19973531
               6.78616570                6.11232046               23.97256552                0.00010000               -0.24934283                0.06296347               -0.21339105               -1.63961536               28.53561660                0.50687418
               7.78299982                5.92639424               24.05084072                0.00010000               -0.34921207               -0.15825996               -0.07998088               -1.82330022               28.75185203                2.22195218
               8.77918146                5.74114892               24.13046460                0.00010000               -0.39734757               -0.40706189                0.01847286               -1.93274511               28.95058623                4.07639273
               9.77505286                5.55847258               24.21066942                0.10371939               -0.32869742               -0.61029606                0.07191826               -1.42306490               21.51977312                6.14743970
              10.77260751                5.39058849               24.13914870                0.33864084               -0.09143780               -0.32972170                0.38039983               -0.41801734                7.06738173                3.50415929
              11.77322411                5.23223519               23.92906479                0.74072292                0.15623591                0.07999758               -0.44757390               -0.01071862                0.08022502                1.09891814
              12.77573223                5.07503669               23.71752341                1.00000000                0.25081194                0.49192384               -1.29432891               -0.04226362                0.01141768               -1.30192650
               2.95393376                7.81461926               24.18479472                1.00000000               -0.05612054               -0.18005227                0.57947155               -0.04369080                0.02093517                1.40765074
               3.95337255                7.64924200               23.96610022                0.55056838                0.05665451                0.06354563               -0.20189894                0.01072610                0.15126467               -1.00936667
               4.95506685                7.48350866               23.74996376                0.02273004                0.16319036                0.31142966               -0.96742055               -0.80324169               16.45919714               -3.37290209
               5.95663636                7.30015388               23.85735587                0.00010000               -0.04062763                0.35067672               -0.57897408               -1.69194786               32.80569861               -1.29249590
               6.95425429                7.11367825               23.96719852                0.00010000               -0.37425174                0.21086912               -0.27306361               -1.95350624               33.07902872                0.36998650
               7.94915132                6.92529411               24.07885650                0.00010000               -0.60055673               -0.03072049               -0.00633627               -2.22543020               33.41089846                2.00252524
               8.94224316                6.73721749               24.19377747                0.00010000               -0.75654621               -0.34145646                0.22749626               -2.44025407               33.84577238                3.87364356
               9.93402040                6.55217473               24.31215983                0.11240224               -0.63950291               -0.62249439                0.42286402               -1.79543304               23.93538468                6.19782965
              10.92945310                6.38702932               24.22650844                0.35191693               -0.25964203               -0.38453693                0.76578969               -0.48910649                6.96392691                3.31604394
              11.92882756                6.23261208               24.00462550                0.76072229                0.05008514               -0.00548303               -0.11607407               -0.01489456                0.08471951                0.97524667
              12.93045480                6.07938797               23.78120392                1.00000000                0.16272454                0.38037798               -1.01780378               -0.04278959                0.01164796               -1.37991829
               3.11766247                8.81316074               24.13332995                1.00000000                0.01601084               -0.11324887                0.35852752               -0.04298793                0.02790746                1.38568408
               4.11782258                8.65026790               23.90262907                0.52974309                0.13464105                0.14271849               -0.46336381                0.01261612                0.18682713               -1.03765792
               5.12035529                8.48705616               23.67505341                0.01406985                0.30777748                0.39763208               -1.26655462               -0.89374092               18.89248747               -3.25751946
               6.12397813                8.30441683               23.81838213                0.00010000                0.08000271                0.43971942               -0.76145434               -1.78841588               37.44569241               -1.20234071
               7.12195535                8.11653785               23.96044719                0.00010000               -0.45130810                0.29906731               -0.32527159               -1.97354869               37.53405734                0.23698234
               8.11495197                7.92577983               24.10403536                0.00010000               -0.92297942                0.17573998                0.06952544               -2.29446322               38.01116527                1.55819394
               9.10349576                7.73431979               24.25401319                0.00010000               -1.28097951               -0.10592346                0.44396859               -2.75128888               38.88623056                3.20169035
              10.08933238                7.54602270               24.41350828                0.12127340               -1.05538670               -0.52948427                0.80629438               -2.21307423               26.42885403                5.76198142
              11.08238802                7.38289776               24.31256222                0.36534581               -0.43824054               -0.44142352                1.14443584               -0.58877619                6.81012713                3.07863197
              12.08056757                7.23212553               24.07939032                0.78080920               -0.05316784               -0.09274313                0.21102450               -0.02166146                0.11035098                0.94475400
              13.08132467                7.08264425               23.84433889                1.00000000                0.07571009                0.27310619               -0.74474088               -0.04360312                0.02009544               -1.40159458
               3.27885967                9.81235429               24.08173002                1.00000000                0.08697843               -0.05001716                0.13993003               -0.04194107               -0.00420252                1.18188840
               4.27972945                9.65209637               23.83867773                0.50906964                0.20917132                0.22358407               -0.72445516                0.01158007                0.32659306               -0.93611464
               5.28304309                9.49146130               23.60218359                0.00567383                0.58284478                0.47769320               -1.55474745               -1.02743538               21.45276642               -2.45130882
               6.29138635                9.30894827               23.78156274                0.00010000                0.51886136                0.21065032               -0.92023143               -1.41004572               41.95440073               -0.71929831
               7.29342032                9.11965959               23.95251247                0.00010000               -0.29531164                0.28465670               -0.36908664               -1.37116378               41.67976449                0.11820796
               8.28548012                8.92880891               24.12363786                0.00010000               -1.32229036                0.38063412                0.13648213               -1.58928471               42.27429644                0.86376079
               9.26697451                8.73509902               24.30466434                0.00010000               -2.21495839                0.43038919                0.63797992               -2.23286581               43.88155772                1.85177165
              10.24118095                8.54158504               24.50712392                0.13036505               -1.76998845               -0.07422707                1.18640893               -2.16139867               29.24517339                3.82534157
              11.23157475                8.37820085               24.39549768                0.37896665               -0.62665584               -0.48120742                1.50677020               -0.76240153                7.04309417                2.17119162
              12.22864783                8.23075722               24.15438963                0.80097879               -0.15147286               -0.18049690                0.53724992               -0.03156796                0.27564208                0.84912138
              13.22854529                8.08485009               23.90736112                1.00000000               -0.01025423                0.17134271               -0.47417488               -0.04589015               -0.01680885               -1.18451277
               3.43733948               10.81216039               24.02617028                1.00000000                0.16076878               -0.01938933               -0.08498363                0.10589972                0.59675560                0.98530835
               4.43894716               10.65473958               23.77713490                0.74795281                0.28076050                0.26432092               -0.97342656                0.14425254                1.35610540               -0.81081092
               5.44295469               10.49661002               23.54322455                0.50021199                1.43158797                0.51487178               -1.79020674               -1.31432792               24.25753215               -1.74837516
               6.46757892               10.30862984               23.75213331                0.44344981                1.58583719               -0.03184307               -1.03758967               -1.09969439               45.88425756               -0.42208502
               7.47467143               10.12223098               23.94365481                0.43432616                0.00739595                0.25713885               -0.40386179               -0.63675545               45.21584526                0.04434578
               8.46772684                9.93339251               24.13509442                0.45165573               -1.43045617                0.45836031                0.18241602               -0.74049764               45.88479827                0.46139627
               9.44606231                9.74292757               24.33795314                0.49372408               -3.23621328                0.78285514                0.77131703               -1.53393862               47.91240120                1.02592907
              10.40300258                9.54453815               24.56980541                0.56821579               -3.40472467                0.29531117                1.43940125               -2.30053535               32.33368941                2.37765245
              11.37796781                9.37327361               24.46354623                0.69392660               -1.48578081               -0.49272407                1.79728456               -1.16182148                8.71591852                1.42833035
              12.37328696                9.22851559               24.22724150                0.90689622               -0.28733461               -0.22416331                0.85056111                0.10378803                1.39444502                0.74324658
              13.37222112                9.08607111               23.97467492                1.00000000               -0.10658394                0.12210142               -0.18626275                0.12313512                0.58430335               -0.96417334
               1.87936161                0.91101801               25.55688135                1.00000000               -0.56033425               -0.61817563                2.12297613               -0.10980548               -1.22514064                1.26414994
               2.87375827                0.71821609               25.40719262                1.00000000               -0.48852289               -0.45168379                1.61243915               -0.06850882               -1.26689155               -0.08974647
               3.86959116                0.52478660               25.25670664                0.67948993               -0.36369210               -0.28785063                1.09429212               -0.09033204               -0.93422200               -1.05130760
               4.86648443                0.33011795               25.11378657                0.51783301               -0.25594146               -0.16002657                0.58845607               -0.11412806                0.93296279               -0.11577593
               5.86447233                0.13310894               25.00144665                0.44931183               -0.10799120               -0.01697031                0.07960880               -0.10849516                3.82959272               -0.10550068
               6.86432461               -0.06623748               24.91798325                0.45145401                0.11349653                0.13062766               -0.45185689               -0.08357285                5.15613276                0.02388560
               7.86674226               -0.26618882               24.83325280                0.51932063                0.34215370                0.27744975               -0.97009646               -0.09200422                3.68459270                0.12934691
               8.87116768               -0.46477594               24.71981205                0.65974126                0.50901252                0.41895875               -1.47003619               -0.09986322                1.03154244                0.19287953
               9.87692251               -0.66141859               24.58073650                0.89197570                0.63409555                0.55375518               -1.97943760               -0.08667577               -0.82248910                0.53287676
              10.88384959               -0.85655900               24.42930835                1.00000000                0.76433122                0.70536207               -2.52723652               -0.07134434               -1.23132197                0.51999330
              11.89220913               -1.05094541               24.28169631                1.00000000                0.83595420                0.88721019               -3.03611712               -0.12421195               -1.03194147               -1.14502508
               2.07106548                1.90483625               25.50146234                1.00000000               -0.48765905               -0.59193952                1.90031859               -0.03677398                0.01121577                1.59430454
               3.06618889                1.71369925               25.35118312                0.87645075               -0.41642845               -0.41456341                1.39399178                0.00209048                0.17098828               -0.27129406
               4.06273691                1.52190810               25.20408456                0.22278102               -0.25034536               -0.24105757                0.91947126               -0.03851496                1.68900607               -1.82549766
               5.06118198                1.32851768               25.08409522                0.00010000               -0.05859101               -0.11562149                0.47265030               -0.14988125                4.22638454               -1.95751371
               6.06156509                1.13293924               24.98690513                0.00010000                0.09778880               -0.18260543                0.01638559               -0.27794342                7.04234012                0.64299504
               7.06313776                0.93506880               24.92150048                0.00010000                0.17631788               -0.07335394               -0.45521337               -0.33771375                8.66022585                0.85083919
               8.06509145                0.73658568               24.85512760                0.00010000                0.23230883                0.06145512               -0.90767976               -0.28852123                7.11754125                0.91544102
               9.06778393                0.53941365               24.75877165                0.19740494                0.34279162                0.30728682               -1.33785626               -0.17401723                4.38582201                2.34297728
              10.07194728                0.34411896               24.63847363                0.54773402                0.50578124                0.47334294               -1.77837644               -0.07077321                2.34203332                1.98061314
              11.07789956                0.15049462               24.50172047                1.00000000                0.67030736                0.64682334               -2.22653074               -0.01278659                0.87771768                0.95050283
              12.08535343               -0.04207331               24.35214801                1.00000000                0.74538682                0.86012381               -2.75968534               -0.05150585                0.24134054               -1.21664853
               2.26090013                2.89917922               25.45268681                1.00000000               -0.41718956               -0.53462216                1.69007571               -0.04741137                0.21562925                1.83530524
               3.25672824                2.70992482               25.29154106                0.66256049               -0.34488520               -0.33206027                1.12680224               -0.01114307                0.49233812               -0.72559492
               4.25400243                2.51996545               25.13590492                0.07604426               -0.21362876               -0.12644413                0.61802675               -0.07598902                2.63092789               -3.29671298
               5.25245566                2.32780552               25.01754007                0.00010000               -0.08200440               -0.18757312                0.27259683               -0.47002522                8.91491144               -1.23726958
               6.25236234                2.12945683               24.98729435                0.00010000                0.07341123               -0.30280751               -0.02270857               -0.73537436               12.62332734                0.95794519
               7.25392389                1.93229544               24.94150962                0.00010000                0.21323206               -0.30216617               -0.37294149               -0.71259178               11.77509737                1.77205326
               8.25662698                1.73504028               24.89263364                0.00010000                0.31150817               -0.22064477               -0.72251517               -0.54078476               11.52418508                2.41679450
               9.26015405                1.54136979               24.84060423                0.07198558                0.38995418               -0.10913613               -1.05394560               -0.31658002                8.25334757                4.13533781
              10.26442607                1.34804827               24.72506208                0.29714581                0.48160391                0.09356618               -1.40919381               -0.22252815                3.74685329                5.21374527
              11.26978613                1.15637747               24.58266067                0.69576368                0.59444057                0.47430316               -1.90754762               -0.10225376                1.45420668                1.90142914
              12.27631488                0.96625707               24.42103017                1.00000000                0.65287489                0.86606376               -2.48558049               -0.12636617                0.49824002               -1.08673527
               2.44862604                3.89414381               25.40215525                1.00000000               -0.34462481               -0.46706923                1.46806437               -0.04684241                0.04118026                1.65440747
               3.44517979                3.70705805               25.22642366                0.62331883               -0.26448037               -0.24562233                0.85261326               -0.00383237                0.19262438               -1.00279658
               4.44333644                3.51937921               25.05369810                0.05701613               -0.14448497               -0.01353451                0.25812599               -0.28951443                6.40273618               -3.84593224
               5.44229010                3.32476622               25.00216608                0.00010000               -0.04843796               -0.24378604                0.22124005               -0.73758703               14.03799523                0.31393841
               6.44236768                3.12688309               24.98139187                0.00010000                0.05061861               -0.24904369               -0.06448066               -0.90374162               15.85764472                0.76452236
               7.44330247                2.92902547               24.96484165                0.00010000                0.14168603               -0.32406253               -0.30628665               -0.91482460               15.96185272                2.03461018
               8.44520140                2.73217278               24.94467520                0.00010000                0.25709398               -0.35262304               -0.55699782               -0.84906772               15.43232664                3.37357068
               9.44844435                2.53723092               24.91590464                0.07626801                0.36438224               -0.47339382               -0.83529333               -0.63032590               13.10663154                4.71375430
              10.45248904                2.34599029               24.84769627                0.29401390                0.46006696               -0.25809106               -0.87635379               -0.26449267                5.94743740                6.04543865
              11.45764569                2.15998069               24.67408384                0.66808734                0.52889339                0.30781691               -1.51413262               -0.02821404                0.38658696                2.16438208
              12.46306691                1.97524797               24.49390835                0.99285973                0.54212232                0.85924247               -2.18659745               -0.07039825                0.06466982               -0.85840957
               2.63413481                4.88983783               25.34982691                1.00000000               -0.27186224               -0.39388948                1.24381084               -0.04571133                0.02261219                1.53916508
               3.63141619                4.70501238               25.16114629                0.60189745               -0.18154195               -0.16514104                0.58341068                0.00249531                0.11242887               -1.01704692
               4.63050397                4.51969476               24.97423100                0.04770043               -0.06080695                0.07209200               -0.06503779               -0.50312915                9.26352260               -3.62503238
               5.63020005                4.32292979               24.96854506                0.00010000               -0.02378586               -0.11061721                0.00981642               -1.08672836               19.18491784               -0.85280370
               6.63002825                4.12447596               24.97921462                0.00010000                0.00688247               -0.20092687               -0.11408799               -1.21352981               20.15253453                0.80426576
               7.63033770                3.92581419               24.99146180                0.00010000                0.07059620               -0.31656501               -0.24886272               -1.26620348               20.25155446                2.24998241
               8.63144018                3.72798782               25.00242415                0.00010000                0.16961661               -0.44928843               -0.39884089               -1.25277298               20.12307976                3.84952701
               9.63373003                3.53190192               25.01016271                0.08436861                0.24731363               -0.57721745               -0.57516533               -0.96203423               16.83351288                5.80199255
              10.63638645                3.34288645               24.95298424                0.30642894                0.31170685               -0.31567585               -0.43548802               -0.35232230                6.94378226                4.65975387
              11.63996417                3.16253381               24.76094377                0.68606785                0.39929506                0.22061910               -1.14889612               -0.00811540                0.11894138                1.71656751
              12.64437235                2.98344192               24.56669197                1.00000000                0.44081842                0.75496656               -1.88237247               -0.04321876                0.01377726               -0.97207486
               2.81736273                5.88626602               25.29703394                1.00000000               -0.19899575               -0.32109640                1.02044719               -0.04516149                0.01985968                1.49930747
               3.81537278                5.70375523               25.09563642                0.58110076               -0.10031497               -0.08655520                0.31526294                0.00647554                0.11740133               -1.03254541
               4.81535643                5.52082105               24.89615178                0.03872485                0.02007778                0.15415586               -0.37706653               -0.69252350               11.92386940               -3.53567831
               5.81577433                5.32255387               24.93083925                0.00010000               -0.00718744                0.03636319               -0.20353107               -1.45901160               24.16301897               -1.15103935
               6.81521268                5.12286455               24.97518586                0.00010000               -0.06538996               -0.09932909               -0.18613499               -1.60366439               24.75631993                0.62303558
               7.81446653                4.92269417               25.02029581                0.00010000               -0.05772380               -0.28324162               -0.19474539               -1.72427144               24.87882895                2.33694993
               8.81405821                4.72318701               25.06524895                0.00010000               -0.00807473               -0.48388574               -0.23282001               -1.78066269               24.91682785                4.14369161
               9.81430504                4.52568657               25.10884129                0.09262185                0.03762490               -0.64584180               -0.31045858               -1.35849421               19.84887216                6.10519199
              10.81481071                4.33967677               25.04968106                0.31918106                0.13114370               -0.33355851               -0.02638998               -0.46836476                7.47791029                3.99276599
              11.81692791                4.16439307               24.84401969                0.70534750                0.27878058                0.14842550               -0.79903550               -0.01099757                0.09045324                1.37921656
              12.82038632                3.99034730               24.63668965                1.00000000                0.34584074                0.62906944               -1.59154896               -0.04201523                0.01171784               -1.19700598
               2.99825317                6.88341591               25.24393695                1.00000000               -0.12625013               -0.24964388                0.79755503               -0.04451138                0.02057850                1.46975678
               3.99699067                6.70328127               25.02992993                0.56047762               -0.01991563               -0.00843828                0.04886061                0.00970858                0.13626154               -1.04636673
               4.99785486                6.52277788               24.81819235                0.02988933                0.09928274                0.23797029               -0.68498093               -0.85226861               14.51621333               -3.51822527
               5.99897632                6.32365706               24.89172597                0.00010000               -0.00200942                0.19510424               -0.41500843               -1.79954778               29.08189042               -1.28995225
               6.99781467                6.12248937               24.97021684                0.00010000               -0.17232586                0.04170224               -0.25829221               -2.01623805               29.45687917                0.49661309
               7.99552980                5.92014936               25.04976129                0.00010000               -0.24900720               -0.20134689               -0.13792096               -2.22298243               29.65624294                2.28137503
               8.99283452                5.71831011               25.13029387                0.00010000               -0.27297057               -0.46910002               -0.05455367               -2.34204417               29.83326012                4.20110933
               9.99007039                5.51898508               25.21094488                0.10100556               -0.22609305               -0.68246590               -0.01885793               -1.74711367               22.55008177                6.33587973
              10.98831266                5.33621528               25.14290170                0.33206724               -0.04983525               -0.36505181                0.36967086               -0.54639895                7.67428853                3.67531101
              11.98907369                5.16550232               24.92452917                0.72475972                0.16554629                0.07119983               -0.45973606               -0.01415967                0.09003903                1.15749638
              12.99162359                4.99602330               24.70450217                1.00000000                0.25499002                0.50875847               -1.30988319               -0.04204422                0.01163547               -1.35596632
               3.17674177                7.88127314               25.19056854                1.00000000               -0.05367977               -0.17985836                0.57536070               -0.04383269                0.02068387                1.44053256
               4.17620498                7.70358646               24.96401574                0.53998828                0.05967503                0.06944749               -0.21542210                0.01266231                0.15929419               -1.05896155
               5.17793527                7.52558046               24.74018584                0.02122154                0.19334506                0.32301897               -0.98899167               -0.97372263               17.05067569               -3.50216234
               6.18007188                7.32645596               24.85139012                0.00010000                0.02301750                0.35968965               -0.61590906               -2.04519033               33.94947046               -1.36973234
               7.17839562                7.12369859               24.96422316                0.00010000               -0.29428637                0.19997651               -0.32420400               -2.33958418               34.18231871                0.36432079
               8.17418615                6.91866723               25.07846863                0.00010000               -0.50070120               -0.06302422               -0.07383259               -2.63321850               34.49919993                2.06320048
               9.16838160                6.71380501               25.19563306                0.00010000               -0.63642781               -0.39072401                0.14060133               -2.86161821               34.91937355                4.00699686
              10.16145759                6.51203726               25.31585232                0.10954378               -0.55080539               -0.67698105                0.31238832               -2.12064366               25.11579739                6.41955467
              11.15736549                6.33237573               25.23412768                0.34507465               -0.23104511               -0.40684461                0.75767516               -0.61021778                7.62233605                3.47821956
              12.15683669                6.16581706               25.00341060                0.74427045                0.05689839               -0.00986040               -0.12713649               -0.01809355                0.09530190                1.02766732
              13.15850346                6.00052247               24.77094535                1.00000000                0.16667691                0.39343152               -1.03409758               -0.04263612                0.01197202               -1.43850953
               3.35274988                8.87981874               25.13689168                1.00000000                0.01867197               -0.11260938                0.35388110               -0.04308946                0.02771270                1.41974344
               4.35293660                8.70467022               24.89792661                0.51963082                0.13805145                0.14826819               -0.47739299                0.01450513                0.19634109               -1.08524002
               5.35551091                8.52923826               24.66228093                0.01275862                0.35088916                0.40768395               -1.28851241               -1.06598841               19.56364958               -3.37746111
               6.35995438                8.33085085               24.81058060                0.00010000                0.16504002                0.44803773               -0.80045749               -2.13072940               38.75601877               -1.26106655
               7.35881171                8.12648891               24.95692652                0.00010000               -0.35976834                0.28678731               -0.38127080               -2.32878806               38.81364016                0.23543982
               8.35275901                7.91888887               25.10436979                0.00010000               -0.82897845                0.15636613               -0.00578458               -2.66377397               39.28532934                1.61115109
               9.34223214                7.71049563               25.25798144                0.00010000               -1.18361059               -0.12901558                0.34566275               -3.14343741               40.16796553                3.32449703
              10.32908680                7.50544546               25.42096275                0.11827924               -0.99518197               -0.55369390                0.67961572               -2.53087313               27.75263981                5.99697960
              11.32232850                7.32807839               25.32398196                0.35824374               -0.42608595               -0.45336311                1.13919139               -0.70400224                7.50005998                3.22854689
              12.32056508                7.16530511               25.08145304                0.76386521               -0.04842187               -0.09402108                0.20133968               -0.02484157                0.12280346                0.99444335
              13.32136006                7.00389193               24.83680943                1.00000000                0.07949784                0.28286895               -0.76141731               -0.04350055                0.02095548               -1.46278420
               3.52617702                9.87902095               25.08310269                1.00000000                0.08985423               -0.04889555                0.13465247               -0.04204003               -0.00711672                1.21370575
               4.52707556                9.70655182               24.83136153                0.49942995                0.21289287                0.22869950               -0.73874334                0.01312388                0.34107996               -0.97701636
               5.53043488                9.53373414               24.58652772                0.00456241                0.65655395                0.48598035               -1.57657786               -1.20552338               22.21449370               -2.53836981
               6.54020664                9.33541671               24.77216602                0.00010000                0.66734824                0.17289479               -0.96056858               -1.66605788               43.43094384               -0.74988068
               7.54378184                9.12943434               24.94853712                0.00010000               -0.16513463                0.25932727               -0.42851079               -1.60928036               43.12317537                0.11770537
               8.53690395                8.92179456               25.12461631                0.00010000               -1.24127885                0.37458244                0.05568791               -1.82450499               43.72238090                0.89479711
               9.51895626                8.71122470               25.31053755                0.00010000               -2.18232874                0.44669484                0.53193745               -2.50120312               45.37926733                1.92980847
              10.49325737                8.50096338               25.51833642                0.12723400               -1.77652322               -0.02604565                1.04947342               -2.40369186               30.71679127                3.99521233
              11.48342580                8.32330847               25.41055406                0.37160421               -0.63655309               -0.48404290                1.50434499               -0.88091858                7.76399798                2.27632108
              12.48052631                8.16393664               25.15972272                0.78354479               -0.14830002               -0.17976323                0.52931368               -0.03509005                0.29666216                0.89193166
              13.48045980                8.00617985               24.90253762                1.00000000               -0.00665117                0.17833592               -0.49074594               -0.04592082               -0.01736071               -1.23775504
               3.69684734               10.87884083               25.02529015                1.00000000                0.16385551               -0.01801267               -0.09099100                0.10737008                0.60909542                1.01385746
               4.69848589               10.70924421               24.76732507                0.74327651                0.28441070                0.26923871               -0.98831929                0.14688475                1.40463601               -0.84567556
               5.70253555               10.53895786               24.52521087                0.49971806                1.62235642                0.52237259               -1.81255596               -1.53670584               25.12426025               -1.80885095
               6.73093302               10.33430875               24.74155672                0.44384539                1.88563518               -0.11079651               -1.07918603               -1.29148270               47.51785493               -0.44529462
               7.74024825               10.13167545               24.93932111                0.43451633                0.17727650                0.22411109               -0.46543517               -0.74977000               46.79988276                0.03798019
               8.73447855                9.92638052               25.13651707                0.45146310               -1.36045000                0.45859647                0.09852489               -0.85483611               47.47571016                0.47295558
               9.71303925                9.71942952               25.34514058                0.49303689               -3.27746767                0.82048217                0.66125023               -1.66449971               49.57349336                1.06493530
              10.66892920                9.50492455               25.58352846                0.56660702               -3.56511963                0.39611702                1.29809467               -2.48441753               33.95518232                2.48832770
              11.64173686                9.31839753               25.48151348                0.69016006               -1.59686454               -0.49109429                1.79613715               -1.32962904                9.52407915                1.49738877
              12.63699191                9.16170984               25.23571595                0.89803010               -0.28908117               -0.22267985                0.84444299                0.09961566                1.46904277                0.77956559
              13.63595524                9.00745865               24.97273520                1.00000000               -0.10366674                0.12788065               -0.20174299                0.12442463                0.61279631               -1.00841011
               2.01916325                0.98036541               26.57813033                1.00000000               -0.56219449               -0.62028154                2.12707866               -0.10934085               -1.26270136                1.29884946
               3.01354130                0.77437670               26.42331747                1.00000000               -0.49223613               -0.45151041                1.61216365               -0.06816840               -1.30828424               -0.09888389
               4.00931853                0.56770516               26.26762908                0.67624060               -0.38664983               -0.28400099                1.08926326               -0.11239912               -0.97274975               -1.06333483
               5.00580831                0.35921339               26.11963290                0.51718131               -0.31412242               -0.15841645                0.57971919               -0.15571915                0.89804263               -0.11933466
               6.00303608                0.14689844               26.00217404                0.44935865               -0.17301292               -0.01501221                0.06472172               -0.14652136                3.78043143               -0.10850255
               7.00234805               -0.06948664               25.91335577                0.45125851                0.09977599                0.13291391               -0.47516906               -0.10340378                5.10122430                0.02546342
               8.00503160               -0.28704616               25.82341409                0.51816246                0.38746883                0.28197871               -0.99967016               -0.11808776                3.64540022                0.13549061
               9.01009743               -0.50242081               25.70497451                0.65658600                0.56395486                0.42552808               -1.49956414               -0.12957318                0.99869348                0.20141344
              10.01631069               -0.71479014               25.56082475                0.88500676                0.66627543                0.55907251               -2.00440012               -0.10379389               -0.87772781                0.53987064
              11.02342293               -0.92507685               25.40392799                1.00000000                0.77793687                0.70933655               -2.54955904               -0.07286352               -1.28543444                0.56040781
              12.03186943               -1.13448879               25.25123896                1.00000000                0.84464981                0.89377513               -3.05564812               -0.12402099               -1.06600906               -1.19611296
               2.22405855                1.97416259               26.52047860                1.00000000               -0.48688062               -0.59473360                1.90322368               -0.03630734                0.02604020                1.63495488
               3.21918974                1.76986160               26.36511889                0.86025235               -0.41411787               -0.41386629                1.39282336                0.00203750                0.20249323               -0.30553001
               4.21577619                1.56486515               26.21327209                0.21783050               -0.22676323               -0.23486154                0.91714916               -0.07004487                1.75068392               -1.90250525
               5.21465448                1.35762923               26.08879177                0.00010000                0.00723445               -0.11299635                0.46567335               -0.25821374                4.29881704               -2.00194265
               6.21592088                1.14674832               25.98701349                0.00010000                0.18159189               -0.24039583                0.00488920               -0.46570886                7.10411520                0.65039711
               7.21828631                0.93184250               25.91685350                0.00010000                0.21984627               -0.10764809               -0.47424366               -0.56893349                8.72673456                0.89369098
               8.22031780                0.71577362               25.84592382                0.00010000                0.21936855                0.05952548               -0.93310604               -0.48682729                7.21117130                0.98208956
               9.22267368                0.50183447               25.74526232                0.19298185                0.31414864                0.29770615               -1.36406121               -0.27835987                4.49082842                2.42704632
              10.22660078                0.29080058               25.62056798                0.53729122                0.49349673                0.46965053               -1.80259663               -0.11099172                2.44040886                2.07361993
              11.23254362                0.08201652               25.47936114                1.00000000                0.67201923                0.64876151               -2.24460258               -0.01939971                0.92887820                0.99959860
              12.24004116               -0.12555103               25.32446181                1.00000000                0.74975416                0.86726076               -2.77630077               -0.05187206                0.24835337               -1.26931403
               2.42703909                2.96847073               26.46959355                1.00000000               -0.41596023               -0.53806925                1.69161473               -0.04808279                0.21955196                1.87593378
               3.42287949                2.76609937               26.30278203                0.64872599               -0.34445472               -0.32909082                1.12106851               -0.01238603                0.52475373               -0.78776132
               4.42015000                2.56300793               26.14205062                0.07305615               -0.20593124               -0.11424767                0.61025274               -0.11793833                2.77561557               -3.46744190
               5.41876087                2.35695346               26.02026243                0.00010000               -0.03206862               -0.23393184                0.27134384               -0.68181264                9.16554611               -1.25507384
               6.41950863                2.14209053               25.98698804                0.00010000                0.15916052               -0.39449013               -0.03908701               -1.08737956               12.87677947                0.97314140
               7.42194408                1.92836040               25.93766484                0.00010000                0.28972261               -0.37215581               -0.39616614               -1.08712396               12.01124486                1.84553158
               8.42530308                1.71414435               25.88526971                0.00010000                0.37795985               -0.25324548               -0.75003177               -0.89452206               11.77911210                2.53037612
               9.42950327                1.50353332               25.82992585                0.06958961                0.43028696               -0.14335468               -1.08084647               -0.54576774                8.51753635                4.25807600
              10.43390882                1.29460287               25.71087380                0.29081188                0.49416412                0.03296993               -1.42671457               -0.30062137                3.93048984                5.47156288
              11.43938655                1.08789838               25.56349933                0.67957236                0.60291401                0.45611525               -1.92270753               -0.12601884                1.52443025                1.99574482
              12.44596710                0.88285643               25.39609538                1.00000000                0.65805422                0.88621465               -2.49871458               -0.14348215                0.52752170               -1.13000500
               2.62783961                3.96340121               26.41683354                1.00000000               -0.34347916               -0.46997427                1.46791674               -0.04703364                0.04000200                1.68778346
               3.62440482                3.76327978               26.23491253                0.61069505               -0.26381396               -0.24046742                0.84489974               -0.00311073                0.20218067               -1.06510605
               4.62256333                3.56258020               26.05621233                0.05464157               -0.12345953                0.00202949                0.24396379               -0.38696529                6.70299166               -4.02567706
               5.62193563                3.35295059               26.00430306                0.00010000                0.01015090               -0.31659623                0.20441903               -0.97856349               14.50057319                0.28553187
               6.62276635                3.13885852               25.98063664                0.00010000                0.12771923               -0.30911595               -0.08735859               -1.22758015               16.22498678                0.77238793
               7.62449001                2.92439938               25.96163101                0.00010000                0.22440473               -0.38895062               -0.33618590               -1.26848912               16.35647825                2.09277303
               8.62725445                2.71070872               25.93893185                0.00010000                0.34048986               -0.41307548               -0.59138239               -1.19386387               15.81918810                3.46921116
               9.63129981                2.49896738               25.90736679                0.07389413                0.44844189               -0.53559135               -0.87083167               -0.91852888               13.61156344                4.82215971
              10.63622328                2.29145998               25.83885359                0.28809177                0.52349340               -0.35863600               -0.89121438               -0.38227999                6.28269196                6.32763210
              11.64176968                2.09113882               25.65887053                0.65345813                0.55160713                0.27323349               -1.52695440               -0.03524486                0.40373038                2.27459535
              12.64725543                1.89217326               25.47197520                0.98156168                0.54857463                0.89028772               -2.19767378               -0.07329337                0.06477055               -0.88949175
               2.82634127                4.95907125               26.36225724                1.00000000               -0.27029930               -0.39592800                1.24250105               -0.04596676                0.02245943                1.57155090
               3.82363828                4.76129002               26.16693258                0.58977254               -0.18006956               -0.15919825                0.57350387                0.00422163                0.11849647               -1.07586069
               4.82273988                4.56304852               25.97349705                0.04554379               -0.03635014                0.08715619               -0.08255834               -0.63570550                9.63732732               -3.77843523
               5.82291128                4.35062154               25.96852162                0.00010000                0.03841725               -0.14663502               -0.01618277               -1.37999417               19.83153061               -0.95817471
               6.82350823                4.13590821               25.97791954                0.00010000                0.09064096               -0.24905244               -0.14610503               -1.55495627               20.70553570                0.79609170
               7.82472410                3.92058139               25.98878065                0.00010000                0.16747883               -0.37502843               -0.28799838               -1.62780554               20.80311397                2.29944730
               8.82685780                3.70588284               25.99820705                0.00010000                0.28286674               -0.51729369               -0.44453667               -1.61234300               20.66578217                3.94251546
               9.83038143                3.49282149               26.00415482                0.08185014                0.36169859               -0.66325329               -0.62524745               -1.26429488               17.54235943                5.92957444
              10.83409177                3.28743015               25.94855460                0.30024735                0.37934736               -0.39491797               -0.45023557               -0.48629315                7.39751283                4.87259758
              11.83796838                3.09336305               25.74938681                0.67102888                0.41702923                0.19361210               -1.16186404               -0.01235203                0.12896922                1.79951505
              12.84243236                2.90066218               25.54780166                0.99227492                0.44639814                0.78129543               -1.89447001               -0.04298169                0.01383702               -1.01042501
               3.02248272                5.95548265               26.30722573                1.00000000               -0.19707454               -0.32244620                1.01804355               -0.04537834                0.01977521                1.53188831
               4.02051198                5.76009581               26.09873171                0.56945181               -0.09825073               -0.07998427                0.30334327                0.00848420                0.12406868               -1.08906721
               5.02051771                5.56432332               25.89228431                0.03676220                0.04820417                0.16902394               -0.39736622               -0.84787848               12.36919276               -3.67922233
               6.02147606                5.35001789               25.92864989                0.00010000                0.05948339                0.02159246               -0.23600380               -1.78785687               24.97557580               -1.25336114
               7.02170738                5.13387747               25.97312832                0.00010000                0.02416061               -0.13463890               -0.22679187               -1.96796713               25.49193300                0.60362297
               8.02195927                4.91689882               26.01810306                0.00010000                0.05300530               -0.33662301               -0.24485374               -2.10955414               25.60072130                2.38413354
               9.02276748                4.70036284               26.06262242                0.00010000                0.12536661               -0.55479239               -0.29298764               -2.16956172               25.61854081                4.24367655
              10.02446661                4.48570232               26.10538317                0.08995631                0.15941873               -0.73211678               -0.38067415               -1.68679906               20.74227262                6.24477862
              11.02595586                4.28356162               26.04935046                0.31273465                0.19119978               -0.38910297               -0.03994380               -0.61370144                8.03955637                4.17945538
              12.02829060                4.09501107               25.83596406                0.68981666                0.29208366                0.13155786               -0.81204070               -0.01532090                0.10041604                1.44679351
              13.03179753                3.90779917               25.62070264                1.00000000                0.35069294                0.64997395               -1.60557623               -0.04186159                0.01168751               -1.24802096
               3.21620737                6.95262232               26.25189561                1.00000000               -0.12400848               -0.25037292                0.79421569               -0.04468292                0.02050107                1.50245830
               4.21496728                6.75969034               26.03035361                0.54928673               -0.01735662               -0.00148573                0.03533662                0.01179156                0.14401063               -1.09971293
               5.21586024                6.56642900               25.81123587                0.02811978                0.13163548                0.25267571               -0.70733279               -1.02243402               15.03200839               -3.65500833
               6.21759999                6.35105339               25.88739841                0.00010000                0.07038598                0.19433560               -0.45216838               -2.15505923               30.05701206               -1.38369432
               7.21726796                6.13321543               25.96739968                0.00010000               -0.07761763                0.01887553               -0.30682871               -2.40448405               30.37401592                0.48002040
               8.21604764                5.91384893               26.04808230                0.00010000               -0.13024437               -0.24745957               -0.19945150               -2.63311486               30.55354481                2.33145747
               9.21466307                5.69478699               26.12937352                0.00010000               -0.13004849               -0.53464911               -0.13082826               -2.75951579               30.70502029                4.31260717
              10.21344667                5.47817915               26.21029226                0.09819354               -0.10770364               -0.75771800               -0.11232038               -2.08818920               23.61574717                6.50610852
              11.21250900                5.27964809               26.14654212                0.32534747               -0.00111295               -0.40240875                0.35815661               -0.68996298                8.32467483                3.84941777
              12.21342441                5.09599421               25.91987007                0.70873366                0.17549639                0.06152470               -0.47228126               -0.01805493                0.10079182                1.21553379
              13.21601892                4.91366166               25.69132575                1.00000000                0.25945114                0.52556755               -1.32569591               -0.04189467                0.01181468               -1.41461457
               3.40745303                7.95047519               26.19630194                1.00000000               -0.05119031               -0.18004337                0.57129466               -0.04393371                0.02055191                1.47349099
               4.40694113                7.76006610               25.96179178                0.52926538                0.06264726                0.07634814               -0.22991767                0.01472604                0.16820847               -1.10858122
               5.40870598                7.56937684               25.73018393                0.01964949                0.23236586                0.33680265               -1.01244169               -1.15237238               17.63972275               -3.63162034
               6.41158845                7.35390460               25.84503769                0.00010000                0.10580882                0.36831073               -0.65624344               -2.41344704               35.08715239               -1.44864926
               7.41082216                7.13425498               25.96071444                0.00010000               -0.19315162                0.18586239               -0.37952910               -2.73919848               35.27861954                0.35404510
               8.40772542                6.91194962               26.07737985                0.00010000               -0.37876082               -0.09968794               -0.14612419               -3.05145642               35.57704047                2.11626293
               9.40324694                6.68966986               26.19658950                0.00010000               -0.49418456               -0.44408720                0.04838960               -3.29013162               35.97766992                4.12905210
              10.39784172                6.47054796               26.31840760                0.10659776               -0.44526988               -0.73504860                0.19621827               -2.46092182               26.34148049                6.62547845
              11.39434154                6.27551344               26.24166195                0.33809956               -0.19628992               -0.43028873                0.74898203               -0.74582290                8.33722683                3.64381958
              12.39391593                6.09624156               26.00208277                0.72776155                0.06415951               -0.01459719               -0.13866515               -0.02155880                0.10707703                1.08003564
              13.39562473                5.91831052               25.76052197                1.00000000                0.17088057                0.40673169               -1.05111203               -0.04250097                0.01236268               -1.50110791
               3.59614687                8.94902146               26.14040757                1.00000000                0.02132830               -0.11226302                0.34929391               -0.04308534                0.02763736                1.45375219
               4.59636015                8.76121730               25.89308121                0.50937924                0.14137086                0.15457427               -0.49202772                0.01642429                0.20672381               -1.13194053
               5.59897429                8.57316505               25.64928316                0.01138285                0.40463788                0.41935629               -1.31183180               -1.24875957               20.23131970               -3.49598057
               6.60445291                8.35841960               25.80237298                0.00010000                0.27323375                0.45349682               -0.84271179               -2.49125025               40.05779124               -1.32001586
               7.60443896                8.13693268               25.95282177                0.00010000               -0.24246387                0.26820646               -0.44194774               -2.69765279               40.08338599                0.23109249
               8.59960363                7.91185517               26.10391967                0.00010000               -0.70884286                0.13039709               -0.08704860               -3.04127686               40.54609103                1.65893498
               9.59026211                7.68590525               26.26092644                0.00010000               -1.06094920               -0.15669068                0.23991604               -3.53920880               41.43072092                3.43956948
              10.57838465                7.46347818               26.42710060                0.11518504               -0.91815856               -0.58121882                0.54359346               -2.86022016               29.13099986                6.22071546
              11.57189893                7.27104231               26.33534605                0.35099794               -0.40942434               -0.46588465                1.13356122               -0.83245267                8.25805487                3.38189401
              12.57019616                7.09570227               26.08341712                0.74688076               -0.04339739               -0.09543073                0.19129734               -0.02822140                0.13668285                1.04451770
              13.57103099                6.92179630               25.82911054                1.00000000                0.08348236                0.29293509               -0.77890411               -0.04341991                0.02192396               -1.52717170
               3.78219964                9.94822993               26.08442307                1.00000000                0.09263824               -0.04794245                0.12950534               -0.04199978               -0.00995901                1.24523121
               4.78312602                9.76315758               25.82390287                0.48963761                0.21644256                0.23408527               -0.75281902                0.01465274                0.35620990               -1.01678912
               5.78652849                9.57776396               25.57065203                0.00338672                0.74349009                0.49508248               -1.59874375               -1.39745486               22.97125777               -2.62344431
               6.79799582                9.36297454               25.76235137                0.00010000                0.84525232                0.12614680               -1.00392628               -1.93859923               44.89644658               -0.78001175
               7.80343353                9.13961911               25.94394225                0.00010000               -0.00342550                0.22449687               -0.49291353               -1.85735995               44.55454687                0.11594906
               8.79792731                8.91455757               26.12475162                0.00010000               -1.12968924                0.35974674               -0.03184575               -2.06325630               45.15516958                0.92334448
               9.78083975                8.68653605               26.31530309                0.00010000               -2.12135275                0.45574804                0.41688480               -2.76876530               46.85610589                2.00422424
              10.75550026                8.45892358               26.52811339                0.12400286               -1.76856724                0.02212273                0.89968443               -2.64958071               32.25105783                4.15996998
              11.74546840                8.26619575               26.42558458                0.36409296               -0.64513707               -0.48698778                1.50187258               -1.01138300                8.56154255                2.38398674
              12.74259751                8.09433294               26.16497590                0.76606971               -0.14500653               -0.17909060                0.52125993               -0.03883022                0.31938136                0.93539257
              13.74256827                7.92416922               25.89754621                1.00000000               -0.00292402                0.18557251               -0.50800089               -0.04599502               -0.01784046               -1.29312364
               3.96545156               10.94806261               26.02435046                1.00000000                0.16676116               -0.01673190               -0.09682428                0.10883228                0.62087555                1.04196310
               4.96711917               10.76589901               25.75736851                0.73852657                0.28783395                0.27414230               -1.00232114                0.14952006                1.45297206               -0.87965952
               5.97120824               10.58306670               25.50697343                0.49918836                1.83533052                0.53027402               -1.83493759               -1.77984837               25.98448142               -1.86753473
               7.00382578               10.36094254               25.73054958                0.44421786                2.22502481               -0.20319983               -1.12369000               -1.49920838               49.13925958               -0.46816889
               8.01570873               10.14142262               25.93434610                0.43470277                0.37978952                0.18035055               -0.53200138               -0.86710172               48.37088411                0.03093888
               9.01142157                9.91905010               26.13706491                0.45126784               -1.25939737                0.44925370                0.00782126               -0.97069428               49.05032303                0.48320366
               9.99052079                9.69502021               26.35117815                0.49232818               -3.28441211                0.84841609                0.54179903               -1.78836954               51.21332088                1.10213545
              10.94573333                9.46392064               26.59576730                0.56494609               -3.71294390                0.49970579                1.14279803               -2.66257508               35.64369506                2.59632578
              11.91626191                9.26130256               26.49946897                0.68632599               -1.71436196               -0.48931954                1.79526436               -1.51065868               10.41386740                1.56807705
              12.91144609                9.09212045               26.24413036                0.88914267               -0.29116867               -0.22124904                0.83855821                0.09511716                1.54671691                0.81657485
              13.91043854                8.92550775               25.97064006                1.00000000               -0.10075548                0.13385265               -0.21759267                0.12575542                0.64207437               -1.05405167
               2.16373330                1.05229846               27.59942292                1.00000000               -0.56394695               -0.62263281                2.13203788               -0.10904954               -1.30052963                1.33341310
               3.15809383                0.83263557               27.43943589                1.00000000               -0.49562879               -0.45114820                1.61097819               -0.06808687               -1.35019752               -0.10882673
               4.15382073                0.61223388               27.27849191                0.67290494               -0.40967537               -0.27974277                1.08198899               -0.13540373               -1.01101347               -1.07350517
               5.14990033                0.38941353               27.12538096                0.51647843               -0.37313167               -0.15642286                0.56907405               -0.19703530                0.86249451               -0.12283298
               6.14635809                0.16125998               27.00274109                0.44939207               -0.23956428               -0.01267993                0.04818881               -0.18410363                3.72599393               -0.11168550
               7.14510904               -0.07272368               26.90847987                0.45106499                0.08367101                0.13572133               -0.50113820               -0.12261455                5.03856126                0.02635833
               8.14803152               -0.30849847               26.81325940                0.51696734                0.43109215                0.28703186               -1.03353446               -0.14252606                3.60167721                0.14094453
               9.15373088               -0.54132328               26.68982077                0.65335880                0.61914802                0.43265165               -1.53423942               -0.15791235                0.96706355                0.20961438
              10.16041448               -0.77010763               26.54064850                0.87791181                0.69979035                0.56499429               -2.03360586               -0.12047815               -0.92977724                0.54506216
              11.16772669               -0.99621715               26.37831716                1.00000000                0.79262653                0.71323998               -2.57440842               -0.07462588               -1.33680155                0.60355957
              12.17626701               -1.22131335               26.22058335                1.00000000                0.85403142                0.89973490               -3.07668157               -0.12440463               -1.09683849               -1.24401608
               2.38230570                2.04607213               27.53952682                1.00000000               -0.48604403               -0.59777551                1.90693383               -0.03575921                0.04182011                1.67530356
               3.37744526                1.82812409               27.37903959                0.84381523               -0.41139918               -0.41298090                1.39086446                0.00183634                0.23641829               -0.34232417
               4.37407771                1.60943645               27.22242755                0.21275179               -0.20141659               -0.22787517                0.91265630               -0.10305869                1.81500957               -1.98141136
               5.37341692                1.38784930               27.09340869                0.00010000                0.07539743               -0.11103907                0.45728701               -0.36872142                4.37280332               -2.04427663
               6.37558566                1.16113318               26.98700292                0.00010000                0.26725981               -0.29817357               -0.00650763               -0.65391698                7.16456539                0.65346202
               7.37876212                0.92863354               26.91201561                0.00010000                0.26601968               -0.14238801               -0.49285753               -0.80016297                8.78767490                0.93150570
               8.38090605                0.69437185               26.83646547                0.00010000                0.20971105                0.05691222               -0.95845773               -0.68567943                7.29988046                1.04454673
               9.38295634                0.46300324               26.73149043                0.18844787                0.28752870                0.28750562               -1.39027121               -0.38298671                4.59429572                2.50855296
              10.38665663                0.23554231               26.60242169                0.52665602                0.48134770                0.46507701               -1.82645625               -0.15200419                2.54125897                2.16815098
              11.39258330                0.01091525               26.45682842                1.00000000                0.67312694                0.65000599               -2.26100766               -0.02659276                0.98252342                1.05098367
              12.40011917               -0.21231601               26.29662200                1.00000000                0.75358722                0.87284608               -2.78997172               -0.05281532                0.25533895               -1.31856030
               2.59891420                3.04034295               27.48651910                1.00000000               -0.41479619               -0.54181733                1.69395739               -0.04857922                0.22242149                1.91603632
               3.59476624                2.82437595               27.31396243                0.63476959               -0.34399294               -0.32593563                1.11484074               -0.01336043                0.55870286               -0.85314087
               4.59203434                2.60767638               27.14810997                0.07000937               -0.19685353               -0.10086079                0.60101698               -0.16275875                2.92908099               -3.64455270
               5.59082917                2.38719275               27.02296695                0.00010000                0.02305870               -0.28158163                0.26968836               -0.89597725                9.41912060               -1.28093934
               6.59249552                2.15529651               26.98651261                0.00010000                0.25189711               -0.48669185               -0.05602632               -1.44051910               13.12422784                0.97944688
               7.59586711                1.92442856               26.93358630                0.00010000                0.37263528               -0.44342071               -0.41940774               -1.46410140               12.24474153                1.90951412
               8.59994822                1.69263978               26.87763300                0.00010000                0.45167870               -0.28760915               -0.77704846               -1.25292062               12.03295232                2.63517071
               9.60490069                1.46442684               26.81898731                0.06710773                0.47570770               -0.17790460               -1.10556539               -0.78241679                8.78527399                4.37177486
              10.60946238                1.23919391               26.69652779                0.28434770                0.50762344               -0.03400941               -1.43991242               -0.38306755                4.11863310                5.73046804
              11.61505316                1.01678297               26.54420652                0.66333357                0.61054196                0.43349327               -1.93237337               -0.15174774                1.59473585                2.09004558
              12.62167322                0.79614357               26.37105588                0.99322323                0.66200617                0.90339288               -2.50493304               -0.16224991                0.55593079               -1.17214121
               2.81326810                4.03523579               27.43151358                1.00000000               -0.34234817               -0.47331451                1.46844309               -0.04708499                0.03876800                1.72068676
               3.80984462                3.82160538               27.24332166                0.59793496               -0.26311790               -0.23499860                0.83674439               -0.00182433                0.21225333               -1.12965183
               4.80800574                3.60741924               27.05857738                0.05219318               -0.09836869                0.01888478                0.22858729               -0.48802860                7.00593371               -4.21130389
               5.80787725                3.38221767               27.00625446                0.00010000                0.07668593               -0.38866404                0.18452310               -1.22204418               14.96605047                0.24256612
               6.80953946                3.15139934               26.97964470                0.00010000                0.21297889               -0.36951988               -0.11145987               -1.55340657               16.59218135                0.77001236
               7.81213683                2.91976512               26.95811793                0.00010000                0.31549538               -0.45487423               -0.36649790               -1.62671610               16.74984688                2.14032810
               8.81584937                2.68861967               26.93284755                0.00010000                0.43085226               -0.47461066               -0.62494394               -1.54432694               16.20613147                3.55300615
               9.82075387                2.45944515               26.89848801                0.07142502                0.53948848               -0.59749021               -0.90313424               -1.22142817               14.12642053                4.91610678
              10.82663914                2.23486213               26.82987199                0.28202296                0.59224071               -0.46761860               -0.90343837               -0.51088449                6.62702545                6.60714086
              11.83259868                2.01958512               26.64354475                0.63874953                0.57569208                0.23238058               -1.53597426               -0.04334663                0.42022644                2.38136462
              12.83815298                1.80575185               26.44995488                0.97026782                0.55542972                0.91812079               -2.20336796               -0.07601822                0.06408484               -0.92515562
               3.02523332                5.03087666               27.37467693                1.00000000               -0.26870147               -0.39851853                1.24162200               -0.04615868                0.02234522                1.60369412
               4.02254630                4.81967598               27.17261636                0.57751637               -0.17859181               -0.15262618                0.56289601                0.00641812                0.12516499               -1.13693583
               5.02166148                4.60805407               26.97257984                0.04330923               -0.00690620                0.10392776               -0.10162750               -0.77200747               10.01154346               -3.93607927
               6.02240818                4.37941947               26.96822141                0.00010000                0.11092246               -0.18039067               -0.04528250               -1.67916850               20.47909070               -1.07225484
               7.02387993                4.14790611               26.97629252                0.00010000                0.18521437               -0.29712394               -0.18015929               -1.90148392               21.25945553                0.77751730
               8.02611247                3.91533108               26.98570183                0.00010000                0.27508645               -0.43449648               -0.32806507               -1.99542562               21.35384201                2.33723085
               9.02938166                3.68314756               26.99353342                0.00010000                0.40585988               -0.58627983               -0.48966963               -1.97772504               21.20736644                4.02109332
              10.03422966                3.45247703               26.99765776                0.07924006                0.48615282               -0.75002217               -0.67243242               -1.58187204               18.26743970                6.03852544
              11.03910472                3.22984154               26.94397953                0.29393144                0.45334156               -0.47918816               -0.46420894               -0.63323203                7.86831724                5.08392142
              12.04329650                3.02143058               26.73770649                0.65591069                0.43573346                0.16302791               -1.17352554               -0.01750946                0.13888457                1.87833205
              13.04781939                2.81450598               26.52880257                0.98072606                0.45228902                0.80554674               -1.90442025               -0.04296363                0.01334476               -1.05657281
               3.23474628                6.02726542               27.31739482                1.00000000               -0.19507121               -0.32438950                1.01581144               -0.04556223                0.01975748                1.56428256
               4.23279557                5.81855285               27.10170329                0.55767187               -0.09620862               -0.07245201                0.29047069                0.01083474                0.13145847               -1.14738040
               5.23282211                5.60949779               26.88820446                0.03472721                0.08231337                0.18620104               -0.41952430               -1.00771315               12.81371729               -3.82599055
               6.23444184                5.37860985               26.92611917                0.00010000                0.13880308                0.00879520               -0.27164520               -2.12481777               25.78704441               -1.36161143
               7.23559817                5.14545686               26.97065002                0.00010000                0.12725113               -0.17012219               -0.27000128               -2.34017489               26.22719664                0.57528284
               8.23698686                4.91107519               27.01539874                0.00010000                0.17753726               -0.39146791               -0.29666470               -2.50242023               26.32005979                2.41939401
               9.23914892                4.67689407               27.05938919                0.00010000                0.27177961               -0.62761944               -0.35352255               -2.56435876               26.31581563                4.32790632
              10.24242245                4.44444470               27.10122781                0.08719929                0.29360142               -0.81971024               -0.44903287               -2.03143151               21.66118322                6.36286620
              11.24502095                4.22527836               27.04888218                0.30615532                0.25807991               -0.44746986               -0.05362699               -0.77376976                8.63054585                4.36719958
              12.24758405                4.02284568               26.82777888                0.67422631                0.30609833                0.11318477               -0.82505316               -0.02030906                0.11089748                1.51175486
              13.25114291                3.82186279               26.60457812                0.99219760                0.35588616                0.67028495               -1.61969284               -0.04183263                0.01143177               -1.30665294
               3.44174720                7.02438887               27.25982126                1.00000000               -0.12165731               -0.25172074                0.79084669               -0.04485081                0.02050036                1.53503730
               4.44053062                6.81822694               27.03063666                0.53798217               -0.01484879                0.00671883                0.02068932                0.01404022                0.15263235               -1.15408298
               5.44145022                6.61177809               26.80404569                0.02627918                0.17110648                0.27014819               -0.73179647               -1.19849304               15.54620271               -3.79358583
               6.44395275                6.37959537               26.88268260                0.00010000                0.15804376                0.19492759               -0.49256549               -2.52159227               31.02879346               -1.48122694
               7.44461109                6.14450367               26.96408026                0.00010000                0.03370528               -0.00497316               -0.35849639               -2.80329821               31.28815044                0.45602525
               8.44462686                5.90750172               27.04577226                0.00010000                0.00569402               -0.29600343               -0.26371274               -3.05217270               31.44509445                2.37036757
               9.44472497                5.67059517               27.12767730                0.00010000                0.02949427               -0.60304666               -0.20904378               -3.18302803               31.56755720                4.40834781
              10.44521674                5.43608283               27.20869847                0.09528805                0.02516873               -0.83531099               -0.20583345               -2.44553657               24.71814984                6.65430616
              11.44522835                5.22089214               27.15006483                0.31850021                0.05445739               -0.44150860                0.34642151               -0.84873192                9.01924038                4.02618062
              12.44630589                5.02369428               26.91508354                0.69265821                0.18600823                0.05125247               -0.48526939               -0.02231492                0.11265454                1.27228154
              13.44894851                4.82791168               26.67798825                1.00000000                0.26426238                0.54263657               -1.34264600               -0.04178929                0.01198453               -1.47958960
               3.64617312                8.02223100               27.20199443                1.00000000               -0.04859689               -0.18081094                0.56712111               -0.04396953                0.02060256                1.50631056
               4.64568715                7.81868723               26.95941738                0.51841751                0.06553501                0.08466926               -0.24563858                0.01673071                0.17813510               -1.15813150
               5.64748382                7.61490076               26.71993701                0.01801210                0.27986330                0.35362257               -1.03811062               -1.33917543               18.22631626               -3.76094266
               6.65128442                7.38250841               26.83826525                0.00010000                0.20710184                0.37707410               -0.69994549               -2.79622548               36.21892130               -1.52946573
               7.65162586                7.14535740               26.95663258                0.00010000               -0.07162591                0.16896372               -0.43866522               -3.15158213               36.36854042                0.33811668
               8.64985190                6.90515513               27.07554614                0.00010000               -0.23593032               -0.14029600               -0.22242223               -3.47874782               36.64522583                2.15986473
               9.64690725                6.66483314               27.19660085                0.00010000               -0.33185735               -0.50108764               -0.04773992               -3.72379931               37.02146032                4.23703648
              10.64321475                6.42773848               27.31977668                0.10354990               -0.32361987               -0.79644266                0.07633248               -2.81572495               27.61553580                6.81140872
              11.64043485                6.21644819               27.24910732                0.33099150               -0.15482703               -0.45492531                0.74008080               -0.89615161                9.11140135                3.81274253
              12.64011821                6.02387073               27.00063729                0.71120576                0.07187346               -0.01959743               -0.15069249               -0.02521567                0.12030334                1.13195628
              13.64187232                5.83271552               26.74992311                1.00000000                0.17541108                0.42062892               -1.06960781               -0.04236184                0.01284450               -1.56861447
               3.84795534                9.02077265               27.14387756                1.00000000                0.02401384               -0.11241520                0.34461075               -0.04297610                0.02782777                1.48717078
               4.84819548                8.81992033               26.88808605                0.49899683                0.14450964                0.16207559               -0.50760695                0.01807692                0.21808840               -1.17690351
               5.85084554                8.61885054               26.63604429                0.00994642                0.46880574                0.43371171               -1.33717215               -1.44278849               20.89510953               -3.61198850
               6.85757160                8.38713685               26.79372636                0.00010000                0.40435989                0.45657322               -0.88849802               -2.87033342               41.35058866               -1.37924762
               7.85893273                8.14788294               26.94808756                0.00010000               -0.09977154                0.24357954               -0.50712559               -3.07971895               41.34337633                0.22303382
               8.85557617                7.90469580               27.10262881                0.00010000               -0.56335520                0.09805399               -0.17359031               -3.42574618               41.79354268                1.69993200
               9.84766563                7.66057342               27.26277976                0.00010000               -0.91444874               -0.18878273                0.12790445               -3.93662350               42.67408320                3.54426591
              10.83728719                7.42015397               27.43183462                0.11199444               -0.82462768               -0.61212056                0.39986576               -3.19987464               30.56836697                6.42895961
              11.83117308                7.21179364               27.34665318                0.34362186               -0.38764708               -0.47914544                1.12802490               -0.97461775                9.08906332                3.53864445
              12.82953425                7.02330233               27.08527898                0.72983459               -0.03806912               -0.09697359                0.18088296               -0.03176390                0.15228997                1.09474048
              13.83041169                6.83632426               26.82123135                1.00000000                0.08774445                0.30361687               -0.79786071               -0.04330411                0.02307544               -1.59522602
               4.04701825               10.01998270               27.08569279                1.00000000                0.09525520               -0.04736675                0.12445688               -0.04172580               -0.01253678                1.27569861
               5.04797080                9.82192874               26.81630515                0.47972028                0.21966403                0.23996995               -0.76629668                0.01595871                0.37167100               -1.05391747
               6.05141153                9.62357499               26.55455284                0.00213764                0.84372775                0.50569167               -1.62217151               -1.60451501               23.72109239               -2.70496536
               7.06484535                9.39163987               26.75208749                0.00010000                1.05305024                0.07060450               -1.05104975               -2.22860287               46.34961263               -0.80952782
               8.07247253                9.15022899               26.93867885                0.00010000                0.19005723                0.18017917               -0.56224871               -2.11528955               45.97362419                0.11233117
               9.06864650                8.90711621               27.12397940                0.00010000               -0.98779608                0.33611033               -0.12551436               -2.30473550               46.57217700                0.94843989
              10.05271661                8.66105748               27.31887524                0.00010000               -2.03247258                0.45743514                0.29375553               -3.03412390               48.31018465                2.07331909
              11.02799705                8.41549607               27.53633011                0.12067004               -1.74612341                0.06946353                0.73817153               -2.89835601               33.85327488                4.31660911
              12.01779414                8.20686528               27.44059152                0.35644780               -0.65223681               -0.49016811                1.49974891               -1.15433702                9.44276210                2.49420085
              13.01495231                8.02193125               27.17014792                0.74854121               -0.14158788               -0.17849504                0.51309118               -0.04282575                0.34409527                0.97939854
              14.01496238                7.83878786               26.89237761                1.00000000                0.00100740                0.19328264               -0.52652417               -0.04605838               -0.01815487               -1.35086338
               4.24322873               11.01982532               27.02335367                1.00000000                0.16936288               -0.01573802               -0.10208119                0.11048983                0.63165658                1.06881124
               5.24492236               10.82471973               26.74727864                0.73370736                0.29076870                0.27909839               -1.01404056                0.15210951                1.49889184               -0.91160248
               6.24904411               10.62896438               26.48851212                0.49862783                2.07115869                0.53893880               -1.85797502               -2.04528109               26.83420187               -1.92231808
               7.28634554               10.38854894               26.71908292                0.44456464                2.60532505               -0.30909277               -1.17193479               -1.72387433               50.74733178               -0.49072209
               8.30115061               10.15148652               26.92868108                0.43488968                0.61537146                0.12575325               -0.60333593               -0.98873906               49.92864027                0.02291275
               9.29865297                9.91141801               27.13667350                0.45107067               -1.12736627                0.43018029               -0.08897268               -1.08757330               50.60806219                0.49164188
              10.27860328                9.66972212               27.35597656                0.49160145               -3.25703470                0.86646412                0.41397008               -1.90507084               52.82937885                1.13660407
              11.23351227                9.42154324               27.60638442                0.56323358               -3.84760644                0.60471708                0.97439390               -2.83506999               37.40461958                2.69958339
              12.20165115                9.20199027               27.51741876                0.68241899               -1.83785558               -0.48750080                1.79513495               -1.70483938               11.39320039                1.64044080
              13.19675516                9.01973243               27.25248711                0.88022460               -0.29369154               -0.21988237                0.83293136                0.09026697                1.62779594                0.85424357
              14.19577732                8.84018991               26.96838335                1.00000000               -0.09778361                0.14020576               -0.23435003                0.12724220                0.67224091               -1.10123259
               2.31312671                1.12682587               28.62077109                1.00000000               -0.56583457               -0.62533905                2.13888258               -0.10904042               -1.33847918                1.36708731
               3.30746836                0.89299277               28.45553703                1.00000000               -0.49867582               -0.45041964                1.60886494               -0.06820276               -1.39235240               -0.11917111
               4.30315319                0.65836379               28.28926886                0.66949149               -0.43296704               -0.27449239                1.07125783               -0.15916552               -1.04774787               -1.08071205
               5.29880902                0.42070127               28.13101439                0.51573236               -0.43480733               -0.15435676                0.55813135               -0.23852074                0.82649923               -0.12620293
               6.29445705                0.17614107               28.00313781                0.44941612               -0.31040318               -0.00950318                0.03162755               -0.22178925                3.66460963               -0.11527327
               7.29260096               -0.07603095               27.90333300                0.45086866                0.06335982                0.13971375               -0.52847703               -0.14139470                4.96506039                0.02650589
               8.29572424               -0.33063942               27.80274340                0.51575399                0.47243202                0.29303786               -1.07112806               -0.16520941                3.54980724                0.14542175
               9.30204960               -0.58156784               27.67428972                0.65006327                0.67472566                0.44068365               -1.57522501               -0.18441539                0.93457688                0.21711785
              10.30921875               -0.82743529               27.52015264                0.87069547                0.73512257                0.57196021               -2.06996904               -0.13609520               -0.97866119                0.54802156
              11.31675205               -1.07002817               27.35243982                1.00000000                0.80907657                0.71750060               -2.60465060               -0.07638159               -1.38479460                0.64986475
              12.32540029               -1.31144639               27.18970533                1.00000000                0.86482363                0.90516224               -3.10158178               -0.12577268               -1.12371547               -1.28717966
               2.54586940                2.12057248               28.55861728                1.00000000               -0.48520270               -0.60105872                1.91209214               -0.03468291                0.05815066                1.71473162
               3.54101738                1.88848857               28.39293618                0.82717194               -0.40810597               -0.41191401                1.38780806                0.00203467                0.27219360               -0.38147988
               4.53770728                1.65561886               28.23152522                0.20756587               -0.17411023               -0.21983690                0.90508067               -0.13784776                1.88290926               -2.06086456
               5.53753517                1.41915771               28.09793751                0.00010000                0.14489899               -0.11061871                0.45007605               -0.48206015                4.45061399               -2.08441728
               6.54060526                1.17604604               27.98688334                0.00010000                0.35210413               -0.35516944               -0.01608014               -0.84373663                7.22427827                0.65047833
               7.54457725                0.92536619               27.90699635                0.00010000                0.31176638               -0.17603465               -0.51037473               -1.03187598                8.84250982                0.96219046
               8.54684059                0.67229096               27.82675466                0.00010000                0.20130628                0.05525527               -0.98364424               -0.88451582                7.38276067                1.10022885
               9.54860338                0.42283900               27.71745689                0.18379319                0.26236871                0.27695385               -1.41683256               -0.48711405                4.69505034                2.58518585
              10.55208797                0.17828431               27.58403885                0.51586085                0.46952027                0.45986115               -1.84987848               -0.19243216                2.64398862                2.26337155
              11.55799379               -0.06285316               27.43414099                1.00000000                0.67364106                0.65055653               -2.27506277               -0.03389787                1.03857622                1.10489086
              12.56556079               -0.30239477               27.26866237                1.00000000                0.75670016                0.87635588               -2.79976645               -0.05482656                0.26235587               -1.36327918
               2.77660086                3.11480469               28.50347270                1.00000000               -0.41381885               -0.54576822                1.69714746               -0.04854959                0.22428333                1.95522649
               3.77246267                2.88475449               28.32507885                0.62069581               -0.34368790               -0.32278815                1.10875515               -0.01344670                0.59434618               -0.92172578
               4.76972710                2.65396705               28.15407096                0.06690172               -0.18610154               -0.08673005                0.59187817               -0.21118375                3.09259855               -3.82771116
               5.76874064                2.41848890               28.02565620                0.00010000                0.08233636               -0.33051273                0.26915580               -1.11376110                9.67696595               -1.31705311
               6.77137383                2.16903768               27.98586751                0.00010000                0.34889366               -0.57835892               -0.07259263               -1.79496494               13.36604867                0.97438474
               7.77571852                1.92044836               27.92927669                0.00010000                0.45936420               -0.51378882               -0.44225800               -1.84325719               12.47593658                1.96116975
               8.78056111                1.67046569               27.86972874                0.00010000                0.52977250               -0.32112688               -0.80394921               -1.61553538               12.28606900                2.72843113
               9.78631397                1.42397124               27.80781454                0.06453470                0.52505769               -0.21099671               -1.12937057               -1.02516755                9.05770466                4.47290828
              10.79106227                1.18176193               27.68207555                0.27775097                0.52196051               -0.10666308               -1.44719272               -0.46845951                4.31253109                5.98659268
              11.79675318                0.94298296               27.52485186                0.64706836                0.61623547                0.40596526               -1.93307454               -0.17918379                1.66504610                2.18034917
              12.80338698                0.70608072               27.34599672                0.98068584                0.66338024                0.91591172               -2.50024292               -0.18242010                0.58323872               -1.21632698
               3.00499882                4.10965711               28.44620240                1.00000000               -0.34127332               -0.47703983                1.46956056               -0.04700831                0.03762584                1.75283179
               4.00158609                3.88203281               28.25164742                0.58505556               -0.26248120               -0.22924059                0.82828331                0.00015711                0.22322195               -1.19670244
               4.99974920                3.65388426               28.06078408                0.04967904               -0.06983868                0.03664049                0.21265822               -0.59233768                7.31143782               -4.40349082
               6.00018932                3.41254745               28.00799352                0.00010000                0.14986541               -0.45885837                0.16243718               -1.46828158               15.43497299                0.18261686
               7.00274651                3.16447886               27.97840744                0.00010000                0.30473937               -0.42922243               -0.13619480               -1.88069802               16.96100891                0.75545159
               8.00628410                2.91509041               27.95430105                0.00010000                0.41302476               -0.52015787               -0.39686168               -1.98844573               17.14334192                2.17537572
               9.01100700                2.66586842               27.92643297                0.00010000                0.52598397               -0.53513142               -0.65756359               -1.89916287               16.59535714                3.62315551
              10.01680378                2.41861906               27.88930411                0.06885975                0.63500229               -0.65595218               -0.93188533               -1.53736147               14.65247305                4.99323224
              11.02370705                2.17615105               27.82078483                0.27581409                0.66437677               -0.58317756               -0.91209788               -0.65028965                6.98000074                6.87932095
              12.03009132                1.94526615               27.62815105                0.62396922                0.60049092                0.18563000               -1.54023453               -0.05288635                0.43551293                2.47817543
              13.03571687                1.71592346               27.42790784                0.95898555                0.56255483                0.94133781               -2.20301943               -0.07826244                0.06203440               -0.97328532
               3.23090930                5.10526390               28.38708968                1.00000000               -0.26706352               -0.40165772                1.24095300               -0.04631691                0.02232141                1.63541256
               4.22823867                4.88016968               28.17819050                0.56514506               -0.17717980               -0.14524526                0.55153965                0.00906855                0.13263527               -1.20044517
               5.22736571                4.65469986               27.97146450                0.04101241                0.02708712                0.12266983               -0.12212318               -0.91154887               10.38613318               -4.09836878
               6.22878041                4.40931173               27.96761597                0.00010000                0.19256009               -0.21114919               -0.07703024               -1.98322781               21.12826285               -1.19571401
               7.23121691                4.16045323               27.97431635                0.00010000                0.28898126               -0.34417387               -0.21573266               -2.25206478               21.81620071                0.74703210
               8.23456004                3.91004520               27.98221935                0.00010000                0.39161472               -0.49370718               -0.36854484               -2.36764892               21.90595526                2.36166568
               9.23904921                3.65976306               27.98841365                0.00010000                0.53620355               -0.65456709               -0.53354672               -2.34726418               21.75076171                4.08341735
              10.24528411                3.41085219               27.99070617                0.07653903                0.61800940               -0.83500693               -0.71563292               -1.91355881               19.00965688                6.12675630
              11.25140939                3.17009838               27.93927042                0.28747910                0.53194640               -0.56653671               -0.47680701               -0.79239856                8.35492933                5.29121402
              12.25592304                2.94669556               27.72591630                0.64073091                0.45488507                0.13014815               -1.18428417               -0.02348068                0.14833319                1.94919863
              13.26050709                2.72490748               27.50971325                0.96918998                0.45840583                0.82784792               -1.91415033               -0.04326812                0.01219714               -1.11655962
               3.45426093                6.10162396               28.32754196                1.00000000               -0.19294247               -0.32702217                1.01350364               -0.04574203                0.01980397                1.59644850
               4.45233150                5.87912790               28.10454113                0.54575851               -0.09423797               -0.06375462                0.27655564                0.01352645                0.13970012               -1.20749919
               5.45237617                5.65633766               27.88389383                0.03262982                0.12199417                0.20624412               -0.44354407               -1.17153943               13.25751373               -3.97619152
               6.45477139                5.40832447               27.92321699                0.00010000                0.22977883               -0.00144776               -0.31014205               -2.46906957               26.59820911               -1.47625379
               7.45697174                5.15759538               27.96772830                0.00010000                0.24249563               -0.20499244               -0.31527784               -2.71919041               26.96401614                0.53678493
               8.45962130                4.90521627               28.01216977                0.00010000                0.31414898               -0.44681623               -0.34948090               -2.90129244               27.03923859                2.44098159
               9.46325472                4.65277708               28.05555197                0.00010000                0.42879929               -0.70103863               -0.41330144               -2.96292735               27.01182816                4.39409605
              10.46819728                4.40191892               28.09640251                0.08435242                0.43804913               -0.90678943               -0.51385677               -2.39093644               22.60677699                6.45707801
              11.47201571                4.16482032               28.04827792                0.29943552                0.33076613               -0.50759133               -0.06681214               -0.94752354                9.25024131                4.55522176
              12.47481261                3.94786911               27.81946299                0.65856854                0.32059838                0.09429303               -0.83848019               -0.02544262                0.12213621                1.57275187
              13.47842767                3.73248042               27.58830878                0.98033217                0.36150674                0.69087015               -1.63581033               -0.04176401                0.01103099               -1.37587844
               3.67498657                7.09872345               28.26771255                1.00000000               -0.11910733               -0.25394271                0.78726523               -0.04497432                0.02060381                1.56756940
               4.67379550                6.87889458               28.03076740                0.52653632               -0.01241086                0.01630894                0.00479565                0.01655199                0.16218817               -1.20947267
               5.67473836                6.65882474               27.79659994                0.02438445                0.21728971                0.29108667               -0.75847753               -1.38017679               16.05891128               -3.93417966
               6.67814130                6.40928278               27.87754710                0.00010000                0.26014724                0.19735265               -0.53599392               -2.89857186               31.99801760               -1.58309001
               7.67994130                6.15635338               27.96022975                0.00010000                0.16055967               -0.02926846               -0.41285832               -3.21167890               32.20098740                0.42329946
               8.68135249                5.90110887               28.04280805                0.00010000                0.15733489               -0.34629501               -0.32991480               -3.47853705               32.33307593                2.39613168
               9.68308800                5.64574229               28.12519265                0.00010000                0.20348274               -0.67344732               -0.28780181               -3.61007930               32.42393112                4.48562269
              10.68542214                5.39271641               28.20617559                0.09229808                0.17103690               -0.91394688               -0.29726132               -2.81735220               25.85904674                6.77670348
              11.68650874                5.15994656               28.15347055                0.31151779                0.11659672               -0.48201885                0.33502609               -1.02208643                9.75835181                4.20530565
              12.68775408                4.94858143               27.91016468                0.67652810                0.19702252                0.04080665               -0.49883861               -0.02640367                0.12602555                1.32714156
              13.69044919                4.73872488               27.66447283                0.99155111                0.26951102                0.56073558               -1.36208730               -0.04153864                0.01228896               -1.55215754
               3.89301918                8.09654511               28.20764436                1.00000000               -0.04579228               -0.18284722                0.56263161               -0.04410908                0.02067015                1.53897453
               4.89256126                7.87945408               27.95687901                0.50743984                0.06826299                0.09484381               -0.26257114                0.01869861                0.18908981               -1.20756085
               5.89438444                7.66215939               27.70942172                0.01629878                0.33550235                0.37423539               -1.06640082               -1.53423779               18.81065195               -3.89047222
               6.89927130                7.41227152               27.83103878                0.00010000                0.32638138                0.38648156               -0.74705983               -3.19346314               37.34551270               -1.61303156
               7.90091207                7.15701001               27.95194113                0.00010000                0.06951746                0.14968471               -0.50131804               -3.57592078               37.45352858                0.31501416
               8.90066165                6.89829037               28.07293140                0.00010000               -0.07332307               -0.18441591               -0.30193085               -3.91360371               37.70556260                2.19185928
               9.89944561                6.63930813               28.19563470                0.00010000               -0.15078414               -0.56130550               -0.14645100               -4.16002066               38.05283458                4.32785383
              10.89764597                6.38363999               28.31993425                0.10041295               -0.18683243               -0.86062299               -0.04472464               -3.18358879               28.94101686                6.97241129
              11.89570896                6.15517994               28.25646356                0.32374265               -0.10698829               -0.48077729                0.73150413               -1.06138244                9.94727547                3.98476715
              12.89550621                5.94868524               27.99906892                0.69459830                0.08005141               -0.02474892               -0.16329815               -0.02875435                0.13549986                1.18303306
              13.89730999                5.74369513               27.73912981                1.00000000                0.18037808                0.43561991               -1.09055062               -0.04208205                0.01353629               -1.64162224
               4.10828644                9.09506651               28.14729979                1.00000000                0.02687513               -0.11386590                0.34018074               -0.04225507                0.02847631                1.51980759
               5.10855519                8.88079146               27.88292907                0.48847464                0.14748635                0.17162796               -0.52494774                0.01905334                0.23065196               -1.21964325
               6.11123617                8.66630945               27.62253972                0.00843395                0.54331107                0.45187204               -1.36539671               -1.64977472               21.55495074               -3.72596158
               7.11942141                8.41701241               27.78460302                0.00010000                0.55839376                0.45779527               -0.93846674               -3.26858052               42.63518671               -1.44005283
               8.12240404                8.15934708               27.94267926                0.00010000                0.06804411                0.21311016               -0.57672625               -3.47449036               42.59495063                0.20975145
               9.12078229                7.89742056               28.10044787                0.00010000               -0.39330367                0.05956577               -0.26470668               -3.81590469               43.02889813                1.73216707
              10.11453797                7.63451618               28.26348453                0.00010000               -0.74518648               -0.22512558                0.01091353               -4.33347453               43.89884517                3.63550285
              11.10587856                7.37550395               28.43509791                0.10871382               -0.71510659               -0.64670137                0.25051054               -3.54908292               32.06911090                6.61662855
              12.10023584                7.15033101               28.35790655                0.33611805               -0.36073828               -0.49328751                1.12293808               -1.13103105                9.99767259                3.69857530
              13.09866380                6.94808645               28.08703478                0.71274739               -0.03240352               -0.09862267                0.17003335               -0.03533023                0.17002623                1.14485218
              14.09958776                6.74743728               27.81315333                1.00000000                0.09239669                0.31524095               -0.81907196               -0.04312544                0.02445839               -1.66727507
               4.32072418               10.09426779               28.08691221                1.00000000                0.09752098               -0.04747138                0.11861665               -0.04069946               -0.01394405                1.30330313
               5.32169939                9.88288664               27.80857693                0.46964647                0.22219108                0.24642592               -0.77856308                0.01562070                0.38720397               -1.08616574
               6.32516800                9.67119683               27.53820860                0.00082343                0.95813383                0.51961765               -1.65054393               -1.83036913               24.46308055               -2.78323382
               7.34086206                9.42142743               27.74133038                0.00010000                1.29230562                0.00624149               -1.10309096               -2.53712870               47.79165630               -0.83993565
               8.35101411                9.16127222               27.93269728                0.00010000                0.41561984                0.12646687               -0.63660965               -2.38294099               47.38195253                0.10592957
               9.34917446                8.89948168               28.12224133                0.00010000               -0.81606927                0.30370920               -0.22467551               -2.54807764               47.97407846                0.96883501
              10.33469273                8.63480562               28.32117820                0.00010000               -1.91624906                0.45167351                0.16374913               -3.29581240               49.74055687                2.13510539
              11.31084948                8.37070596               28.54287682                0.11724337               -1.70934453                0.11498719                0.56648047               -3.14932383               35.52852366                4.46136057
              12.30050584                8.14531419               28.45557956                0.34867056               -0.65780754               -0.49370671                1.49826531               -1.31028907               10.41451129                2.60672058
              13.29769333                7.94671279               28.17523773                0.73097338               -0.13800136               -0.17797494                0.50474153               -0.04703053                0.37125114                1.02382443
              14.29774581                7.74999995               27.88701572                1.00000000                0.00524799                0.20171632               -0.54697740               -0.04612799               -0.01829684               -1.41111789
               4.53023474               11.09411708               28.02230883                0.99606136                0.17038205               -0.01507050               -0.10524880                0.11134582                0.63868212                1.09087284
               5.53193856               10.88571998               27.73708770                0.72881509                0.29266300                0.28333370               -1.02286711                0.15315308                1.53852476               -0.93613386
               6.53608800               10.67670180               27.46981393                0.49803228                2.33324459                0.55049690               -1.88724383               -2.33713711               27.67386917               -1.97459826
               7.57860345               10.41713724               27.70711089                0.44489569                3.03014820               -0.42901880               -1.22484907               -1.96713052               52.34338983               -0.51381122
               8.59669096               10.16187641               27.92227938                0.43506714                0.88419406                0.06041988               -0.67942380               -1.11443970               51.47496966                0.01348522
               9.59628733                9.90349474               28.13528546                0.45087065               -0.96467611                0.40130582               -0.19108782               -1.20505120               52.14941641                0.49761746
              10.57739744                9.64354965               28.35945755                0.49085141               -3.19519064                0.87440237                0.27901161               -2.01408107               54.41992558                1.16729746
              11.53238352                9.37780369               28.61525518                0.56147929               -3.96871081                0.70977301                0.79432596               -3.00123450               39.24326422                2.79552420
              12.49802323                9.14045688               28.53537167                0.67844928               -1.96730482               -0.48573137                1.79602918               -1.91209815               12.46984880                1.71439720
              13.49303742                8.94452695               28.26078899                0.87129481               -0.29661741               -0.21858398                0.82751244                0.08514613                1.71273202                0.89252419
              14.49209088                8.75147161               27.96595306                1.00000000               -0.09465471                0.14716558               -0.25262618                0.12897276                0.70334049               -1.15000076
               2.46743182                1.20394783               29.64220057                1.00000000               -0.56828132               -0.62826742                2.14764986               -0.10948970               -1.37880279                1.39947242
               3.46174901                0.95545386               29.47161319                0.99733937               -0.50217024               -0.45011791                1.61050359               -0.06882834               -1.43729606               -0.12991590
               4.45738842                0.70610692               29.29991707                0.66599246               -0.45938257               -0.26898582                1.06068738               -0.18591629               -1.08391406               -1.08394823
               5.45256136                0.45304323               29.13654358                0.51493893               -0.50283743               -0.15240865                0.54974644               -0.28120037                0.78889604               -0.13045585
               6.44733167                0.19146346               29.00337364                0.44942809               -0.38783479               -0.00504119                0.01655493               -0.26010245                3.59456986               -0.11926343
               7.44480466               -0.07952025               28.89791033                0.45066221                0.03696327                0.14539076               -0.55483138               -0.16016872                4.87853808                0.02613424
               8.44807094               -0.35361256               28.79183684                0.51451477                0.51042605                0.30036517               -1.10962947               -0.18677144                3.48544374                0.14900085
               9.45501319               -0.62331525               28.65831627                0.64670914                0.73101089                0.44973958               -1.62088303               -0.20935621                0.89552829                0.22347068
              10.46269115               -0.88691964               28.49924912                0.86337557                0.77324591                0.58064636               -2.11469091               -0.14923190               -1.02749436                0.54832124
              11.47047810               -1.14662219               28.32622415                1.00000000                0.82852610                0.72232145               -2.64544256               -0.07724963               -1.43062239                0.69931307
              12.47926168               -1.40497103               28.15855172                1.00000000                0.87835732                0.90980506               -3.13572800               -0.12869952               -1.14619673               -1.32459533
               2.71483090                2.19766516               29.57776866                1.00000000               -0.48497162               -0.60427400                1.91898894               -0.03346057                0.07310943                1.75283514
               3.70998118                1.95095268               29.40679575                0.81032988               -0.40481634               -0.41118301                1.38546084                0.00288982                0.30778255               -0.42320665
               4.70673457                1.70341706               29.24052916                0.20228027               -0.14550485               -0.21218117                0.89746903               -0.17564957                1.95549275               -2.14035263
               5.70707109                1.45151914               29.10241021                0.00010000                0.21389070               -0.11237784                0.44731495               -0.59967158                4.53289597               -2.12450521
               6.71101239                1.19141305               28.98668131                0.00010000                0.43349530               -0.41016830               -0.02334181               -1.03605775                7.28091668                0.63915669
               7.71574099                0.92193366               28.90180811                0.00010000                0.35441691               -0.20662469               -0.52682592               -1.26510075                8.89013935                0.98458384
               8.71810072                0.64939109               28.81679259                0.00010000                0.19160835                0.05713284               -1.00905699               -1.08453484                7.45936414                1.14752485
               9.71957316                0.38118214               28.70315378                0.17903419                0.23757893                0.26765175               -1.44530925               -0.59047383                4.79249423                2.65354069
              10.72285230                0.11888683               28.56542412                0.50489180                0.45790722                0.45497132               -1.87514725               -0.22982985                2.74887012                2.35684576
              11.72873130               -0.13939897               28.41132716                1.00000000                0.67356094                0.65010415               -2.28529422               -0.04024986                1.09867908                1.16168912
              12.73632352               -0.39587298               28.24062667                1.00000000                0.75922188                0.87712901               -2.80276190               -0.05807008                0.26857742               -1.40222513
               2.96018757                3.19186235               29.52046205                1.00000000               -0.41326645               -0.54948599                1.70086622               -0.04823070                0.22583636                1.99320587
               3.95605490                2.94723020               29.33613753                0.60652909               -0.34392997               -0.31965023                1.10356593               -0.01264230                0.63282677               -0.99349027
               4.95330897                2.70186330               29.15994754                0.06373017               -0.17414802               -0.07305943                0.58504992               -0.26403479                3.26764576               -4.01815541
               5.95257194                2.45079567               29.02835006                0.00010000                0.14435173               -0.38044537                0.27121912               -1.33604739                9.93854841               -1.36791481
               6.95619600                2.18326010               28.98506076                0.00010000                0.44763371               -0.66767592               -0.08835053               -2.15043443               13.60165980                0.95523634
               7.96152461                1.91634726               28.92474114                0.00010000                0.54678776               -0.58018424               -0.46482143               -2.22464299               12.70463771                1.99859314
               8.96713176                1.64753009               28.86155402                0.00010000                0.60916764               -0.34966130               -0.83116144               -1.98283736               12.53765519                2.80874957
               9.97370797                1.38203778               28.79639989                0.06188104                0.57719590               -0.23819901               -1.15699410               -1.27359923                9.33513591                4.55896732
              10.97867567                1.12217979               28.66758393                0.27104228                0.53624718               -0.18165780               -1.45234073               -0.55589873                4.51724444                6.23355499
              11.98443291                0.86637990               28.50554503                0.63079043                0.61863048                0.37415843               -1.91912097               -0.20768074                1.73818197                2.25956454
              12.99104828                0.61257155               28.32105102                0.96818855                0.66153725                0.92212931               -2.47815425               -0.20300640                0.60686688               -1.27204499
               3.20313059                4.18667544               29.46090479                1.00000000               -0.34031986               -0.48084995                1.47085565               -0.04704906                0.03671699                1.78427659
               4.19972739                3.94455968               29.25988732                0.57203757               -0.26210924               -0.22284127                0.81953907                0.00248615                0.23560262               -1.26666599
               5.19788840                3.70195588               29.06283054                0.04709701               -0.03870252                0.05568233                0.19634017               -0.69998627                7.61939137               -4.60414504
               6.19895334                3.44391024               29.00950321                0.00010000                0.22818550               -0.52569767                0.13872746               -1.71733455               15.90781199                0.10263901
               7.20245211                3.17805953               28.97692081                0.00010000                0.40123996               -0.48670983               -0.16131341               -2.20878506               17.33294990                0.72687288
               8.20697814                2.91032997               28.95018070                0.00010000                0.51506698               -0.58257928               -0.42725836               -2.35260093               17.53839432                2.19669671
               9.21275345                2.64239786               28.91969628                0.00010000                0.62366686               -0.59165899               -0.68976670               -2.25667428               16.98943980                3.67939140
              10.21945147                2.37641816               28.87985030                0.06620675                0.73193814               -0.70620143               -0.95767706               -1.86430609               15.19233595                5.05366154
              11.22739221                2.11525367               28.81163003                0.26946869                0.73672255               -0.70035301               -0.91730510               -0.80082324                7.34204454                7.13980490
              12.23418593                1.86808420               28.61274006                0.60911043                0.62439322                0.13613578               -1.54065447               -0.06483214                0.44862475                2.55574747
              13.23988008                1.62256961               28.40589449                0.94770228                0.56941536                0.96011513               -2.20216965               -0.08040222                0.05872673               -1.04660373
               3.44347811                5.18224535               29.39949599                1.00000000               -0.26539202               -0.40519581                1.24008368               -0.04652520                0.02239810                1.66690245
               4.44082418                4.94277337               29.18364716                0.55263632               -0.17597125               -0.13668495                0.53935798                0.01209575                0.14105196               -1.26634009
               5.43995868                4.70297695               28.97013737                0.03864531                0.06487029                0.14413256               -0.14392851               -1.05417658               10.76109492               -4.26611033
               6.44212159                4.44028172               28.96668080                0.00010000                0.28209400               -0.23782966               -0.11111078               -2.29164154               21.77974198               -1.32929460
               7.44560056                4.17352590               28.97197786                0.00010000                0.40063387               -0.38901859               -0.25261601               -2.60562233               22.37783982                0.70335692
               8.45013427                3.90469567               28.97833094                0.00010000                0.51547602               -0.55119225               -0.40925396               -2.74295825               22.46211652                2.37164940
               9.45591008                3.63569691               28.98286248                0.00010000                0.67158828               -0.72004310               -0.57596878               -2.71913165               22.30002992                4.12865600
              10.46356603                3.36791375               28.98334510                0.07374479                0.75415475               -0.91506604               -0.75425896               -2.25718053               19.77105337                6.19327416
              11.47099318                3.10817273               28.93444339                0.28088958                0.61271480               -0.65354990               -0.48774149               -0.96190336                8.85731328                5.49301964
              12.47582033                2.86910261               28.71402080                0.62549223                0.47381178                0.09840669               -1.19607717               -0.02944443                0.15781824                2.00971751
              13.48046941                2.63177386               28.49051956                0.95766377                0.46490815                0.85080155               -1.92879187               -0.04328136                0.01041326               -1.19583158
               3.68114404                6.17857152               29.33766489                1.00000000               -0.19063284               -0.33037447                1.01078547               -0.04598102                0.01992456                1.62877893
               4.67923771                5.94182598               29.10723440                0.53372439               -0.09237567               -0.05368850                0.26148311                0.01649061                0.14884206               -1.26915789
               5.67929653                5.70483853               28.87933358                0.03045924                0.16669205                0.22948318               -0.46949507               -1.33911385               13.70066403               -4.13002716
               6.68257155                5.43915364               28.91991633                0.00010000                0.33145939               -0.00849719               -0.35122101               -2.81988321               27.41003326               -1.59771640
               7.68592571                5.17027916               28.96434447                0.00010000                0.36882050               -0.23845408               -0.36234712               -3.10390884               27.70465032                0.48699041
               8.68994796                4.89930613               29.00840912                0.00010000                0.46135120               -0.50164763               -0.40285252               -3.30454754               27.76142418                2.44744157
               9.69515274                4.62799700               29.05112317                0.00010000                0.59420419               -0.77360077               -0.47155441               -3.36316549               27.71111746                4.44059635
              10.70183204                4.35811684               29.09095067                0.08141481                0.59062765               -0.99142956               -0.57368881               -2.76302902               23.58128605                6.52540863
              11.70696529                4.10218267               29.04754594                0.29259560                0.40819334               -0.56800618               -0.07891767               -1.13256966                9.89859461                4.74284216
              12.70999591                3.87005233               28.81100927                0.64285287                0.33533369                0.07642865               -0.85269165               -0.02966226                0.13483273                1.62916057
              13.71367196                3.63958564               28.57186192                0.96849880                0.36760520                0.71368220               -1.65657536               -0.04123996                0.01092299               -1.45682619
               3.91604957                7.17563786               29.27556657                1.00000000               -0.11625804               -0.25741361                0.78318265               -0.04516668                0.02068656                1.60057170
               4.91488699                6.94169960               29.03073258                0.51496494               -0.01004172                0.02741787               -0.01237966                0.01913131                0.17262100               -1.26537685
               5.91584874                6.70756661               28.78887614                0.02241828                0.26981500                0.31565011               -0.78746127               -1.56736315               16.57027149               -4.07714207
               6.92028329                6.44011178               28.87196272                0.00010000                0.37605798                0.20191085               -0.58227366               -3.28530413               32.96581744               -1.69003003
               7.92336990                6.16875682               28.95582310                0.00010000                0.30210946               -0.05354935               -0.46961243               -3.62854809               33.11477888                0.38039846
               8.92632548                5.89466272               29.03917397                0.00010000                0.32330803               -0.39768177               -0.39739952               -3.91051484               33.22070794                2.40682181
               9.92983606                5.62022490               29.12192127                0.00010000                0.38971487               -0.74493347               -0.36586195               -4.03845959               33.27856355                4.54175164
              10.93411978                5.34808516               29.20275325                0.08921703                0.32851189               -0.99262286               -0.38478204               -3.20190542               27.04135556                6.86997047
              11.93640630                5.09681261               29.15676535                0.30441322                0.18521699               -0.52375714                0.32450996               -1.20867901               10.54271225                4.38607584
              12.93782412                4.87063119               28.90510677                0.66035097                0.20858475                0.03044795               -0.51320321               -0.02995283                0.14164380                1.37969226
              13.94057799                4.64604750               28.65074651                0.97939219                0.27538725                0.58084678               -1.38558468               -0.04090312                0.01285032               -1.63240226
               4.14811722                8.17342325               29.21324706                1.00000000               -0.04256312               -0.18684532                0.55798073               -0.04405519                0.02110705                1.57257618
               5.14769159                7.94237433               28.95416596                0.49633388                0.07099345                0.10649688               -0.28106380                0.02049377                0.20084099               -1.25681204
               6.14953709                7.71115153               28.69860899                0.01452889                0.39918338                0.39889105               -1.09746496               -1.73803023               19.39264962               -4.02112438
               7.15567526                7.44319186               28.82332405                0.00010000                0.46333585                0.39662125               -0.79768456               -3.60454272               38.46829595               -1.70094861
               8.15880381                7.16920817               28.94660621                0.00010000                0.22971647                0.12825037               -0.56726348               -4.01111818               38.53589105                0.28287837
               9.16026959                6.89135249               29.06950753                0.00010000                0.10786472               -0.23167531               -0.38389602               -4.35432336               38.76096286                2.20993220
              10.16096110                6.61309833               29.19367183                0.00010000                0.04683194               -0.62424623               -0.24625017               -4.59658405               39.07545576                4.39817015
              11.16120623                6.33826439               29.31888219                0.09718657               -0.03577068               -0.92705984               -0.16473388               -3.56315924               30.32105564                7.10328546
              12.16024569                6.09170753               29.26373741                0.31636853               -0.05221318               -0.50817292                0.72370410               -1.24098641               10.84674465                4.15917754
              13.16016196                5.87066129               28.99737133                0.67794289                0.08877916               -0.03003075               -0.17662236               -0.03205386                0.15324006                1.23279156
              14.16202127                5.65120258               28.72811210                0.99033960                0.18593086                0.45226732               -1.11498846               -0.04158269                0.01452181               -1.72014365
               4.37726630                9.17190096               29.15068117                1.00000000                0.03022911               -0.11917665                0.33490850               -0.04250680                0.02755723                1.55195227
               5.37756859                8.94382954               28.87758710                0.47784259                0.15021559                0.18362334               -0.54252932                0.01851832                0.24345333               -1.25861793
               6.38027061                8.71554443               28.60873635                0.00685468                0.62836020                0.47422903               -1.39821096               -1.87013692               22.21151445               -3.84187435
               7.39013579                8.44804420               28.77495703                0.00010000                0.73581459                0.45707136               -0.99318977               -3.68540286               43.91367188               -1.50478434
               8.39498690                8.17132183               28.93655304                0.00010000                0.26065340                0.17696436               -0.65065588               -3.88090843               43.84083083                0.18927816
               9.39534886                7.89002921               29.09733468                0.00010000               -0.19972070                0.01514083               -0.35964334               -4.21021511               44.25462568                1.75338460
              10.39099248                7.60773997               29.26299803                0.00010000               -0.55507336               -0.26558787               -0.10954761               -4.72770462               45.10712269                3.71004639
              11.38424739                7.32954397               29.43684483                0.10533776               -0.59014107               -0.68491841                0.09776299               -3.90654409               33.63761017                6.77768106
              12.37918966                7.08664915               29.36911195                0.32847444               -0.32796981               -0.50864817                1.11851019               -1.30178102               10.98805854                3.86118441
              13.37768799                6.87003057               29.08867965                0.69562584               -0.02629511               -0.10038770                0.15858380               -0.03885500                0.19047272                1.19447417
              14.37866376                6.65509285               28.80484991                1.00000000                0.09757663                0.32815949               -0.84332323               -0.04281321                0.02612050               -1.74334518
               4.60340991               10.17103971               29.08806513                0.99161040                0.10085693               -0.05257170                0.11326820               -0.04037435               -0.00807682                1.33373186
               5.60441848                9.94604680               28.80073389                0.45946354                0.22548896                0.25729842               -0.79504137                0.01077853                0.40289068               -1.11389381
               6.60791969                9.72063611               28.52154197                0.00010000                1.08856603                0.53586659               -1.68670356               -2.07429088               25.19969920               -2.86512086
               7.62618980                9.45233329               28.73002567                0.00010000                1.56404667               -0.06662535               -1.16102591               -2.86382812               49.22776144               -0.87296253
               8.63920063                9.17274746               28.92594666                0.00010000                0.67286682                0.06350938               -0.71598454               -2.65947220               48.78266640                0.09540220
               9.63964714                8.89165531               29.11948589                0.00010000               -0.61541849                0.26264446               -0.32860635               -2.79233103               49.36289208                0.98311044
              10.62689226                8.60778657               29.32215022                0.00010000               -1.77404861                0.43847042                0.02829627               -3.55248521               51.14740166                2.18730371
              11.60416617                8.32456602               29.54765972                0.11372130               -1.65843961                0.15765236                0.38659918               -3.40179818               37.28252892                4.59001204
              12.59372346                8.08153457               29.47055682                0.34076446               -0.66125012               -0.49775844                1.49766160               -1.47939100               11.48337760                2.72134231
              13.59094117                7.86865354               29.18024275                0.71336949               -0.13415050               -0.17750866                0.49601919               -0.05141905                0.40137562                1.06844501
              14.59104045                7.65776577               28.88143806                1.00000000                0.00992889                0.21111900               -0.57003991               -0.04616560               -0.01817655               -1.47389581
               4.82644464               11.17084952               29.02124869                0.99125663                0.17431270               -0.01901932               -0.10731926                0.11607109                0.65425209                1.12117227
               5.82818776               10.94897551               28.72682130                0.72386502                0.30268338                0.29287090               -1.04448267                0.14754001                1.57850786               -0.95684437
               6.83249830               10.72626176               28.45076724                0.49740514                2.62800562                0.56256525               -1.92470027               -2.65532972               28.50877184               -2.03070758
               7.88074788               10.44671169               28.69458594                0.44519627                3.49885638               -0.56215930               -1.28349209               -2.22768015               53.93472624               -0.53789597
               8.90247543               10.17259201               28.91509260                0.43524222                1.18576262               -0.01554472               -0.76018192               -1.24399906               53.01292947                0.00193782
               9.90446313                9.89528210               29.13285174                0.45066266               -0.77216786                0.36267920               -0.29773925               -1.32253289               53.67624106                0.50041682
              10.88703207                9.61650938               29.36155680                0.49007848               -3.09998481                0.87228088                0.13841002               -2.11527269               55.98422509                1.19286368
              11.84246343                9.33269701               29.62227094                0.55967201               -4.07588741                0.81309963                0.60446607               -3.16104362               41.16487299                2.88135211
              12.80551433                9.07669398               29.55333935                0.67440942               -2.10175080               -0.48405877                1.79809235               -2.13174471               13.65130292                1.78985055
              13.80042842                8.86648040               29.26903736                0.86234860               -0.29991694               -0.21731385                0.82211430                0.07978733                1.80200045                0.93132036
              14.79951599                8.65931523               28.96333083                1.00000000               -0.09124286                0.15494599               -0.27307841                0.13103623                0.73540039               -1.20036343
               2.62672541                1.28367914               30.66372408                1.00000000               -0.57194644               -0.63114352                2.15725784               -0.10978045               -1.42111984                1.43446896
               3.62100595                1.02002933               30.48774711                0.98784056               -0.50904463               -0.45292341                1.62496608               -0.07026699               -1.49140756               -0.14767999
               4.61654452                0.75546063               30.31048261                0.66241584               -0.49377866               -0.26792953                1.06349593               -0.21770441               -1.12942526               -1.09154988
               5.61113037                0.48635891               30.14200931                0.51410125               -0.57814092               -0.14977858                0.54435320               -0.32495282                0.74831205               -0.13542385
               6.60498170                0.20714044               30.00346891                0.44942556               -0.47109281                0.00016063                0.00439931               -0.29873804                3.51644212               -0.12334861
               7.60170852               -0.08330384               29.89223637                0.45046152                0.00227386                0.15308921               -0.57755894               -0.17954216                4.78046106                0.02546029
               8.60502718               -0.37757090               29.78055081                0.51326106                0.54196849                0.30951820               -1.14439082               -0.20797699                3.40747661                0.15239271
               9.61254789               -0.66677344               29.64187206                0.64328823                0.78669040                0.45996301               -1.66557932               -0.23501425                0.84431223                0.22896986
              10.62076098               -0.94881888               29.47785882                0.85594236                0.81445589                0.59052890               -2.16299059               -0.16062427               -1.08565809                0.54396897
              11.62883700               -1.22624793               29.29953097                1.00000000                0.85301191                0.73076771               -2.69943765               -0.07068410               -1.47962220                0.75439821
              12.63782122               -1.50208820               29.12699077                1.00000000                0.89842187                0.91496180               -3.19194654               -0.13281645               -1.16841522               -1.35892818
               2.88927741                2.27736770               30.59699705                1.00000000               -0.48648828               -0.60732289                1.92669069               -0.03469986                0.08546826                1.79204563
               3.88441253                2.01550010               30.42064540                0.79328979               -0.40373637               -0.41181096                1.38909490                0.00207052                0.34265527               -0.47046966
               4.88120268                1.75278134               30.24947460                0.19689826               -0.11857951               -0.20790379                0.89919902               -0.21579988                2.03327381               -2.22583592
               5.88204094                1.48486112               30.10688381                0.00010000                0.28115042               -0.11606539                0.44779425               -0.71856331                4.61651984               -2.16720826
               6.88682569                1.20714205               29.98641650                0.00010000                0.51139145               -0.46187638               -0.02936505               -1.22999080                7.33215183                0.61920502
               7.89226877                0.91822706               29.89645983                0.00010000                0.39282591               -0.23242654               -0.54266889               -1.50041372                8.93039859                0.99910839
               8.89468221                0.62552428               29.80657352                0.00010000                0.17764821                0.06539459               -1.03534614               -1.28862924                7.52975219                1.18804857
               9.89582173                0.33782619               29.68855071                0.17418402                0.21048864                0.26137539               -1.47678394               -0.69994934                4.88725293                2.71228490
              10.89889198                0.05708641               29.54653591                0.49376956                0.44715469                0.45230013               -1.90913501               -0.26326967                2.85806254                2.44639997
              11.90476482               -0.21894025               29.38843510                1.00000000                0.67206738                0.65046442               -2.29665404               -0.04061376                1.16635936                1.21926629
              12.91233333               -0.49293858               29.21260713                1.00000000                0.75685058                0.87301012               -2.79482416               -0.06527846                0.28359373               -1.43434475
               3.14976662                3.27153268               30.53749002                1.00000000               -0.41329005               -0.55294961                1.70499130               -0.04942196                0.22748732                2.03098064
               4.14563372                3.01179311               30.34715017                0.59225163               -0.34495647               -0.31551147                1.09902305               -0.01351288                0.67536181               -1.06900830
               5.14286749                2.75130256               30.16577196                0.06051109               -0.16176644               -0.05849062                0.57932729               -0.32185250                3.45509799               -4.21875326
               6.14239839                2.48403760               30.03108058                0.00010000                0.20742299               -0.42958166                0.27631494               -1.55926410               10.20253759               -1.43806893
               7.14701595                2.19790292               29.98410050                0.00010000                0.54598093               -0.75214200               -0.10372298               -2.50438243               13.83011574                0.92111713
               8.15331801                1.91204763               29.91998026                0.00010000                0.63197547               -0.63962549               -0.48746639               -2.60790866               12.93175727                2.02206150
               9.15965546                1.62373699               29.85310551                0.00010000                0.68343783               -0.36882480               -0.85907804               -2.35747896               12.78632051                2.87757922
              10.16698677                1.33845406               29.78467466                0.05914962                0.63032826               -0.25395493               -1.18814009               -1.53074227                9.61550091                4.63285633
              11.17226203                1.06022713               29.65302874                0.26422633                0.55314780               -0.24993622               -1.46934481               -0.64632523                4.73354640                6.47219675
              12.17804972                0.78676136               29.48646944                0.61449190                0.61251450                0.34227838               -1.88283387               -0.24102965                1.81256968                2.31356406
              13.18451232                0.51537200               29.29643363                0.95575195                0.64625932                0.92307177               -2.44008682               -0.22647525                0.63317438               -1.34161416
               3.40776811                4.26630871               30.47561952                1.00000000               -0.33957120               -0.48454128                1.47176544               -0.04746880                0.03595905                1.81599714
               4.40437239                4.00918987               30.26803820                0.55893113               -0.26234813               -0.21486571                0.81052462                0.00437082                0.24933701               -1.33956188
               5.40252114                3.75161152               30.06471088                0.04443851               -0.00585491                0.07860298                0.17938200               -0.81169526                7.92939633               -4.81479953
               6.40425529                3.47626949               30.01076807                0.00010000                0.31034353               -0.58624445                0.11309664               -1.96879715               16.38515364                0.00017125
               7.40872801                3.19209921               29.97518118                0.00010000                0.50106119               -0.54031040               -0.18695128               -2.53636623               17.70970295                0.68332726
               8.41427652                2.90543455               29.94575588                0.00010000                0.61990935               -0.63989333               -0.45800958               -2.71758430               17.93683579                2.20433575
               9.42112620                2.61814779               29.91263764                0.00010000                0.72201155               -0.64138504               -0.72200408               -2.61536409               17.39181547                3.72296958
              10.42871675                2.33274709               29.87015057                0.06347009                0.82659901               -0.74183809               -0.98297899               -2.19612995               15.75012260                5.10332958
              11.43765818                2.05208769               29.80243873                0.26301088                0.80413029               -0.80921297               -0.91999251               -0.96119196                7.71807320                7.39034805
              12.44479936                1.78790532               29.59733796                0.59419763                0.64621810                0.09296691               -1.54691076               -0.08056623                0.46193850                2.61067428
              13.45058254                1.52552285               29.38386445                0.93644316                0.57831868                0.98257084               -2.21859157               -0.07796990                0.05294790               -1.15499503
               3.66305493                5.26184185               30.41189135                1.00000000               -0.26366060               -0.40898759                1.23855202               -0.04699117                0.02256559                1.69899622
               4.66041832                5.00749580               30.18897766                0.54001526               -0.17504828               -0.12652710                0.52623934                0.01500112                0.15045722               -1.33417857
               5.65955396                4.75287462               29.96858593                0.03620898                0.10582199                0.16934101               -0.16716213               -1.19983554               11.13627652               -4.43926751
               6.66253476                4.47231271               29.96539375                0.00010000                0.37848049               -0.25906357               -0.14746712               -2.60360196               22.43446937               -1.47323819
               7.66712357                4.18709671               29.96926403                0.00010000                0.51914937               -0.43046263               -0.29089562               -2.96094987               22.94665010                0.64575023
               8.67291775                3.89924977               29.97403427                0.00010000                0.64560327               -0.60562388               -0.45034774               -3.11964267               23.02551954                2.36681544
               9.68003564                3.61090929               29.97689428                0.00010000                0.81032576               -0.78087814               -0.61726740               -3.09115725               22.86022126                4.15737712
              10.68912426                3.32361730               29.97562099                0.07086009                0.89221594               -0.98640684               -0.78849105               -2.60914695               20.55580645                6.23880903
              11.69787996                3.04404287               29.92951559                0.27417750                0.69394845               -0.73662433               -0.49763365               -1.13628915                9.37702913                5.68847278
              12.70300323                2.78862070               29.70199475                0.61018143                0.49189445                0.07305187               -1.20969249               -0.03127612                0.16874617                2.05969730
              13.70771785                2.53502342               29.47113742                0.94615366                0.47146121                0.87970482               -1.95331319               -0.04181270                0.00982625               -1.29265115
               3.91552039                6.25812896               30.34775767                1.00000000               -0.18807396               -0.33445697                1.00728069               -0.04629522                0.02009912                1.66219059
               4.91363965                6.00665933               30.10977079                0.52157351               -0.09064385               -0.04201546                0.24508455                0.01947056                0.15885519               -1.33175155
               5.91370752                5.75499834               29.87450393                0.02823312                0.21607547                0.25659357               -0.49738832               -1.51057116               14.14317134               -4.28745574
               6.91796116                5.47108822               29.91619257                0.00010000                0.44322235               -0.01191276               -0.39477796               -3.17662279               28.22370311               -1.72628771
               7.92257196                5.18348996               29.96048135                0.00010000                0.50549603               -0.26985521               -0.41116344               -3.49320448               28.45163815                0.42509054
               8.92807108                4.89332207               30.00411272                0.00010000                0.61817783               -0.55514303               -0.45668782               -3.71045043               28.49047552                2.43784859
               9.93493552                4.60253022               30.04612088                0.00010000                0.76645752               -0.84403201               -0.52794756               -3.76293835               28.41956832                4.46644591
              10.94340023                4.31301895               30.08492874                0.07839081                0.74967400               -1.07165007               -0.62768334               -3.14470562               24.58827384                6.56656790
              11.94992900                4.03735520               30.04669956                0.28561604                0.48965237               -0.62831323               -0.08959547               -1.32615446               10.57702373                4.92884054
              12.95319328                3.78936635               29.80240916                0.62709439                0.35059241                0.05962576               -0.86814797               -0.03178446                0.15057547                1.68117608
              13.95694085                3.54311695               29.55517727                0.95667257                0.37475668                0.74016185               -1.68443722               -0.03949695                0.01132315               -1.54691639
               4.16506829                7.25515271               30.28337620                1.00000000               -0.11299408               -0.26234654                0.77829198               -0.04556583                0.02090183                1.63522750
               5.16393835                7.00665549               30.03051980                0.50327266               -0.00773212                0.04019995               -0.03098476                0.02151352                0.18375013               -1.32114141
               6.16491365                6.75800649               29.78085071                0.02037976                0.32861730                0.34391735               -0.81890192               -1.76046018               17.08035272               -4.22247855
               7.17051069                6.47207446               29.86590163                0.00010000                0.50559947                0.20850091               -0.63133320               -3.68140232               33.93351361               -1.80295384
               8.17502563                6.18169960               29.95083750                0.00010000                0.45788918               -0.07761603               -0.52865157               -4.05265512               34.03227714                0.32594207
               9.17966848                5.88814691               30.03486006                0.00010000                0.50271772               -0.44968862               -0.46578248               -4.34633727               34.11211526                2.40076156
              10.18507999                5.59402865               30.11787541                0.00010000                0.58683481               -0.81677233               -0.44230399               -4.46590332               34.13736969                4.57463766
              11.19140517                5.30218430               30.19847995                0.08604832                0.49647371               -1.07024171               -0.46671335               -3.59753845               28.26836145                6.93061320
              12.19500946                5.03147660               30.15996075                0.29717721                0.26003120               -0.56691541                0.31507357               -1.40726872               11.37323825                4.56700460
              13.19660580                4.78981321               29.89990061                0.64411991                0.22086265                0.02009178               -0.52863585               -0.03234566                0.16050670                1.42910231
              14.19942672                4.54982666               29.63676114                0.96726896                0.28209196                0.60359537               -1.41438626               -0.03975394                0.01379848               -1.71923406
               4.41160353                8.25288203               30.21880397                1.00000000               -0.03873762               -0.19326105                0.55259523               -0.04399790                0.02068812                1.60792212
               5.41121615                8.00746332               29.95125773                0.48511114                0.07379076                0.11978408               -0.30099515                0.02126950                0.21286767               -1.30363009
               6.41307934                7.76187669               29.68747242                0.01268756                0.47119240                0.42662489               -1.13146206               -1.95111056               19.97228436               -4.15478693
               7.42064000                7.47525824               29.81508509                0.00010000                0.61835355                0.40703213               -0.85210198               -4.02857907               39.58898466               -1.79512403
               8.42544641                7.18193764               29.94059586                0.00010000                0.40876465                0.10462957               -0.63635037               -4.45562854               39.61873576                0.23977032
               9.42881529                6.88432830               30.06525348                0.00010000                0.30668227               -0.28185081               -0.46771420               -4.79907608               39.81553220                2.21183422
              10.43158006                6.58619478               30.19070969                0.00010000                0.25931102               -0.68949683               -0.34571232               -5.03119479               40.09443407                4.44479846
              11.43400151                6.29161412               30.31663957                0.09386344                0.12873259               -0.99521319               -0.28145355               -3.95331023               31.75986914                7.19904108
              12.43415471                6.02601689               30.27093764                0.30887358                0.00974010               -0.53706602                0.71661648               -1.43466029               11.81155898                4.33455816
              13.43419631                5.78976819               29.99553647                0.66125931                0.09820874               -0.03543531               -0.19095661               -0.03492725                0.17428976                1.28052500
              14.43611889                5.55518886               29.71683004                0.97790261                0.19225713                0.47088812               -1.14379133               -0.04078630                0.01582445               -1.80371657
               4.65502573                9.25128749               30.15399796                0.99544223                0.03433387               -0.12535608                0.32779746               -0.04255323                0.03065382                1.58848268
               5.65536907                9.00905117               29.87207849                0.46707127                0.15353933                0.19556182               -0.56032536                0.01578513                0.25586116               -1.29740515
               6.65809652                8.76653898               29.59457550                0.00521128                0.72545465                0.49934195               -1.43726254               -2.10226031               22.86431436               -3.96336108
               7.66987817                8.48021510               29.76473922                0.00010000                0.93732429                0.45405140               -1.05304559               -4.11870945               45.18985016               -1.57614539
               8.67684301                8.18379220               29.92966614                0.00010000                0.47758254                0.13515281               -0.72875370               -4.29721998               45.08467957                0.15960398
               9.67942982                7.88250989               30.09325500                0.00010000                0.01636336               -0.03507322               -0.45764277               -4.60700180               45.47441092                1.76127860
              10.67717027                7.58023871               30.26129358                0.00010000               -0.34564832               -0.31009227               -0.23188807               -5.11714935               46.30247490                3.76432132
              11.67251685                7.28228004               30.43705317                0.10187616               -0.45040448               -0.72670130               -0.05575156               -4.27057410               35.27854923                6.90617272
              12.66816218                7.02073528               30.38027675                0.32070706               -0.28907808               -0.52516303                1.11467033               -1.48699411               12.06366565                4.02554666
              13.66673529                6.78910451               30.09020645                0.67847116               -0.01962637               -0.10221056                0.14622085               -0.04237864                0.21428908                1.24306959
              14.66776966                6.55924442               29.79628686                0.98856225                0.10343678                0.34261312               -0.87132424               -0.04236986                0.02811395               -1.82329427
               4.89522511               10.25037490               30.08917757                0.98169483                0.10552537               -0.05570482                0.11153535               -0.04259298               -0.00036444                1.37331785
               5.89628036               10.01137456               29.79267610                0.44913888                0.23225486                0.26785522               -0.82134704                0.00548616                0.41966822               -1.15121727
               6.89987021                9.77186353               29.50447453                0.00010000                1.23661185                0.55490586               -1.73163363               -2.33165078               25.93775586               -2.95279327
               7.92101260                9.48433927               29.71810986                0.00010000                1.86685100               -0.14781589               -1.22528505               -3.20641956               50.66336772               -0.91087884
               8.93720723                9.18464069               29.91837759                0.00010000                0.96080694               -0.00844572               -0.80022662               -2.94358446               50.18015645                0.07943133
               9.94022874                8.88362683               30.11566921                0.00010000               -0.38701502                0.21307397               -0.43648453               -3.03648076               50.74174479                0.98974017
              10.92946692                8.57999293               30.32174413                0.00010000               -1.60676381                0.41775327               -0.11108310               -3.80271349               52.53208998                2.22747684
              11.90809346                8.27708009               30.55060881                0.11011122               -1.59382842                0.19641304                0.20112955               -3.65488594               39.12047494                4.69785550
              12.89759036                8.01551363               30.48553279                0.33273250               -0.66269282               -0.50232240                1.49775061               -1.66177162               12.65508799                2.83760822
              13.89483961                7.78772398               30.18515811                0.69573590               -0.12993445               -0.17701834                0.48659931               -0.05609235                0.43502418                1.11298071
              14.89499167                7.56204112               29.87561492                0.99919193                0.01520623                0.22171924               -0.59643131               -0.04617110               -0.01773490               -1.53918382
               5.13217456               11.25017340               30.02016245                0.98639520                0.18156083               -0.02015084               -0.11173760                0.11843319                0.66884326                1.16334138
               6.13399017               11.01440827               29.71619805                0.71884461                0.31621187                0.30337136               -1.08068944                0.14416610                1.63005551               -0.99458510
               7.13849880               10.77763710               29.43131992                0.49673830                2.94912203                0.57735717               -1.97136873               -2.99461518               29.35475173               -2.08944403
               8.19297261               10.47725878               29.68144105                0.44548385                4.00924761               -0.70804832               -1.34845120               -2.50468984               55.52613114               -0.56479346
               9.21868375               10.18362328               29.90707575                0.43540914                1.51876765               -0.10174122               -0.84549991               -1.37671809               54.54730956               -0.01228117
              10.22334796                9.88677137               30.12933067                0.45045670               -0.55105034                0.31445372               -0.40813182               -1.43955249               55.19144738                0.49922698
              11.20766274                9.58859378               30.36222575                0.48929017               -2.97247680                0.86008486               -0.00634419               -2.20857160               57.52261098                1.21194995
              12.16389843                9.28620830               30.62734450                0.55782181               -4.16899412                0.91282069                0.40726763               -3.31475059               43.17462996                2.95389273
              13.12428286                9.01068883               30.57133352                0.67031636               -2.24062366               -0.48247991                1.80122286               -2.36295718               14.94430460                1.86655331
              14.11908595                8.78556414               30.27723127                0.85339100               -0.30354548               -0.21598375                0.81640460                0.07413343                1.89616903                0.97050409
              15.11821195                8.56367880               29.96049149                1.00000000               -0.08740022                0.16376837               -0.29640561                0.13349473                0.76844192               -1.25231413
               2.79096338                1.36609127               31.68534573                1.00000000               -0.58010482               -0.63511368                2.17085311               -0.11073975               -1.45374091                1.47448212
               3.78516234                1.08670368               31.50411251                0.97818506               -0.52128382               -0.45634511                1.64550870               -0.07052589               -1.54620128               -0.17939484
               4.78053771                0.80629194               31.32118698                0.65875822               -0.53105183               -0.26809442                1.07650271               -0.24350205               -1.18791110               -1.10802812
               5.77454130                0.52058577               31.14743065                0.51321223               -0.65521264               -0.14820585                0.54309847               -0.36770335                0.70010021               -0.13935520
               6.76743345                0.22310131               31.00346162                0.44940733               -0.56046551                0.00642562               -0.00410483               -0.33759159                3.43490835               -0.12804214
               7.76333199               -0.08745795               30.88635915                0.45025725               -0.04243375                0.16298918               -0.59509999               -0.19957723                4.67649965                0.02486172
               8.76658478               -0.40261014               30.76894902                0.51197081                0.56297167                0.32074983               -1.17212146               -0.22974824                3.32210464                0.15578447
               9.77459142               -0.71209314               30.62500468                0.63980008                0.83671537                0.47183888               -1.70275726               -0.26277387                0.78538778                0.23618669
              10.78331909               -1.01339444               30.45598931                0.84841149                0.85811416                0.60393472               -2.21035975               -0.18146077               -1.15514344                0.53338479
              11.79175371               -1.30934249               30.27223540                1.00000000                0.88273419                0.73903704               -2.75453925               -0.07603758               -1.54492167                0.82828102
              12.80097377               -1.60338231               30.09471279                1.00000000                0.92200651                0.93795799               -3.26052296               -0.13622523               -1.21013435               -1.35189417
               3.06924358                2.35974013               31.61630247                1.00000000               -0.48868366               -0.61158851                1.93598980               -0.03730884                0.10096900                1.83478099
               4.06435674                2.08214023               31.43457765                0.77607789               -0.40409687               -0.41232249                1.39748868               -0.00056366                0.38165506               -0.52857002
               5.06116164                1.80361100               31.25851314                0.19141717               -0.09485802               -0.20199928                0.90863557               -0.25468548                2.11243321               -2.32284310
               6.06245958                1.51910371               31.11136609                0.00010000                0.34588796               -0.12178698                0.44916352               -0.83462885                4.69835105               -2.20908551
               7.06807940                1.22316557               30.98609401                0.00010000                0.58661806               -0.50917716               -0.03525700               -1.42332958                7.38029477                0.59185139
               8.07419194                0.91417194               30.89095474                0.00010000                0.42627456               -0.25248065               -0.55839180               -1.73727247                8.96489827                1.00782867
               9.07660489                0.60059736               30.79608567                0.00010000                0.15819454                0.08138527               -1.06232539               -1.49838497                7.59645758                1.22542383
              10.07735583                0.29262525               30.67361810                0.16921928                0.17621321                0.25940931               -1.51275800               -0.82245566                4.98015616                2.76944500
              11.08012915               -0.00735509               30.52724142                0.48250944                0.43157169                0.45576747               -1.95065898               -0.31723223                2.97817562                2.53236225
              12.08598727               -0.30195212               30.36539408                0.97938188                0.67610926                0.65454066               -2.34592536               -0.05609692                1.26318306                1.30956045
              13.09365134               -0.59400273               30.18473018                1.00000000                0.76640738                0.89321324               -2.83125469               -0.06458011                0.34038023               -1.45063256
               3.34541702                3.35385950               31.55456188                1.00000000               -0.41368198               -0.55730443                1.70967514               -0.05178605                0.22738665                2.07061442
               4.34128020                3.07845723               31.35811800                0.57788345               -0.34682532               -0.30996419                1.09511480               -0.01707592                0.71992792               -1.15038860
               5.33848051                2.80225196               31.17153408                0.05724523               -0.14930234               -0.03825444                0.57356560               -0.38611871                3.65552431               -4.43226854
               6.33829415                2.51815003               31.03387636                0.00010000                0.27090611               -0.47516117                0.28293810               -1.78038275               10.47006582               -1.52586995
               7.34389863                2.21291777               30.98298630                0.00010000                0.64302980               -0.83015101               -0.11933311               -2.85393181               14.05153031                0.87345275
               8.35115475                1.90749244               30.91499181                0.00010000                0.71325680               -0.69046320               -0.51066623               -2.99168756               13.15963986                2.03383667
               9.35816377                1.59901756               30.84437246                0.00010000                0.74700051               -0.37644372               -0.88761184               -2.74036025               13.03774327                2.93886177
              10.36609476                1.29309505               30.77263709                0.05632131                0.66940210               -0.25434134               -1.22236771               -1.79998245                9.90149498                4.70550409
              11.37155181                0.99572091               30.63819704                0.25729844                0.55923248               -0.30355658               -1.49210259               -0.74547967                4.98498328                6.71572423
              12.37727941                0.70374832               30.46788835                0.59818480                0.61157903                0.33622479               -1.89118338               -0.26136278                1.93241586                2.35943691
              13.38378339                0.41448195               30.27224929                0.94337080                0.65039854                0.93843299               -2.47516068               -0.21490134                0.68522523               -1.45639615
               3.61901240                4.34859405               31.49034010                1.00000000               -0.33896320               -0.48861900                1.47214406               -0.04832086                0.03529137                1.84917939
               4.61562277                4.07594094               31.27609782                0.54567703               -0.26329682               -0.20500062                0.80117643                0.00552068                0.26405786               -1.41453331
               5.61374646                3.80284591               31.06641818                0.04173543                0.02816733                0.10732964                0.16151053               -0.92764231                8.24057070               -5.03411784
               6.61618611                3.50960049               31.01176514                0.00010000                0.39559480               -0.63787870                0.08530551               -2.22223157               16.86758374               -0.12563751
               7.62165836                3.20656255               30.97318178                0.00010000                0.60361396               -0.58885195               -0.21361511               -2.86217031               18.09360988                0.62521088
               8.62825839                2.90036268               30.94102051                0.00010000                0.72683575               -0.69086462               -0.48962915               -3.08172004               18.34156973                2.19921623
               9.63619507                2.59306848               30.90525620                0.00010000                0.81972224               -0.68281765               -0.75500487               -2.97301163               17.80622642                3.75623395
              10.64465284                2.28753842               30.86019072                0.06064784                0.91856064               -0.75916403               -1.00942463               -2.52643083               16.33355173                5.14713389
              11.65456629                1.98657378               30.79323018                0.25641473                0.86730656               -0.90197802               -0.92980637               -1.10789330                8.11417712                7.64337067
              12.66199897                1.70477238               30.58180184                0.57922170                0.66598838                0.07385172               -1.56292576               -0.07569133                0.47962600                2.63057276
              13.66788605                1.42476593               30.36152266                0.92519524                0.58870853                1.00630306               -2.25599528               -0.07078419                0.04843206               -1.30253965
               3.88975680                5.34408712               31.42426703                1.00000000               -0.26180544               -0.41317786                1.23612088               -0.04762076                0.02280263                1.73300334
               4.88713875                5.07435722               31.19417194                0.52729192               -0.17443417               -0.11460696                0.51201060                0.01786114                0.16070580               -1.40346061
               5.88626812                4.80439855               30.96679413                0.03371725                0.14970665                0.19893618               -0.19196715               -1.34865237               11.51122919               -4.61740107
               6.89013288                4.50539246               30.96373146                0.00010000                0.48124601               -0.27402395               -0.18621569               -2.91878743               23.09318574               -1.62694687
               7.89589304                4.20114073               30.96615995                0.00010000                0.64407640               -0.46775234               -0.33086049               -3.31686745               23.52503408                0.57403146
               8.90301441                3.89367514               30.96932398                0.00010000                0.78173755               -0.65626804               -0.49232590               -3.49599819               23.59966497                2.34740423
               9.91152779                3.58536121               30.97051713                0.00010000                0.95232190               -0.83618477               -0.65822153               -3.46151827               23.43714319                4.17071257
              10.92206085                3.27791177               30.96757528                0.06789553                1.03161015               -1.04745913               -0.81997027               -2.96569300               21.36933984                6.26650181
              11.93215999                2.97768135               30.92449072                0.26734365                0.77562912               -0.81297218               -0.50813249               -1.31136790                9.92073651                5.87498684
              12.93757343                2.70522536               30.68982695                0.59481976                0.51103060                0.04988066               -1.22649651               -0.02712972                0.18556687                2.10251277
              13.94238061                2.43460801               30.45145330                0.93465809                0.48071756                0.91288330               -1.99072470               -0.03792676                0.01090171               -1.39475066
               4.15751979                6.34033049               31.35781050                1.00000000               -0.18512298               -0.33955044                1.00242650               -0.04698843                0.02023248                1.69762854
               5.15566856                6.07364880               31.11213609                0.50930966               -0.08908088               -0.02836938                0.22731378                0.02214364                0.16954994               -1.39438876
               6.15573817                5.80682463               30.86938581                0.02593779                0.26998118                0.28749980               -0.52740409               -1.68614751               14.58503888               -4.44827749
               7.16106819                5.50412001               30.91202077                0.00010000                0.56500750               -0.01161415               -0.44079584               -3.53916201               29.04023733               -1.86210339
               8.16703832                5.19720750               30.95612120                0.00010000                0.65248803               -0.29897885               -0.46195337               -3.88593618               29.20765078                0.35049585
               9.17411795                4.88723732               30.99927536                0.00010000                0.78448806               -0.60689790               -0.51127892               -4.11736208               29.23061710                2.41171138
              10.18272809                4.57634479               31.04056421                0.00010000                0.94504468               -0.91161883               -0.58281848               -4.16061525               29.14383168                4.47154408
              11.19301884                4.26658924               31.07839701                0.07527016                0.91486269               -1.14625856               -0.67585051               -3.53448169               25.63261326                6.57985594
              12.20102534                3.97031433               31.04575403                0.27852403                0.57554360               -0.68833666               -0.09973332               -1.52644270               11.28800910                5.11075185
              13.20452971                3.70576999               30.79364631                0.61128757                0.36684337                0.04302813               -0.88566497               -0.03151549                0.17121158                1.72669944
              14.20836221                3.44302359               30.53817317                0.94488666                0.38324951                0.77010185               -1.72037019               -0.03702409                0.01213395               -1.64311670
               4.42218040                7.33729611               31.29113241                1.00000000               -0.10929229               -0.26852786                0.77254623               -0.04544474                0.02112389                1.67286299
               5.42108748                7.07378983               31.03011288                0.49146448               -0.00532184                0.05471205               -0.05165304                0.02321848                0.19556010               -1.37575755
               6.42207396                6.81014854               30.77249811                0.01828408                0.39396480                0.37531845               -0.85262305               -1.96062026               17.58889923               -4.37072461
               7.42896677                6.50516018               30.85933606                0.00010000                0.64915233                0.21658876               -0.68343039               -4.08620361               34.90270749               -1.92305008
               8.43505701                6.19516115               30.94525006                0.00010000                0.62815532               -0.10162798               -0.59009431               -4.48255920               34.95656590                0.25869566
               9.44152988                5.88153719               31.02985832                0.00010000                0.69532755               -0.50215391               -0.53504381               -4.78419311               35.01203256                2.37669233
              10.44896356                5.56712883               31.11307519                0.00010000                0.79358945               -0.88843300               -0.51678383               -4.89074882               35.00722852                4.58266136
              11.45740167                5.25498660               31.19341898                0.08278570                0.67434155               -1.14586295               -0.54176513               -4.00286993               29.54418403                6.95594183
              12.46245039                4.96391462               31.16306682                0.28982034                0.34160957               -0.61158224                0.30590877               -1.61730271               12.25068599                4.74567287
              13.46423386                4.70608592               30.89453405                0.62785938                0.23412615                0.00979813               -0.54575678               -0.03394582                0.18382268                1.47415000
              14.46713292                4.45001005               30.62245878                0.95516993                0.28990550                0.62894635               -1.44922801               -0.03816595                0.01512332               -1.81108474
               4.68362346                8.33495993               31.22429897                0.99850757               -0.03429633               -0.19995493                0.54368871               -0.04479302                0.02058618                1.64630236
               5.68328050                8.07474305               30.94814606                0.47376280                0.07659803                0.13366199               -0.32013567                0.01959284                0.22454448               -1.34757925
               6.68515542                7.81433100               30.67597975                0.01079019                0.55255038                0.45632764               -1.17018425               -2.17345319               20.54961968               -4.29432016
               7.69433151                7.50845179               30.80628201                0.00010000                0.79273534                0.41681747               -0.91059494               -4.46403414               40.71008403               -1.89767145
               8.70101013                7.19517494               30.93387921                0.00010000                0.60674469                0.07855165               -0.70856560               -4.90749219               40.70587448                0.18397456
               9.70646640                6.87719424               31.06015324                0.00010000                0.52267847               -0.33490613               -0.55298364               -5.24595253               40.87413104                2.19569283
              10.71146370                6.55857613               31.18675759                0.00010000                0.48546294               -0.75684353               -0.44399287               -5.46210048               41.11615563                4.46494226
              11.71617566                6.24367198               31.31325312                0.09045272                0.30581314               -1.06442070               -0.39196239               -4.35299532               33.26116754                7.25491681
              12.71757996                5.95808269               31.27806974                0.30125195                0.07898514               -0.56748385                0.70956054               -1.64233638               12.84230744                4.50935481
              13.71775536                5.70596595               30.99355220                0.64452463                0.10853322               -0.04077968               -0.20685336               -0.03751812                0.19957764                1.32529612
              14.71975063                5.45560252               30.70523627                0.96549597                0.19952643                0.49160138               -1.17759373               -0.03972782                0.01746370               -1.89182037
               4.94171831                9.33329701               31.15723712                0.98508589                0.03899541               -0.13091737                0.32344009               -0.04428970                0.04022246                1.63475230
               5.94210826                9.07646307               30.86638059                0.45618055                0.15889248                0.20799251               -0.58348564                0.01062368                0.26825230               -1.34022091
               6.94489616                8.81927510               30.57999110                0.00350871                0.83669437                0.52524124               -1.48334567               -2.34404552               23.51583900               -4.09471057
               7.95884215                8.51349652               30.75389612                0.00010000                1.16342772                0.44810500               -1.11830008               -4.56601588               46.46821774               -1.65626559
               8.96816471                8.19673218               30.92197796                0.00010000                0.71837449                0.08757737               -0.81084201               -4.72115913               46.33102752                0.11888749
               9.97320964                7.87483906               31.08818183                0.00010000                0.25395469               -0.09099000               -0.55799619               -5.00455638               46.69285280                1.75388820
              10.97324381                7.55199196               31.25836027                0.00010000               -0.11872197               -0.35860949               -0.35463002               -5.50050626               47.48977316                3.79499732
              11.97083520                7.23369818               31.43572980                0.09832371               -0.29670561               -0.77200916               -0.20691805               -4.64078375               36.99600799                6.99607750
              12.96730970                6.95256494               31.39140535                0.31283103               -0.24357680               -0.54263619                1.11074181               -1.68659485               13.22656740                4.19055455
              13.96596367                6.70527033               31.09160407                0.66127479               -0.01222373               -0.10388097                0.13243287               -0.04593561                0.24226006                1.29006102
              14.96706522                6.45984208               30.78742343                0.97583686                0.11015551                0.35874713               -0.90375287               -0.04174973                0.03052267               -1.90703349
               5.19640556               10.33234158               31.09029583                0.97165835                0.11093319               -0.05752081                0.11247643               -0.04226936                0.00261087                1.42193991
               6.19751489               10.07890290               30.78430695                0.43870687                0.24177501                0.27884260               -0.85598294                0.00086884                0.43771350               -1.19661488
               7.20124106                9.82483583               30.48690929                0.00010000                1.40196068                0.57535005               -1.78569337               -2.60174155               26.68262133               -3.04999195
               8.22555410                9.51741389               30.70551997                0.00010000                2.20016759               -0.23715387               -1.29603346               -3.56184083               52.10506021               -0.95527022
               9.24524441                9.19692649               30.90994213                0.00010000                1.27806953               -0.08910562               -0.88908246               -3.23360836               51.57947158                0.05679193
              10.25111549                8.87537444               31.11075620                0.00010000               -0.13249766                0.15523205               -0.54744601               -3.27950602               52.11478461                0.98742520
              11.24259445                8.55140394               31.31992856                0.00010000               -1.41642419                0.38965868               -0.25255787               -4.04579906               53.89720919                2.25315824
              12.22278701                8.22823180               31.55168231                0.10641856               -1.51592670                0.23026483                0.01280501               -3.90804581               41.04627113                4.78005669
              13.21227592                7.94722996               31.50051183                0.32459274               -0.66137484               -0.50706801                1.49780755               -1.85697575               13.93394573                2.95486741
              14.20955951                7.70388833               31.18997474                0.67807675               -0.12518968               -0.17630846                0.47597047               -0.06111710                0.47294311                1.15712832
              15.20977213                7.46277746               30.86950943                0.98615829                0.02126157                0.23368673               -0.62686406               -0.04612865               -0.01692101               -1.60702461
               5.44775030               11.33214660               31.01901394                0.98148510                0.18811010               -0.01949866               -0.11677006                0.12380660                0.68693056                1.20515468
               6.44963140               11.08203992               30.70520751                0.71377059                0.33000207                0.31370249               -1.11771040                0.14342616                1.69034932               -1.03684180
               7.45435034               10.83078210               30.41133986                0.49604752                3.29416373                0.59462724               -2.02937851               -3.35339537               30.21575581               -2.15657834
               8.51551467               10.50875345               30.66761691                0.44574700                4.55908278               -0.86604386               -1.41983771               -2.79554411               57.12628751               -0.59504414
               9.54553199               10.19495007               30.89818261                0.43557506                1.88136986               -0.19764156               -0.93534650               -1.51172845               56.08322310               -0.02984328
              10.55314207                9.87794370               31.12468910                0.45024125               -0.30307643                0.25692661               -0.52150138               -1.55558883               56.69906463                0.49337463
              11.53947047                9.55978514               31.36142991                0.48848624               -2.81469054                0.83811998               -0.15351848               -2.29441014               59.03661849                1.22324259
              12.49684826                9.23830348               31.63041629                0.55592665               -4.24784090                1.00716796                0.20519079               -3.46195274               45.27601218                3.00976031
              13.45451365                8.94242358               31.58936380                0.66615840               -2.38272169               -0.48063848                1.80466410               -2.60419335               16.35404472                1.94430732
              14.44919383                8.70174416               31.28536545                0.84441244               -0.30746308               -0.21441752                0.80982936                0.06804310                1.99585241                1.00994887
              15.44836439                8.46451581               30.95740271                0.99633386               -0.08294395                0.17383496               -0.32337062                0.13639153                0.80252680               -1.30586588
               2.96011702                1.45125528               32.70714115                1.00000000               -0.58763574               -0.64081119                2.18941697               -0.11147014               -1.48461663                1.51435058
               3.95424066                1.15551116               32.52065728                0.96840119               -0.53244299               -0.45879470                1.66254287               -0.07094627               -1.60018293               -0.21637507
               4.94946816                0.85864776               32.33201266                0.65504132               -0.56914616               -0.26703819                1.08734049               -0.27103760               -1.24798612               -1.12318252
               5.94285774                0.55570092               32.15287128                0.51228917               -0.73583972               -0.14672161                0.54608496               -0.40971215                0.64819897               -0.14353936
               6.93475137                0.23931482               32.00338682                0.44938182               -0.65533155                0.01395842               -0.00946542               -0.37577680                3.35237833               -0.13289228
               7.92975111               -0.09199777               31.88033437                0.45003127               -0.09638146                0.17487445               -0.60808769               -0.21976874                4.57388777                0.02443815
               8.93282374               -0.42872850               31.75710838                0.51066515                0.57321253                0.33378239               -1.19366840               -0.25151230                3.24010370                0.16012683
               9.94121536               -0.75927654               31.60781692                0.63626418                0.88018312                0.48592205               -1.73325826               -0.29097191                0.72865226                0.24301751
              10.95042740               -1.08065541               31.43365162                0.84079605                0.89998662                0.61813423               -2.25615410               -0.21094515               -1.22042978                0.53508635
              11.95921509               -1.39599967               31.24444019                1.00000000                0.91181818                0.75976850               -2.81080868               -0.09280968               -1.61064122                0.87574149
              12.96866376               -1.70916088               31.06178031                1.00000000                0.94486710                0.96731426               -3.33402936               -0.13562309               -1.25859381               -1.36844084
               3.25474644                2.44484717               32.63571685                1.00000000               -0.49114778               -0.61739726                1.94805725               -0.03814094                0.11774085                1.87782129
               4.24983496                2.15092321               32.44859517                0.75869758               -0.40417680               -0.41229937                1.40570100               -0.00251939                0.42395933               -0.59284115
               5.24666290                1.85597737               32.26764731                0.18584298               -0.07039384               -0.19478072                0.91768010               -0.29690288                2.19373180               -2.42387641
               6.24842709                1.55423370               32.11586708                0.00010000                0.40900197               -0.12898817                0.45104872               -0.95166075                4.78055412               -2.24814487
               7.25484294                1.23945440               31.98571136                0.00010000                0.65739964               -0.55153069               -0.04112995               -1.61514945                7.42697631                0.55888117
               8.26157508                0.90975097               31.88529199                0.00010000                0.45525270               -0.26718160               -0.57402860               -1.97357676                8.99692107                1.01276533
               9.26394800                0.57460933               31.78532702                0.00010000                0.13470093                0.10360979               -1.08972831               -1.71134935                7.66212524                1.26424076
              10.26426910                0.24558268               31.65829555                0.16417874                0.13657569                0.26340351               -1.55251749               -0.95533353                5.07883920                2.83022247
              11.26667951               -0.07447407               31.50752273                0.47110850                0.41353143                0.46041347               -1.99999187               -0.38508134                3.09622361                2.63999994
              12.27253973               -0.38840199               31.34151660                0.95560988                0.68946113                0.67710069               -2.43260481               -0.07914829                1.36032917                1.40020533
              13.28046873               -0.69948774               31.15598204                1.00000000                0.79290082                0.93062421               -2.92839192               -0.06701569                0.40958392               -1.50012037
               3.54720212                3.43890734               32.57168352                1.00000000               -0.41420449               -0.56300132                1.71520193               -0.05361315                0.22579254                2.11137066
               4.54306007                3.14726517               32.36905246                0.56345400               -0.34912515               -0.30389805                1.09188748               -0.02073448                0.76632636               -1.23654537
               5.54021961                2.85475214               32.17724327                0.05391183               -0.13562880               -0.01541274                0.56839332               -0.45708455                3.86832554               -4.65630375
               6.54034750                2.55312116               32.03673934                0.00010000                0.33557480               -0.51660300                0.28949978               -2.00258246               10.74130357               -1.62930774
               7.54693111                2.22828421               31.98171384                0.00010000                0.73885773               -0.90123144               -0.13560862               -3.19803320               14.26707460                0.81410292
               8.55512465                1.90265859               31.90976694                0.00010000                0.79169668               -0.73321357               -0.53492864               -3.37410442               13.39158666                2.03640049
               9.56276504                1.57334370               31.83535327                0.00010000                0.80337179               -0.37407700               -0.91764005               -3.12672738               13.29628521                2.99651763
              10.57119209                1.24599153               31.76022730                0.05344451                0.69726969               -0.24155491               -1.26067040               -2.08230698               10.21498433                4.78846718
              11.57671044                0.92855286               31.62318669                0.25026767                0.57268515               -0.34322545               -1.52498433               -0.83990495                5.26107271                6.97560434
              12.58264579                0.61754234               31.44864578                0.58188772                0.63922514                0.34900784               -1.97172445               -0.27707885                2.05319406                2.44215569
              13.58949494                0.30945161               31.24693042                0.93104928                0.68491509                0.98778942               -2.59303779               -0.22703219                0.72620532               -1.57472542
               3.83695851                4.43358715               32.50506240                1.00000000               -0.33830377               -0.49379088                1.47233689               -0.04923756                0.03452879                1.88445022
               4.83357547                4.14484525               32.28406173                0.53234603               -0.26466377               -0.19384324                0.79124545                0.00636191                0.27935347               -1.49151673
               5.83166523                3.85566912               32.06794109                0.03897046                0.06339521                0.14034117                0.14251486               -1.04720960                8.55218925               -5.26143198
               6.83484337                3.54390164               32.01247418                0.00010000                0.48398053               -0.68015066                0.05545241               -2.47770915               17.35598437               -0.27455086
               7.84134484                3.22142977               31.97090887                0.00010000                0.70950619               -0.63231430               -0.24190357               -3.18571609               18.48683390                0.55310725
               8.84903350                2.89508670               31.93596330                0.00010000                0.83678378               -0.73577993               -0.52287958               -3.44363859               18.75544341                2.18243732
               9.85808052                2.56712779               31.89753754                0.00010000                0.91901514               -0.71640875               -0.79001261               -3.32864805               18.23766494                3.78087956
              10.86741380                2.24075158               31.84996208                0.05775174                1.01250404               -0.76252383               -1.03921290               -2.85604884               16.94362490                5.19119457
              11.87833060                1.91866142               31.78384260                0.24970830                0.93427989               -0.97670497               -0.95507767               -1.24204164                8.54079221                7.89476476
              12.88609940                1.61857817               31.56607945                0.56421483                0.68894787                0.06420719               -1.59432958               -0.06435799                0.51794503                2.65822676
              13.89210956                1.32026805               31.33874455                0.91397757                0.60101580                1.05131419               -2.31444851               -0.07159866                0.05299328               -1.42958377
               4.12370115                5.42903152               32.43661377                1.00000000               -0.25958147               -0.41854989                1.23244083               -0.04855343                0.02290568                1.76933406
               5.12110533                5.14338831               32.19921787                0.51444456               -0.17410591               -0.10073210                0.49658387                0.02036585                0.17147799               -1.47338057
               6.12021903                4.85755897               31.96474659                0.03116540                0.19636613                0.23298503               -0.21847064               -1.50058938               11.88566390               -4.80028510
               7.12503266                4.53951814               31.96166944                0.00010000                0.59063502               -0.28300441               -0.22732664               -3.23669485               23.75653682               -1.79001751
               8.13203173                4.21563792               31.96264682                0.00010000                0.77606045               -0.50100063               -0.37302322               -3.67248010               24.11525036                0.48819263
               9.14055387                3.88794299               31.96418776                0.00010000                0.92477354               -0.70323688               -0.53599560               -3.87077424               24.18789795                2.31377376
              10.15052720                3.55901552               31.96372985                0.00010000                1.09918047               -0.88623678               -0.70006088               -3.82959768               24.03560563                4.17014869
              11.16253748                3.23074105               31.95922158                0.06485184                1.17579057               -1.09896047               -0.85140971               -3.32739407               22.21633804                6.27927403
              12.17404301                2.90901876               31.91935294                0.26038793                0.86072596               -0.88336407               -0.52376851               -1.49026447               10.49427415                6.05649900
              13.17975199                2.61882648               31.67746482                0.57942105                0.53200903                0.03075392               -1.25020971               -0.02209485                0.21188175                2.13391186
              14.18468319                2.33047789               31.43132292                0.92319648                0.49311998                0.94905383               -2.04005221               -0.03384657                0.01180336               -1.50216985
               4.40727386                6.42521615               32.36780620                1.00000000               -0.18185205               -0.34550065                0.99648161               -0.04712030                0.02088891                1.73670934
               5.40545534                6.14283061               32.11431706                0.49694232               -0.08751257               -0.01289685                0.20747309                0.02455951                0.18115686               -1.45668499
               6.40552361                5.86032882               31.86395584                0.02357367                0.32875906                0.32195462               -0.55943506               -1.86698158               15.02575139               -4.61242547
               7.41203052                5.53824155               31.90737665                0.00010000                0.69733885               -0.00829611               -0.48950854               -3.90694162               29.86088817               -2.00575572
               8.41947039                5.21140976               31.95124229                0.00010000                0.81049429               -0.32612055               -0.51519238               -4.28083165               29.97527743                0.26269147
               9.42824041                4.88102196               31.99388714                0.00010000                0.96100610               -0.65700600               -0.56725197               -4.52382867               29.98587002                2.36890225
              10.43869051                4.54940305               32.03446451                0.00010000                1.13111384               -0.97635096               -0.63711445               -4.55564504               29.89017821                4.45632929
              11.45086269                4.21877237               32.07141173                0.07208319                1.08746825               -1.21470113               -0.71950242               -3.93245846               26.71766181                6.56636040
              12.46043988                3.90099414               32.04470490                0.27131710                0.66678407               -0.74722021               -0.11248441               -1.73570117               12.03332412                5.28593862
              13.46419837                3.61919325               31.78469586                0.59544158                0.38449678                0.02819242               -0.90706412               -0.03033569                0.19872549                1.76456860
              14.46812981                3.33924913               31.52076987                0.93311730                0.39314434                0.80319861               -1.76438136               -0.03458532                0.01341658               -1.74230447
               4.68752982                7.42212151               32.29882712                1.00000000               -0.10459646               -0.27563931                0.76217015               -0.04675314                0.01947490                1.71227323
               5.68648385                7.14313037               32.02948674                0.47956511               -0.00306802                0.07067111               -0.07203561                0.02237338                0.20680189               -1.42615402
               6.68746846                6.86399806               31.76379825                0.01611989                0.46645158                0.40842341               -0.88975699               -2.16829906               18.09618051               -4.52468952
               7.69581288                6.53935222               31.85223302                0.00010000                0.80831182                0.22515964               -0.73898849               -4.49854263               35.87524259               -2.05188416
               8.70363469                6.20911551               31.93903562                0.00010000                0.81355604               -0.12602667               -0.65428646               -4.91635309               35.89113502                0.17765699
               9.71208400                5.87480287               32.02415918                0.00010000                0.90146009               -0.55516586               -0.60544067               -5.22239407               35.92521180                2.33391862
              10.72166389                5.53948850               32.10753973                0.00010000                1.01066075               -0.95972548               -0.58956295               -5.31215317               35.89506185                4.56503442
              11.73229722                5.20644703               32.18764464                0.07945249                0.86221093               -1.21853658               -0.60966042               -4.41820614               30.87081674                6.94476730
              12.73890811                4.89407435               32.16607892                0.28234714                0.42965350               -0.65643395                0.29485136               -1.83973948               13.17437302                4.92000479
              13.74089029                4.61939033               31.88898548                0.61155604                0.24858036                0.00054252               -0.56579945               -0.03547632                0.21291879                1.51362143
              14.74387972                4.34654186               31.60777658                0.94309655                0.29894311                0.65693388               -1.49040914               -0.03633689                0.01673958               -1.90713651
               4.96432107                8.41970336               32.22967775                0.98771740               -0.02948119               -0.20679171                0.53702274               -0.04526131                0.03043128                1.69359150
               5.96402626                8.14424403               31.94485502                0.46230051                0.08073553                0.14777427               -0.34170348                0.01451050                0.23653605               -1.39264965
               6.96593578                7.86849729               31.66406873                0.00881856                0.64579806                0.48585854               -1.21490978               -2.40349856               21.12529075               -4.44398826
               7.97694222                7.54274475               31.79687319                0.00010000                0.98784448                0.42498053               -0.97350905               -4.90826419               41.83605427               -2.01051670
               8.98569267                7.20888923               31.92642455                0.00010000                0.82386557                0.04957587               -0.78401342               -5.36414737               41.80162471                0.11416015
               9.99341953                6.86991864               32.05419381                0.00010000                0.75553118               -0.39090867               -0.63947098               -5.69300615               41.94193331                2.16035044
              11.00080330                6.53020854               32.18182984                0.00010000                0.72465915               -0.82604092               -0.54040658               -5.88815687               42.14771251                4.45691635
              12.00791272                6.19440164               32.30880032                0.08697367                0.49492425               -1.13373163               -0.49478636               -4.76241885               34.82606323                7.26717391
              13.01070178                5.88786546               32.28512886                0.29351700                0.15543078               -0.59850382                0.70099001               -1.86431963               13.93746680                4.68238971
              14.01102133                5.61920410               31.99139941                0.62777550                0.11991155               -0.04535716               -0.22521272               -0.04027622                0.23009776                1.36639904
              15.01310001                5.35238781               31.69327817                0.95312364                0.20786805                0.51443637               -1.21682797               -0.03854520                0.01942394               -1.98411573
               5.23754325                9.41798567               32.16046676                0.97461702                0.04368882               -0.13332386                0.32638148               -0.04328082                0.04881242                1.69589709
               6.23798013                9.14608586               31.86040878                0.44516911                0.16772622                0.21856532               -0.61526877                0.00622338                0.28137201               -1.39360876
               7.24089777                8.87371523               31.56490859                0.00172653                0.96377628                0.55088213               -1.53657467               -2.59300976               24.17190825               -4.23838596
               8.25725566                8.54785183               31.74237322                0.00010000                1.41400391                0.43841591               -1.18910254               -5.02347277               47.75439591               -1.74718664
               9.26917785                8.21010703               31.91344930                0.00010000                0.98244544                0.03413306               -0.89672875               -5.14996847               47.58502253                0.06585548
              10.27690457                7.86698470               32.08209507                0.00010000                0.51199576               -0.15252932               -0.66001216               -5.40104389               47.91526789                1.72991541
              11.27941776                7.52296769               32.25420098                0.00010000                0.12436777               -0.41110449               -0.47635480               -5.87653055               48.67496803                3.80012868
              12.27939192                7.18377239               32.43291481                0.09468517               -0.12992518               -0.82034532               -0.35277685               -5.01702561               38.79212278                7.04135092
              13.27681926                6.88210428               32.40249159                0.30482227               -0.19147539               -0.56064649                1.10553505               -1.90070709               14.47686205                4.35577133
              14.27556242                6.61848319               32.09285511                0.64405342               -0.00389333               -0.10494674                0.11646078               -0.04970736                0.27532302                1.33504278
              15.27674139                6.35683059               31.77821181                0.96316483                0.11789777                0.37667659               -0.94116851               -0.04106734                0.03330638               -1.99454004
               5.50725509               10.41703688               32.09142710                0.96152339                0.11660844               -0.05726986                0.11305850               -0.04301541               -0.00025370                1.47605934
               6.50842117               10.14861534               31.77555645                0.42815636                0.25272632                0.28922298               -0.89311671               -0.00154277                0.45906215               -1.24709324
               7.51230961                9.87951493               31.46876066                0.00010000                1.58298984                0.59645818               -1.84861812               -2.87977657               27.44052544               -3.15846576
               8.54008097                9.55151307               31.69218919                0.00010000                2.56254089               -0.33439097               -1.37306510               -3.92715416               53.55943466               -1.00759341
               9.56356043                9.20957189               31.90059594                0.00010000                1.62285129               -0.17807842               -0.98222760               -3.52734165               52.98647042                0.02670093
              10.57253799                8.86686806               32.10472029                0.00010000                0.14622801                0.08941719               -0.66058857               -3.52040281               53.48717431                0.97528534
              11.56648499                8.52198645               32.31669297                0.00010000               -1.20511908                0.35441240               -0.39421458               -4.28115825               55.24670730                2.26274876
              12.54843561                8.17799473               32.55086491                0.10263522               -1.42540740                0.25815758               -0.17500970               -4.16205343               43.06398355                4.83181828
              13.53797684                7.87665253               32.51548894                0.31633084               -0.65673717               -0.51166184                1.49691729               -2.06471167               15.32283988                3.07302962
              14.53530087                7.61710516               32.19467752                0.66040952               -0.11964912               -0.17507473                0.46339964               -0.06647563                0.51607781                1.20070728
              15.53558386                7.35992134               31.86307764                0.97317541                0.02829920                0.24721663               -0.66201479               -0.04605373               -0.01571112               -1.67746899
               5.77352603               11.41684028               32.01782705                0.97651951                0.19452049               -0.01966076               -0.11894195                0.13009803                0.70925257                1.24768504
               6.77547123               11.15187032               31.69384384                0.70862548                0.34392432                0.32549774               -1.15723362                0.14521182                1.75933480               -1.07811688
               7.78040451               10.88564439               31.39073235                0.49531928                3.65921933                0.61294612               -2.09530599               -3.72582532               31.09616257               -2.23354022
               8.84865562               10.54116401               31.65304429                0.44598277                5.14357554               -1.03490545               -1.49798628               -3.09748176               58.74256361               -0.62924359
               9.88327602               10.20654546               31.88836882                0.43573497                2.27131664               -0.30264325               -1.02961938               -1.64798903               57.62684733               -0.05111528
              10.89408195                9.86877304               32.11890065                0.45003520               -0.03040488                0.19049875               -0.63717853               -1.67008050               58.20430013                0.48242546
              11.88266793                9.53005593               32.35915538                0.48766051               -2.62985867                0.80694823               -0.30124918               -2.37358150               60.52922949                1.22554572
              12.84148478                9.18893554               32.63144832                0.55399287               -4.31266655                1.09408149                0.00118082               -3.60432821               47.47310373                3.04585358
              13.79641460                8.87187104               32.60742680                0.66194659               -2.52603419               -0.47814903                1.80722149               -2.85391735               17.88477659                2.02315420
              14.79096409                8.61498169               32.29342786                0.83544454               -0.31133157               -0.21234680                0.80156444                0.06151666                2.10207497                1.04959800
              15.79018796                8.36177492               31.95402408                0.98974884               -0.07761296                0.18535833               -0.35481815                0.13973321                0.83773258               -1.36105679
               3.13423878                1.53922687               33.72913407                1.00000000               -0.59516227               -0.64726913                2.20992094               -0.11235063               -1.51368542                1.55366174
               4.12828716                1.22650040               33.53736337                0.95850492               -0.54374003               -0.46121743                1.67880221               -0.07156351               -1.65427279               -0.25687001
               5.12336398                0.91255899               33.34293379                0.65125646               -0.60780167               -0.26561307                1.09635626               -0.29881084               -1.31016391               -1.13652951
               6.11613113                0.59172340               33.15835235                0.51133510               -0.81730258               -0.14506433                0.54974319               -0.45068249                0.59497767               -0.14808274
               7.10701793                0.25579437               33.00327231                0.44933996               -0.75214733                0.02217994               -0.01342537               -0.41278334                3.27079991               -0.13747586
               8.10108818               -0.09688442               32.87419740                0.44982423               -0.15568105                0.18791099               -0.61945417               -0.23930939                4.47668719                0.02451770
               9.10390431               -0.45584488               32.74507566                0.50933713                0.57665228                0.34821570               -1.21359141               -0.27132764                3.16684237                0.16523776
              10.11262122               -0.80819004               32.59033952                0.63266008                0.91914577                0.50093595               -1.76450172               -0.31793460                0.68016105                0.25187993
              11.12228722               -1.15043493               32.41086622                0.83308777                0.93954829                0.63447704               -2.30430792               -0.23498703               -1.28077884                0.54062397
              12.13141219               -1.48598049               32.21601923                1.00000000                0.94172080                0.78268800               -2.87842953               -0.10374791               -1.67262790                0.91328164
              13.14112164               -1.81915458               32.02803220                1.00000000                0.97094496                0.99993351               -3.42177237               -0.13836026               -1.30276651               -1.39009767
               3.44584175                2.53275418               33.65526362                1.00000000               -0.49362880               -0.62427548                1.96191363               -0.03878565                0.13560116                1.92048083
               4.44090546                2.22188822               33.46269167                0.74115685               -0.40386909               -0.41203177                1.41354342               -0.00457509                0.47038300               -0.66250774
               5.43776437                1.90990286               33.27686674                0.18020086               -0.04494263               -0.18634448                0.92580295               -0.34096518                2.27837218               -2.52990361
               6.44000661                1.59027276               33.12038707                0.00010000                0.47148187               -0.13833131                0.45267692               -1.06840808                4.86202661               -2.28408390
               7.44719401                1.25601617               32.98527141                0.00010000                0.72540484               -0.58960278               -0.04691899               -1.80417344                7.47273662                0.52099472
               8.45451471                0.90499469               32.87947416                0.00010000                0.48249166               -0.27832177               -0.58964308               -2.20600128                9.02808977                1.01478942
               9.45684384                0.54763728               32.77429110                0.00010000                0.11110971                0.12911362               -1.11752262               -1.92252845                7.72989931                1.30550198
              10.45673690                0.19681932               32.64256775                0.15902807                0.09943668                0.26939522               -1.59415897               -1.08938139                5.18350231                2.89871940
              11.45883258               -0.14409016               32.48724159                0.45959232                0.39988182                0.46740277               -2.05888209               -0.44526778                3.21616892                2.76178394
              12.46473454               -0.47815361               32.31674199                0.93177651                0.70397801                0.70045372               -2.51964308               -0.09388642                1.45848194                1.48587396
              13.47291214               -0.80915525               32.12616234                1.00000000                0.81775956                0.96897598               -3.03288571               -0.06933559                0.47901784               -1.55322185
               3.75519499                3.52674137               33.58886591                1.00000000               -0.41480110               -0.57006914                1.72179521               -0.05503240                0.22313491                2.15226751
               4.75104698                3.21825976               33.37995574                0.54892087               -0.35174231               -0.29715122                1.08856029               -0.02417905                0.81540856               -1.32735865
               5.74816014                2.90883210               33.18290195                0.05054523               -0.11986607                0.01055423                0.56292327               -0.53447795                4.09418669               -4.89181783
               6.74864966                2.58895677               33.03966636                0.00010000                0.40261944               -0.55466904                0.29558155               -2.22491923               11.01519344               -1.74781946
               7.75621253                2.24400231               32.98027412                0.00010000                0.83486933               -0.96622315               -0.15315708               -3.53478622               14.47725739                0.74324032
               8.76534704                1.89754914               32.90429324                0.00010000                0.87082884               -0.77020409               -0.56098760               -3.75205163               13.62907230                2.03039900
               9.77362911                1.54673740               32.82601965                0.00010000                0.86069945               -0.36638903               -0.95067510               -3.51227631               13.56583632                3.05208598
              10.78256103                1.19719786               32.74742368                0.05047768                0.73628410               -0.22256415               -1.30639006               -2.36704464               10.55099404                4.88498421
              11.78835479                0.85891313               32.60769735                0.24314375                0.60192607               -0.38035156               -1.58062295               -0.93685435                5.55341438                7.26147990
              12.79459955                0.52802859               32.42845386                0.56558907                0.66917115                0.36357359               -2.06325703               -0.29834055                2.16722850                2.54499542
              13.80173821                0.20022494               32.22038853                0.91879721                0.71386597                1.04684986               -2.70809901               -0.24518616                0.75377349               -1.67463104
               4.06170431                4.52135280               33.51978684                1.00000000               -0.33731658               -0.50056843                1.47219666               -0.05017394                0.03358555                1.92082007
               5.05833115                4.21594520               33.29192272                0.51892753               -0.26632558               -0.18127451                0.78047553                0.00748285                0.29510229               -1.57026466
               6.05637780                3.91011395               33.06926848                0.03614438                0.10034356                0.17729943                0.12223657               -1.16980658                8.86410554               -5.49727945
               7.06033802                3.57917938               33.01287419                0.00010000                0.57640589               -0.71335687                0.02349049               -2.73542541               17.85085661               -0.44697933
               8.06790592                3.23669171               32.96834371                0.00010000                0.82002896               -0.67155731               -0.27241535               -3.50607872               18.89081966                0.46671743
               9.07673860                2.88959060               32.93056292                0.00010000                0.95218386               -0.77611820               -0.55879377               -3.80199551               19.18032334                2.15426633
              10.08694959                2.54030950               32.88945594                0.00010000                1.02408404               -0.74500903               -0.82845536               -3.68228013               18.68742706                3.79849645
              11.09722028                2.19236803               32.83940646                0.05477421                1.11575832               -0.75751324               -1.07481483               -3.19016028               17.57769044                5.23856993
              12.10926476                1.84830281               32.77412863                0.24288602                1.01178223               -1.04820483               -0.99464549               -1.39013601                8.99085233                8.15648633
              13.11745592                1.52911787               32.54991525                0.54915558                0.71754781                0.06292938               -1.64701774               -0.06397652                0.56665452                2.70767217
              14.12361572                1.21178175               32.31523369                0.90277993                0.61597962                1.11571788               -2.39299650               -0.07549886                0.05818217               -1.53692681
               4.36500671                5.51673000               33.44891584                1.00000000               -0.25712253               -0.42507387                1.22783144               -0.04899560                0.02348639                1.80896087
               5.36243549                5.21463427               33.20410362                0.50149948               -0.17384404               -0.08494811                0.47921641                0.02295042                0.18326263               -1.54386676
               6.36152983                4.91237809               32.96242472                0.02854514                0.24639501                0.27052568               -0.24669460               -1.65644091               12.25918126               -4.98764002
               7.36736339                4.57468964               32.95918493                0.00010000                0.70749481               -0.28690325               -0.27095012               -3.55727172               24.42536617               -1.96300397
               8.37567973                4.23057117               32.95869949                0.00010000                0.91629760               -0.53095870               -0.41806188               -4.02676976               24.71905003                0.38782072
               9.38568934                3.88202678               32.95860407                0.00010000                1.07631734               -0.74733350               -0.58237972               -4.24297137               24.79270303                2.26620451
              10.39720608                3.53183721               32.95651592                0.00010000                1.25375862               -0.93240042               -0.74427034               -4.19608558               24.65845621                4.15728529
              11.41076451                3.18204760               32.95054709                0.06173183                1.32980808               -1.14373240               -0.88523745               -3.69883846               23.09618435                6.28212308
              12.42380224                2.83794903               32.91401535                0.25332431                0.95382870               -0.94978424               -0.55008900               -1.68087485               11.09624715                6.23798300
              13.42984109                2.52928718               32.66482276                0.56397447                0.55491165                0.02114181               -1.28449069               -0.02132053                0.24972664                2.16378934
              14.43490047                2.22253929               32.41065225                0.91176095                0.50593840                0.99710500               -2.09924260               -0.03144779                0.01386481               -1.60660082
               4.66491585                6.51285132               33.37774013                1.00000000               -0.17737905               -0.35299828                0.98590673               -0.04831127                0.01942864                1.77689367
               5.66314206                6.21424624               33.11628555                0.48448381               -0.08611163                0.00472594                0.18697758                0.02450169                0.19218695               -1.51536016
               6.66319362                5.91552446               32.85819711                0.02115534                0.39287239                0.35818858               -0.59386555               -2.05417324               15.46547518               -4.78233783
               7.67099951                5.57344131               32.90223060                0.00010000                0.84198830               -0.00318436               -0.54144426               -4.27905276               30.68692615               -2.15855373
               8.68003338                5.22607253               32.94581735                0.00010000                0.98068083               -0.35195714               -0.57153573               -4.67617780               30.75712855                0.16113899
               9.69061312                4.87464393               32.98793033                0.00010000                1.14868404               -0.70589450               -0.62547659               -4.92851909               30.75972908                2.30966855
              10.70300706                4.52166149               33.02782193                0.00010000                1.32592836               -1.03865094               -0.69199828               -4.94886445               30.66341539                4.42216481
              11.71713169                4.16949339               33.06400696                0.06881510                1.27003109               -1.27771246               -0.76123280               -4.34200308               27.84342403                6.52973372
              12.72840768                3.82930713               33.04350434                0.26400131                0.76537795               -0.80291398               -0.13228552               -1.95789516               12.81154794                5.45652491
              13.73243925                3.52954070               32.77550503                0.57955777                0.40374208                0.01838136               -0.93491361               -0.03148925                0.23450522                1.79638384
              14.73648253                3.23172385               32.50288555                0.92138117                0.40432778                0.84098637               -1.81607660               -0.03243332                0.01502396               -1.84387601
               4.96125066                7.50967003               33.30637581                0.98960020               -0.09982769               -0.28295999                0.75426234               -0.04603945                0.02897630                1.76106073
               5.96025239                7.21472879               33.02867217                0.46753788                0.00003156                0.08608906               -0.09262125                0.01750043                0.21934152               -1.47667709
               6.96125129                6.91954186               32.75470297                0.01390280                0.54909381                0.44082193               -0.93178626               -2.38266945               18.60228526               -4.68843602
               7.97123426                6.57462595               32.84455629                0.00010000                0.98511287                0.23299703               -0.79848514               -4.91562853               36.85472715               -2.19113523
               8.98095355                6.22353203               32.93216433                0.00010000                1.01478699               -0.15140384               -0.72172006               -5.35142204               36.83966702                0.08213705
               9.99153000                5.86790889               33.01774950                0.00010000                1.12128924               -0.60892901               -0.67745238               -5.65905861               36.85629774                2.27249757
              11.00337934                5.51106420               33.10128393                0.00010000                1.23744064               -1.03041414               -0.66110449               -5.73055813               36.80731982                4.52259094
              12.01627881                5.15649335               33.18122577                0.07603480                1.06088415               -1.28740465               -0.67171726               -4.84536138               32.24813374                6.89857282
              13.02459702                4.82189075               33.16896385                0.27477435                0.52578834               -0.69946563                0.27878270               -2.07580093               14.14170681                5.09041026
              14.02679458                4.52965480               32.88321806                0.59522925                0.26442467               -0.00582010               -0.59040714               -0.03814869                0.24907607                1.54802134
              15.02988551                4.23935902               32.59265060                0.93107346                0.30909309                0.68805640               -1.53796428               -0.03462529                0.01865483               -2.00662275
               5.25387754                8.50719212               33.23503942                0.97681593               -0.02573068               -0.21022137                0.54246470               -0.04441734                0.04122946                1.76065792
               6.25362023                8.21596802               32.94131199                0.45075149                0.08827636                0.15803392               -0.37006230                0.00951327                0.24948161               -1.44782730
               7.25564307                7.92434090               32.65168155                0.00679814                0.75382698                0.51367927               -1.26550546               -2.63740897               21.70509696               -4.60644156
               8.26869677                7.57810125               32.78681183                0.00010000                1.20394681                0.43054218               -1.04119900               -5.35706747               42.97178918               -2.13532454
               9.27972200                7.22304446               32.91819894                0.00010000                1.06015033                0.01729415               -0.86283447               -5.82230688               42.91082864                0.02965454
              10.28989978                6.86246535               33.04736382                0.00010000                1.00447177               -0.44989953               -0.72712523               -6.13789624               43.02452198                2.10559863
              11.29981144                6.50105321               33.17594946                0.00010000                0.97490624               -0.89663961               -0.63417662               -6.30879825               43.19628757                4.42050396
              12.30939791                6.14374529               33.30335739                0.08340596                0.69593856               -1.20163675               -0.59010086               -5.18135792               36.45494592                7.23521712
              13.31373021                5.81531782               33.29208954                0.28569169                0.24050504               -0.62852343                0.68842296               -2.10056865               15.09424110                4.85362072
              14.31420801                5.52942430               32.98904794                0.61099518                0.13256870               -0.04808677               -0.24724331               -0.04387546                0.26698893                1.40395655
              15.31638158                5.24548498               32.68089971                0.94079508                0.21735789                0.53963893               -1.26179459               -0.03730996                0.02173472               -2.08036874
               5.54281053                9.50546560               33.16376475                0.96405439                0.04833483               -0.13448196                0.33152094               -0.04440108                0.04859976                1.76514952
               6.54329388                9.21788947               32.85407521                0.43405108                0.17796764                0.22789743               -0.64958452                0.00460897                0.29680163               -1.45281569
               7.54636988                8.92981545               32.54925961                0.00010000                1.10477402                0.57509249               -1.59730484               -2.84384608               24.83968720               -4.39686726
               8.56538936                8.58323679               32.73011407                0.00010000                1.68867160                0.42448467               -1.26522949               -5.48633968               49.05423677               -1.84985605
               9.58014331                8.22387791               32.90404339                0.00010000                1.26869847               -0.02517306               -0.98619222               -5.58025905               48.85233894               -0.00003947
              10.59076332                7.85891090               33.07498158                0.00010000                0.78900600               -0.21953907               -0.76309315               -5.79421712               49.14752718                1.68894998
              11.59592343                7.49313140               33.24883317                0.00010000                0.38118619               -0.46743479               -0.59539548               -6.24388719               49.86504771                3.77862837
              12.59838705                7.13246061               33.42867426                0.09096749                0.04916034               -0.87053172               -0.49096298               -5.39691559               40.66736670                7.03871281
              13.59690664                6.80932028               33.41351605                0.29672204               -0.13185691               -0.57812362                1.09734125               -2.12888247               15.81245622                4.52140564
              14.59574991                6.52869307               33.09393328                0.62682753                0.00556608               -0.10472855                0.09732214               -0.05420636                0.31448312                1.37809058
              15.59701796                6.25015180               32.76860005                0.95054685                0.12680497                0.39654166               -0.98402393               -0.04032321                0.03652226               -2.08582308
               5.82814179               10.50450248               33.09255700                0.95129091                0.12207794               -0.05825997                0.11457755               -0.04309015               -0.00093170                1.53135506
               6.82936257               10.22052597               32.76644462                0.41749351                0.26385167                0.30066625               -0.93075414               -0.00204104                0.48475808               -1.29923338
               7.83341882                9.93584275               32.44993693                0.00010000                1.77724764                0.61762335               -1.91862500               -3.16158812               28.21388197               -3.27800937
               8.86490752                9.58659095               32.67805867                0.00010000                2.95119493               -0.43892130               -1.45583278               -4.29808142               55.03356233               -1.06820024
               9.89244272                9.22254099               32.89029758                0.00010000                1.99272112               -0.27479502               -1.07923296               -3.82235484               54.40706861               -0.01114293
              10.90476194                8.85807457               33.09754442                0.00010000                0.44706294                0.01602968               -0.77501560               -3.75791496               54.86476038                0.95297307
              11.90138398                8.49170451               33.31204427                0.00010000               -0.97456151                0.31199157               -0.53407295               -4.50779800               56.58586262                2.25530573
              12.88527071                8.12633466               33.54818212                0.09877308               -1.32319365                0.27965579               -0.35798597               -4.41486526               45.17477056                4.84904191
              13.87492011                7.80375534               33.53045018                0.30796454               -0.64891752               -0.51546747                1.49354216               -2.28409642               16.82197595                3.19245377
              14.87229236                7.52732973               33.19924273                0.64271887               -0.11312245               -0.17288148                0.44796385               -0.07256964                0.56533178                1.24382521
              15.87265766                7.25341581               32.85626914                0.96024000                0.03652947                0.26250035               -0.70255312               -0.04595997               -0.01403366               -1.75067431
               6.10990176               11.50430040               33.01663510                0.97150385                0.20110301               -0.02020799               -0.11918047                0.13623608                0.73231465                1.29464743
               7.11191279               11.22390279               32.68206284                0.70343192                0.35856893                0.33768277               -1.19983380                0.14839778                1.83614242               -1.12401617
               8.11707314               10.94216792               32.36943374                0.49455145                4.04083459                0.63251675               -2.16762984               -4.10678970               31.99933073               -2.31706078
               9.19272948               10.57445837               32.63765719                0.44620182                5.75697249               -1.21325782               -1.58235686               -3.40709933               60.38078575               -0.66767932
              10.23221259               10.21838201               32.87759022                0.43589145                2.68560135               -0.41589864               -1.12821416               -1.78435712               59.18449189               -0.07610319
              11.24644151                9.85923149               33.11194553                0.44980427                0.26473989                0.11569174               -0.75451968               -1.78258214               59.71313280                0.46621026
              12.23750739                9.49937124               33.35540493                0.48680950               -2.42012980                0.76667229               -0.44778152               -2.44654743               62.00473711                1.21833575
              13.19803891                9.13805373               33.63043991                0.55201145               -4.36388731                1.17190700               -0.20042088               -3.74119507               49.76756475                3.05887660
              14.15022964                8.79901093               33.62550823                0.65769009               -2.67004310               -0.47444084                1.80735563               -3.10996119               19.53838725                2.10338749
              15.14463805                8.52523544               33.30139674                0.82645718               -0.31515200               -0.20942909                0.79059024                0.05411240                2.21603823                1.08962201
              16.14392660                8.25540181               32.95030635                0.98319627               -0.07114509                0.19859969               -0.39169387                0.14353106                0.87429761               -1.41807640
               3.31338470                1.63006941               34.75133957                1.00000000               -0.60292248               -0.65444723                2.23193881               -0.11345881               -1.54189970                1.59306880
               4.30735548                1.29971716               34.55423332                0.94845740               -0.55543996               -0.46364782                1.69561335               -0.07250497               -1.70924048               -0.30111018
               5.30227590                0.96805127               34.35393979                0.64739168               -0.64683527               -0.26401232                1.10472303               -0.32646209               -1.37356284               -1.14796826
               6.29441877                0.62866983               34.16386615                0.51031623               -0.89767940               -0.14318098                0.55223502               -0.48979105                0.54181054               -0.15303516
               7.28432232                0.27256710               34.00311831                0.44928845               -0.84686312                0.03053859               -0.01874317               -0.44771282                3.19122346               -0.14177017
               8.27748151               -0.10206096               33.86794529                0.44958675               -0.21519269                0.20118749               -0.63312793               -0.25751890                4.38546382                0.02511111
               9.28001846               -0.48385463               33.73283655                0.50802476                0.57732500                0.36299995               -1.23731038               -0.28832905                3.10148377                0.17125332
              10.28902801               -0.85869541               33.57252688                0.62900041                0.95568255                0.51683075               -1.80187900               -0.34088648                0.63727557                0.26162234
              11.29913211               -1.22259366               33.38756546                0.82528933                0.97842743                0.65241394               -2.35957812               -0.25455366               -1.33859904                0.54529935
              12.30859656               -1.57917956               33.18687160                1.00000000                0.97251862                0.80604207               -2.95355037               -0.11226857               -1.73256619                0.94561183
              13.31858249               -1.93322312               32.99334487                1.00000000                0.99859264                1.03146173               -3.51707141               -0.14176698               -1.34635079               -1.41138110
               3.64260236                2.62352494               34.67495512                1.00000000               -0.49628645               -0.63199724                1.97706930               -0.03940294                0.15446984                1.96304026
               4.63763950                2.29508068               34.47686604                0.72346265               -0.40337066               -0.41151087                1.42140989               -0.00685323                0.52106299               -0.73728734
               5.63453495                1.96541115               34.28616337                0.17446030               -0.01882765               -0.17686110                0.93336437               -0.38629176                2.36725419               -2.64063345
               6.63726295                1.62723802               34.12492061                0.00010000                0.53378142               -0.14960911                0.45356003               -1.18391214                4.94404215               -2.31737499
               7.64521058                1.27287249               33.98477298                0.00010000                0.79271207               -0.62451916               -0.05327842               -1.98800189                7.51866006                0.47749639
               8.65311719                0.89995092               33.87349913                0.00010000                0.51209095               -0.28806116               -0.60597957               -2.43090319                9.06017802                1.01270273
               9.65545240                0.51977537               33.76297656                0.00010000                0.09357349                0.15376039               -1.14608276               -2.12725812                7.80085865                1.34720190
              10.65498866                0.14647290               33.62641237                0.15381043                0.06881272                0.27739545               -1.63747737               -1.21693121                5.29315122                2.96782180
              11.65682865               -0.21606952               33.46634509                0.44795440                0.38999741                0.47445355               -2.12070027               -0.49878013                3.33779922                2.88615163
              12.66278861               -0.57111914               33.29112374                0.90789562                0.71898611                0.72242735               -2.60274949               -0.10681855                1.55740826                1.56921633
              13.67120837               -0.92290851               33.09532433                1.00000000                0.84197688                1.00553836               -3.13246784               -0.07300747                0.55240576               -1.60715308
               3.96948515                3.61742947               34.60611943                1.00000000               -0.41529475               -0.57856612                1.72895844               -0.05644786                0.21949266                2.19249934
               4.96533221                3.29148695               34.39082367                0.53435384               -0.35462090               -0.28943003                1.08488880               -0.02795220                0.86754967               -1.42264810
               5.96239274                2.96451405               34.18850174                0.04713216               -0.10265086                0.03948083                0.55644771               -0.61741867                4.33428121               -5.13916844
               6.96327919                2.62567764               34.04265097                0.00010000                0.47283203               -0.58972654                0.30116214               -2.44574990               11.29271799               -1.88289530
               7.97184938                2.26007672               33.97865069                0.00010000                0.93406884               -1.02668626               -0.17279746               -3.86189486               14.68230023                0.65958187
               8.98196057                1.89217782               33.89854718                0.00010000                0.95509720               -0.80448628               -0.58980110               -4.12228005               13.87252082                2.01411512
               9.99095132                1.51922058               33.81633977                0.00010000                0.92868523               -0.35869566               -0.98782610               -3.88961024               13.84173144                3.10312393
              11.00053427                1.14685250               33.73409950                0.04743158                0.78986146               -0.20366608               -1.36124361               -2.65094467               10.89792689                4.99182812
              12.00674855                0.78689541               33.59157423                0.23592463                0.63824524               -0.42286677               -1.64392458               -1.03866564                5.84943550                7.56073441
              13.01329918                0.43526898               33.40738064                0.54930251                0.69762558                0.37409269               -2.14769750               -0.32344738                2.27587263                2.66384115
              14.02070106                0.08688764               33.19276844                0.90660300                0.74018858                1.10871521               -2.81170414               -0.26673618                0.78028725               -1.75937850
               4.29335845                4.61195362               34.53450633                1.00000000               -0.33625754               -0.50860112                1.47186096               -0.05064481                0.03312220                1.95848964
               5.28999588                4.28929208               34.29967124                0.50543324               -0.26812860               -0.16694004                0.76807020                0.00883261                0.31233857               -1.65109892
               6.28799588                3.96620076               34.07038582                0.03326956                0.13947017                0.21817439                0.10072924               -1.29599913                9.17636982               -5.74191643
               7.29278528                3.61544349               34.01294399                0.00010000                0.67383142               -0.73879984               -0.01074308               -2.99379891               18.35232050               -0.64459971
               8.30147251                3.25233876               33.96546057                0.00010000                0.93712256               -0.70780132               -0.30596994               -3.82190407               19.30626701                0.36492763
               9.31152773                2.88386119               33.92478742                0.00010000                1.07565042               -0.81390716               -0.59847902               -4.15531882               19.61656650                2.11404240
              10.32298552                2.51260145               33.88096843                0.00010000                1.13835982               -0.77126644               -0.87158585               -4.03298141               19.15483704                3.80922341
              11.33429493                2.14239957               33.82846578                0.05172857                1.23266700               -0.75347431               -1.11597663               -3.53504245               18.23003658                5.29399817
              12.34763886                1.77547315               33.76394969                0.23595684                1.10162511               -1.12463552               -1.04627504               -1.55465651                9.45335817                8.43238237
              13.35632743                1.43636271               33.53313909                0.53405636                0.74987372                0.06217529               -1.71050404               -0.06984494                0.61921858                2.78016747
              14.36263633                1.09926580               33.29088462                0.89161349                0.63089012                1.19031854               -2.47714796               -0.07966908                0.06168389               -1.62461264
               4.61379532                5.60725745               34.46117040                1.00000000               -0.25336113               -0.43297816                1.21861881               -0.05027276                0.02235854                1.84846753
               5.61126171                5.28814814               34.20880220                0.48847644               -0.17369865               -0.06686130                0.46049555                0.02331598                0.19500557               -1.61257742
               6.61032135                4.96887754               33.95981270                0.02588068                0.30017497                0.31015271               -0.27670020               -1.81771554               12.63198446               -5.18138523
               7.61726521                4.61090165               33.95625043                0.00010000                0.83361190               -0.28721833               -0.31761730               -3.87966581               25.10034434               -2.14745948
               8.62699359                4.24592069               33.95428558                0.00010000                1.06631424               -0.55855341               -0.46679858               -4.37806205               25.33778404                0.27198901
               9.63859150                3.87589968               33.95254016                0.00010000                1.23798602               -0.78956472               -0.63261511               -4.61113795               25.41557710                2.20474938
              10.65175331                3.50379525               33.94884444                0.00010000                1.41851158               -0.97615597               -0.79223252               -4.56099981               25.30661019                4.13376787
              11.66696173                3.13178301               33.94151683                0.05852771                1.49694871               -1.18556094               -0.92299943               -4.08193585               24.00395787                6.27898535
              12.68169228                2.76440270               33.90835116                0.24615215                1.05739481               -1.01485045               -0.58929509               -1.88683086               11.71932883                6.42570406
              13.68810963                2.43651249               33.65177501                0.54850525                0.58046106                0.01814545               -1.32988018               -0.02644257                0.29627514                2.20187191
              14.69330151                2.11069401               33.38933807                0.90034644                0.51918798                1.05537321               -2.16656513               -0.03020073                0.01653582               -1.70420432
               4.93057160                6.60329405               34.38752434                0.99075691               -0.17294917               -0.36070053                0.97811669               -0.04785464                0.02802837                1.82607339
               5.92884210                6.28795486               34.11805661                0.47190791               -0.08417657                0.02111258                0.16756218                0.01957890                0.20525896               -1.57335180
               6.92888806                5.97240382               33.85207853                0.01868324                0.46533510                0.39336800               -0.63181074               -2.24735223               15.90468154               -4.96215127
               7.93814881                5.60969912               33.89654776                0.00010000                1.00125862                0.00233205               -0.59714392               -4.65276399               31.52075236               -2.32222360
               8.94891324                5.24116769               33.93981157                0.00010000                1.16408046               -0.37720154               -0.63176072               -5.06939974               31.55572723                0.04528808
               9.96143042                4.86806990               33.98137761                0.00010000                1.34844732               -0.75401741               -0.68696043               -5.32952453               31.55507114                2.23457227
              10.97588218                4.49307833               34.02062454                0.00010000                1.53091684               -1.09912273               -0.74880864               -5.34004152               31.46652326                4.37125706
              11.99204875                4.11868836               34.05618707                0.06547156                1.46452888               -1.33574806               -0.80338063               -4.76419761               29.00681562                6.47514461
              13.00517276                3.75517614               34.04205919                0.25656794                0.87292564               -0.85526713               -0.16276793               -2.19525303               13.61817087                5.62799293
              14.00950727                3.43672562               33.76599759                0.56365449                0.42482511                0.01476791               -0.97078812               -0.03637206                0.27929911                1.82753169
              15.01366926                3.12037326               33.48444834                0.90969885                0.41619981                0.88506128               -1.87450242               -0.03092390                0.01711442               -1.94564260
               5.24351662                7.60004343               34.31391237                0.97829321               -0.09730958               -0.28832367                0.76231122               -0.04585710                0.04071323                1.83242696
               6.24254353                7.28857040               34.02763432                0.45543932                0.00567107                0.09647933               -0.11624317                0.01165588                0.23284753               -1.53508982
               7.24363005                6.97674490               33.74516253                0.01161311                0.64512644                0.47039974               -0.97878877               -2.59861469               19.11206423               -4.86539258
               8.25544606                6.61094829               33.83626332                0.00010000                1.18023855                0.23906782               -0.86235101               -5.33282116               37.84543424               -2.34220042
               9.26723482                6.23837666               33.92460122                0.00010000                1.23221544               -0.17822140               -0.79291976               -5.78424730               37.80600560               -0.02805921
              10.28009037                5.86081933               34.01061013                0.00010000                1.35496023               -0.66356803               -0.75172797               -6.09174152               37.80964997                2.19323996
              11.29433402                5.48181279               34.09431764                0.00010000                1.47448041               -1.10044787               -0.73224475               -6.14489916               37.74922609                4.45771251
              12.30957997                5.10506805               34.17421030                0.07253598                1.27079693               -1.35154321               -0.72941739               -5.28463150               33.67433137                6.82159124
              13.31974996                4.74729736               34.17165458                0.26707995                0.63025428               -0.73952346                0.25449554               -2.32684573               15.14843640                5.26051695
              14.32218506                4.43680785               33.87717734                0.57888972                0.28188913               -0.00788067               -0.62110659               -0.04292267                0.29339953                1.57972982
              15.32538774                4.12839524               33.57701729                0.91908195                0.32026827                0.72288575               -1.59171473               -0.03316552                0.02092583               -2.10889288
               5.55260053                8.59752758               34.24052704                0.96583977               -0.02267691               -0.21361754                0.55334601               -0.04542905                0.04180949                1.83727307
               6.55237376                8.28988444               33.93745378                0.43909456                0.09686743                0.16632587               -0.39970728                0.00810048                0.26366462               -1.50848629
               7.55453788                7.98181181               33.63875862                0.00469888                0.87434286                0.53888055               -1.32218159               -2.86906767               22.29569548               -4.78399571
               8.56986062                7.61448048               33.77604921                0.00010000                1.44096864                0.43297914               -1.11361959               -5.80489934               44.12271843               -2.27266608
               9.58335725                7.23760327               33.90916786                0.00010000                1.31494180               -0.01845303               -0.94516823               -6.27798211               44.03841353               -0.06941045
              10.59615945                6.85479854               34.03965131                0.00010000                1.26891132               -0.51181140               -0.81602870               -6.57794619               44.12759565                2.03223684
              11.60873548                6.47106938               34.16914630                0.00010000                1.23560499               -0.96836767               -0.72543134               -6.72245131               44.26875641                4.35736369
              12.62087155                6.09165749               34.29699830                0.07974394                0.90802861               -1.26730637               -0.67652652               -5.61036533               38.14759395                7.16146544
              13.62689605                5.74038567               34.29889731                0.27773886                0.33396892               -0.65628078                0.66921076               -2.35150417               16.30835920                5.02574657
              14.62755093                5.43656801               33.98645454                0.59421702                0.14675584               -0.04788176               -0.27421470               -0.04858367                0.31160818                1.43925474
              15.62983117                5.13483098               33.66804227                0.92851327                0.22802347                0.56747326               -1.31265957               -0.03617524                0.02443105               -2.18030688
               5.85789432                9.59577108               34.16709718                0.95341626                0.05269911               -0.13669728                0.33671671               -0.04438229                0.05078298                1.83467434
               6.85842131                9.29189691               33.84741709                0.42283916                0.18791727                0.23793003               -0.68297338                0.00570338                0.31627754               -1.51394459
               7.86165266                8.98752251               33.53296249                0.00010000                1.25676553                0.59843992               -1.66416961               -3.09268590               25.52158253               -4.56900063
               8.88355662                8.61960787               33.71706863                0.00010000                1.98522262                0.40627317               -1.34624394               -5.94919771               50.37432636               -1.96422239
               9.90135711                8.23800760               33.89372546                0.00010000                1.57543565               -0.09005319               -1.07895505               -6.00829875               50.13843273               -0.07839843
              10.91506533                7.85058310               34.06683321                0.00010000                1.08344636               -0.29174847               -0.86673934               -6.18175548               50.39598298                1.63162596
              11.92302604                7.46244544               34.24229307                0.00010000                0.64955231               -0.52742838               -0.71067616               -6.60160524               51.06767772                3.73069326
              12.92805638                7.07972192               34.42309555                0.08716457                0.23916607               -0.92237854               -0.61794152               -5.78100660               42.62247687                6.98836374
              13.92780936                6.73417174               34.42443841                0.28853612               -0.06441495               -0.59381225                1.08391961               -2.37060064               17.22910137                4.68912515
              14.92676808                6.43585021               34.09480155                0.60959958                0.01644670               -0.10248988                0.07392389               -0.05947117                0.36091933                1.42001798
              15.92813830                6.13974471               33.75853133                0.93795477                0.13702185                0.41852900               -1.03274936               -0.03959004                0.04021019               -2.18087125
               6.15946122               10.59479364               34.09371865                0.94096833                0.12751820               -0.05970270                0.11826383               -0.04393274               -0.00246597                1.59039579
               7.16073641               10.29464305               33.75694136                0.40670858                0.27559895                0.31283173               -0.97057976               -0.00194475                0.51419955               -1.35529073
               8.16497320                9.99378061               33.43038816                0.00010000                1.98275823                0.63935213               -1.99358491               -3.44464936               29.00580847               -3.40635026
               9.20039157                9.62260594               33.66307253                0.00010000                3.36214226               -0.54972443               -1.54367265               -4.67100836               56.53226868               -1.13662261
              10.23221605                9.23580220               33.87901128                0.00010000                2.38474679               -0.37847467               -1.17958851               -4.11609832               55.84711067               -0.05637317
              11.24808651                8.84896357               34.08921997                0.00010000                0.76742510               -0.06440341               -0.88987318               -3.99084120               56.25384839                0.92087287
              12.24756455                8.46052081               34.30601151                0.00010000               -0.72806954                0.26279484               -0.67007606               -4.72556966               57.92149015                2.23036344
              13.23352512                8.07320992               34.54370519                0.09482834               -1.21044006                0.29377875               -0.53134121               -4.66674983               47.37833281                4.83002122
              14.22335575                7.72850942               34.54535978                0.29949337               -0.63682834               -0.51745332                1.48575896               -2.51377834               18.42845326                3.31399162
              15.22078855                7.43451821               34.20363680                0.62504883               -0.10526847               -0.16920477                0.42863616               -0.07946004                0.62202702                1.28701580
              16.22125038                7.14320156               33.84902658                0.94737054                0.04618310                0.27971298               -0.74915779               -0.04584513               -0.01184773               -1.82678959
               6.45731684               11.59457703               34.01544344                0.96644564                0.20785957               -0.02166056               -0.11856634                0.14321359                0.75741238                1.34400473
               7.45939544               11.29815355               33.66984716                0.69819228                0.37399695                0.35105031               -1.24458835                0.15252906                1.92071677               -1.17256106
               8.46479678               11.00030955               33.34737975                0.49376765                4.43597113                0.65289387               -2.24597246               -4.49465057               32.92666045               -2.40738499
               9.54811486               10.60861338               33.62139716                0.44639283                6.39403693               -1.39925562               -1.67233763               -3.72124325               62.04587234               -0.70952231
              10.59267752               10.23043811               33.86580453                0.43603697                3.12075195               -0.53640949               -1.23086851               -1.91977052               60.76200391               -0.10453761
              11.61052990                9.84929503               34.10381025                0.44959812                0.57953880                0.03314642               -0.87292742               -1.89249936               61.23197967                0.44501272
              12.60426829                9.46770134               34.35019975                0.48595275               -2.18985661                0.71805257               -0.59106784               -2.51450225               63.46921626                1.20134602
              13.56673277                9.08559750               34.62743990                0.54999328               -4.40213933                1.23875773               -0.39489954               -3.87316775               52.15858179                3.04676152
              14.51622551                8.72382268               34.64357392                0.65336122               -2.81230116               -0.46867446                1.80307484               -3.36959321               21.31360861                2.18589808
              15.51048674                8.43246612               34.30923966                0.81747813               -0.31854058               -0.20520920                0.77567098                0.04563374                2.33925489                1.13045218
              16.50985470                8.14533896               33.94619020                0.97666550               -0.06320466                0.21374077               -0.43493502                0.14771650                0.91231404               -1.47713879
               3.49761327                1.72385714               35.77377284                1.00000000               -0.61111424               -0.66220091                2.25583529               -0.11483226               -1.56973232                1.63357969
               4.49150213                1.37521277               35.57127564                0.93830912               -0.56766834               -0.46606324                1.71332596               -0.07359871               -1.76563997               -0.34918013
               5.48625990                1.02515246               35.36502826                0.64347940               -0.68566544               -0.26242158                1.11264871               -0.35345222               -1.43883779               -1.15733776
               6.47778882                0.66655376               35.16939705                0.50927626               -0.97483233               -0.14133324                0.55266290               -0.52623962                0.48805418               -0.15833423
               7.46676326                0.28964962               35.00289745                0.44923095               -0.93548027                0.03840940               -0.02781078               -0.47963850                3.11241131               -0.14579373
               8.45907921               -0.10748988               34.86153484                0.44937423               -0.27054322                0.21367287               -0.65225590               -0.27392504                4.29793756                0.02609033
               9.46135239               -0.51269984               34.72032945                0.50665712                0.57793060                0.37779342               -1.26829606               -0.30239514                3.04096047                0.17754373
              10.47063782               -0.91072856               34.55430194                0.62531219                0.99090710                0.53316968               -1.84678175               -0.36005951                0.59765249                0.27127315
              11.48117053               -1.29708819               34.36367466                0.81741822                1.01718209                0.67123012               -2.42087872               -0.27153284               -1.39468564                0.54819181
              12.49098147               -1.67557253               34.15694822                1.00000000                1.00387757                0.82942107               -3.03185951               -0.12044672               -1.79136996                0.97419498
              13.50124808               -2.05134112               33.95769077                1.00000000                1.02666185                1.06192407               -3.61326258               -0.14576058               -1.39003638               -1.43256081
               3.84510932                2.71723513               35.69480501                1.00000000               -0.49908409               -0.64084966                1.99335915               -0.04014483                0.17404853                2.00574694
               4.84011848                2.37055213               35.49111987                0.70566656               -0.40272183               -0.41055836                1.42951539               -0.00966715                0.57598131               -0.81714716
               5.83705488                2.02252825               35.29553403                0.16864345                0.00796841               -0.16630887                0.94068483               -0.43265700                2.46074645               -2.75614814
               6.84027784                1.66514043               35.12945827                0.00010000                0.59669064               -0.16391352                0.45337804               -1.29641477                5.02748090               -2.34804239
               7.84898869                1.29003371               34.98420585                0.00010000                0.86184221               -0.65716245               -0.06123341               -2.16472568                7.56559265                0.42681198
               8.85751469                0.89464685               34.86735457                0.00010000                0.54795431               -0.29834837               -0.62413503               -2.64632208                9.09385183                1.00394538
               9.85994778                0.49107810               34.75136945                0.00010000                0.08583581                0.17539211               -1.17697643               -2.32423402                7.87523795                1.38461433
              10.85923140                0.09460314               34.60981820                0.14849579                0.04647056                0.28547857               -1.68227749               -1.34033463                5.40588702                3.03094462
              11.86087719               -0.29037589               34.44482758                0.43617810                0.38360316                0.48057019               -2.18299385               -0.54948129                3.46009807                3.00915920
              12.86690347               -0.66727832               34.26468700                0.88402443                0.73409413                0.74312944               -2.68347552               -0.12023355                1.65780307                1.65106920
              13.87555907               -1.04072188               34.06351299                1.00000000                0.86556051                1.04091002               -3.22770270               -0.07834300                0.62932343               -1.66176886
               4.19017636                3.71104014               35.62344508                1.00000000               -0.41606967               -0.58817536                1.73754730               -0.05747348                0.21569794                2.23273362
               5.18601566                3.36700160               35.40165352                0.51971886               -0.35789486               -0.28037227                1.08067401               -0.03169530                0.92338143               -1.52261782
               6.18301846                3.02182629               35.19403090                0.04366973               -0.08303028                0.07182037                0.54912845               -0.70742675                4.58966048               -5.39847148
               7.18435506                2.66327549               35.04568960                0.00010000                0.54719314               -0.62262559                0.30611047               -2.66440402               11.57472144               -2.03619923
               8.19396233                2.27650637               34.97681818                0.00010000                1.03766628               -1.08391703               -0.19534567               -4.17666057               14.88202967                0.56048588
               9.20510838                1.88654315               34.89249721                0.00010000                1.04745479               -0.83841862               -0.62247702               -4.48254945               14.12103054                1.98397769
              10.21491142                1.49080801               34.80626313                0.00010000                1.00883660               -0.35444009               -1.02988658               -4.25709702               14.12071532                3.14539189
              11.22528512                1.09498101               34.72019881                0.04433029                0.85754716               -0.18862363               -1.42077880               -2.93382207               11.24983348                5.09974409
              12.23206236                0.71252322               34.57481886                0.22862888                0.68188390               -0.47252960               -1.70656041               -1.14547654                6.15101821                7.86332302
              13.23892279                0.33929006               34.38549991                0.53305297                0.72529939                0.38025825               -2.22592281               -0.35221222                2.38375711                2.79133284
              14.24656835               -0.03052292               34.16415445                0.89449396                0.76455592                1.17208750               -2.90758698               -0.29133473                0.80609286               -1.83614923
               4.53203694                4.70547162               35.54922406                1.00000000               -0.33385092               -0.51794009                1.46735408               -0.05199703                0.03169110                1.99313280
               5.52869843                4.36494469               35.30728413                0.49181513               -0.27022438               -0.15021245                0.75448830                0.00853362                0.33036534               -1.73239659
               6.52663245                4.02396465               35.07128307                0.03034321                0.18056267                0.26156953                0.07837435               -1.42769706                9.48922666               -5.99736900
               7.53230968                3.65268792               35.01265933                0.00010000                0.77776874               -0.75694114               -0.04776714               -3.25334745               18.86097163               -0.87011225
               8.54218782                3.26835537               34.96222431                0.00010000                1.06261902               -0.74232122               -0.34347302               -4.13130426               19.73355614                0.24589327
               9.55356206                2.87787848               34.91859334                0.00010000                1.20900776               -0.85057864               -0.64306442               -4.50162165               20.06383910                2.06012200
              10.56636798                2.48398930               34.87202423                0.00010000                1.26388456               -0.79757734               -0.92020275               -4.37988123               19.63860343                3.81237486
              11.57883975                2.09083066               34.81708693                0.04859619                1.36453173               -0.75374994               -1.16244741               -3.88819705               18.89569207                5.35599387
              12.59365861                1.70017352               34.75320313                0.22893007                1.20328063               -1.20848003               -1.10679886               -1.73177720                9.92346318                8.71696220
              13.60290536                1.34032685               34.51570517                0.51895200                0.78498651                0.05880284               -1.77674779               -0.07983829                0.67585935                2.86828474
              14.60935834                0.98271987               34.26569073                0.88046924                0.64529788                1.27072062               -2.56077695               -0.08386243                0.06421264               -1.69837356
               4.87019028                5.70068134               35.47328822                0.99125821               -0.24969826               -0.44203991                1.21260366               -0.04965293                0.03089233                1.89497622
               5.86769330                5.36399735               35.21331353                0.47537696               -0.17344976               -0.04988011                0.44367442                0.01854752                0.20989974               -1.68100627
               6.86672129                5.02705768               34.95689071                0.02315297                0.36020456                0.34834763               -0.30907122               -1.98485141               13.00515583               -5.38609745
               7.87489739                4.64813667               34.95283258                0.00010000                0.97121981               -0.28519823               -0.36784783               -4.20129494               25.78287352               -2.34545549
               8.88614568                4.26165994               34.94936351                0.00010000                1.22723160               -0.58463546               -0.52012973               -4.72374163               25.97266600                0.13959792
               9.89944202                3.86953158               34.94595177                0.00010000                1.41079616               -0.83065348               -0.68784717               -4.97319862               26.05728432                2.12922180
              10.91436161                3.47485646               34.94067127                0.00010000                1.59474621               -1.01879325               -0.84519185               -4.92327396               25.97997277                4.10047694
              11.93133695                3.07990601               34.93208710                0.05526288                1.67845162               -1.22639264               -0.96579043               -4.47546170               24.93353192                6.27229536
              12.94793064                2.68835362               34.90222945                0.23888052                1.17213678               -1.08049735               -0.64129554               -2.10689647               12.35716434                6.62191785
              13.95477968                2.34046612               34.63822516                0.53300526                0.60872108                0.01810813               -1.38321400               -0.03657066                0.35075910                2.25006051
              14.96010506                1.99489149               34.36732095                0.88897181                0.53253780                1.12059552               -2.23838234               -0.02921373                0.01921369               -1.79458695
               5.20441186                6.69663082               35.39730247                0.97902809               -0.17188189               -0.36827376                0.98949449               -0.04683614                0.04069139                1.89891317
               6.20269304                6.36394709               35.11963680                0.45925616               -0.08078818                0.03162422                0.14929302                0.01333308                0.22002471               -1.63678859
               7.20279610                6.03093161               34.84556090                0.01615387                0.54942357                0.42481222               -0.67366835               -2.44104215               16.34687001               -5.15562552
               8.21368151                5.64698396               34.89028773                0.00010000                1.17609925                0.00719113               -0.65698116               -5.02310398               32.36571454               -2.49827350
               9.22631808                5.25666266               34.93318214                0.00010000                1.36100294               -0.40226963               -0.69659453               -5.45686935               32.37346212               -0.08513979
              10.24090157                4.86126541               34.97419112                0.00010000                1.56049913               -0.80157957               -0.75273138               -5.72423396               32.37397847                2.14444210
              11.25752807                4.46361343               35.01284575                0.00010000                1.74658942               -1.15798872               -0.80897781               -5.72802552               32.30105075                4.30595376
              12.27583336                4.06630281               35.04793935                0.06204360                1.67162582               -1.38960365               -0.84737467               -5.19791482               30.20234187                6.40770843
              13.29096058                3.67856358               35.04024898                0.24903547                0.99013594               -0.90453271               -0.20575207               -2.44728675               14.44733312                5.80529107
              14.29563608                3.34068901               34.75608927                0.54772314                0.44813704                0.01631675               -1.01485682               -0.04558136                0.33344956                1.86221764
              15.29992332                3.00513178               34.46539550                0.89803241                0.42872429                0.93478688               -1.93873241               -0.02977026                0.01963188               -2.04650225
               5.53462103                7.69331587               35.32162204                0.96689200               -0.09618562               -0.29390231                0.77928054               -0.04618312                0.04313671                1.91555638
               6.53365918                7.36462983               35.02634731                0.44323666                0.01212707                0.10342186               -0.13955795                0.01034779                0.24684930               -1.59842425
               7.53486358                7.03555392               34.73512719                0.00928459                0.75225403                0.49647066               -1.03031443               -2.80919477               19.63113697               -5.05733377
               8.54870426                6.64828049               34.82730927                0.00010000                1.39316361                0.24293311               -0.93062132               -5.74394894               38.85198292               -2.50556368
               9.56272685                6.25361455               34.91630594                0.00010000                1.46511583               -0.20653292               -0.86831746               -6.21052047               38.79373426               -0.15245728
              10.57800657                5.85349999               35.00271494                0.00010000                1.60184223               -0.71891963               -0.82897436               -6.51730942               38.78880356                2.09770692
              11.59476369                5.45169669               35.08663903                0.00010000                1.72109667               -1.16941886               -0.80391730               -6.55372714               38.72470539                4.37316507
              12.61242851                5.05211394               35.16663742                0.06897558                1.49175090               -1.41067311               -0.78384824               -5.73341550               35.14424227                6.72024721
              13.62459871                4.67026296               35.17405376                0.25931306                0.74356739               -0.77573334                0.21918423               -2.59204577               16.18840031                5.43490499
              14.62729986                4.34079245               34.87079593                0.56253235                0.30127047               -0.00519144               -0.65890037               -0.05083037                0.34701073                1.61190406
              15.63062412                4.01358723               34.56081630                0.90713718                0.33242633                0.76165138               -1.65143020               -0.03195177                0.02364966               -2.21334463
               5.86086026                8.69075278               35.24610634                0.95478333               -0.01983196               -0.21741917                0.56384951               -0.04545836                0.04347522                1.91441992
               6.86066194                8.36601552               34.93331784                0.42732469                0.10506392                0.17465780               -0.42781562                0.01015893                0.28149915               -1.57149338
               7.86296154                8.04086102               34.62523792                0.00256494                1.00399803                0.56259893               -1.38369339               -3.09432477               22.89980083               -4.97525149
               8.88074190                7.65184262               34.76453944                0.00010000                1.69633189                0.43242644               -1.19041976               -6.24601799               45.29425635               -2.42214141
               9.89688818                7.25253200               34.89929557                0.00010000                1.58656729               -0.05740131               -1.03106774               -6.72675330               45.18890082               -0.18198955
              10.91247325                6.84688701               35.03104325                0.00010000                1.54756955               -0.57626198               -0.90633030               -7.00990743               45.25593464                1.94210202
              11.92783957                6.44022505               35.16144083                0.00010000                1.50627619               -1.04083121               -0.81436446               -7.12733553               45.37161843                4.27027043
              12.94259877                6.03808935               35.28982686                0.07604169                1.13007931               -1.32964686               -0.75320570               -6.04567064               39.89734936                7.05067216
              13.95044116                5.66304891               35.30547375                0.26969509                0.43482175               -0.68113208                0.64111969               -2.61601082               17.57211961                5.20236267
              14.95129521                5.34058518               34.98356365                0.57740870                0.16267900               -0.04406390               -0.30723847               -0.05542884                0.36535999                1.47442393
              15.95369474                5.02036480               34.65464652                0.91628236                0.23995275                0.59814219               -1.36966269               -0.03511258                0.02767003               -2.28370625
               6.18318637                9.68896748               35.17049908                0.94265089                0.05677390               -0.13943166                0.34442553               -0.04511034                0.05259769                1.90797956
               7.18375411                9.36812299               34.84041575                0.41152957                0.19818058                0.24872752               -0.71782226                0.00767594                0.33881098               -1.57916282
               8.18714998                9.04680590               34.51597622                0.00010000                1.41794019                0.62187311               -1.73493618               -3.33758440               26.22034468               -4.75264992
               9.21211292                8.65692902               34.70318919                0.00010000                2.29987008                0.38436755               -1.43159928               -6.40757498               51.71897567               -2.08916742
              10.23314739                8.25246652               34.88246429                0.00010000                1.90012296               -0.15987721               -1.17470899               -6.43024803               51.44849859               -0.16801735
              11.25011537                7.84197475               35.05764679                0.00010000                1.39336297               -0.36860126               -0.97049670               -6.56105194               51.66641431                1.55962898
              12.26101465                7.43088006               35.23461965                0.00010000                0.92879333               -0.59099771               -0.82129717               -6.94823743               52.29103012                3.65890551
              13.26869124                7.02552100               35.41631543                0.08330939                0.43840097               -0.97493070               -0.73092714               -6.16747072               44.65128699                6.89131064
              14.26978266                6.65664032               35.43519445                0.28024329                0.00920712               -0.60746173                1.06281980               -2.62467128               18.71876575                4.86210959
              15.26887538                6.33991117               35.09541176                0.59235693                0.02899762               -0.09766213                0.04520974               -0.06596787                0.41616424                1.46233688
              16.27036262                6.02555007               34.74794507                0.92542125                0.14872333                0.44281704               -1.08785362               -0.03879045                0.04450496               -2.27978636
               6.50164704               10.68796414               35.09492228                0.93056491                0.13300038               -0.06182780                0.12317106               -0.04459805               -0.00388292                1.65263722
               7.50297705               10.37099007               34.74703302                0.39584046                0.28783889                0.32584904               -1.01196432               -0.00144823                0.54768280               -1.41477343
               8.50740382               10.05329848               34.41006523                0.00010000                2.19763663                0.66155670               -2.07298934               -3.72768662               29.81764244               -3.54303865
               9.54692978                9.65952997               34.64718521                0.00010000                3.79168368               -0.66551730               -1.63585510               -5.04273946               58.05976505               -1.21183721
              10.58323749                9.24933446               34.86670581                0.00010000                2.79544482               -0.48808894               -1.28282327               -4.40613991               57.31183429               -0.10809915
              11.60283868                8.83951499               35.07974696                0.00010000                1.10455368               -0.15117820               -1.00431364               -4.21794247               57.66091275                0.88003424
              12.60532857                8.42840510               35.29864275                0.00010000               -0.46747875                0.20708098               -0.80030812               -4.93384171               59.26169335                2.18966955
              13.59348910                8.01859074               35.53755529                0.09080903               -1.08855026                0.29992657               -0.69044726               -4.91801423               49.67114265                4.77339061
              14.58355756                7.65089967               35.56016536                0.29094327               -0.62114986               -0.51698460                1.47178259               -2.75197079               20.13596746                3.43965733
              15.58106610                7.33863194               35.20781545                0.60736161               -0.09582144               -0.16362115                0.40441174               -0.08735251                0.68764461                1.33121273
              16.58164113                7.02922114               34.84128598                0.93455347                0.05750304                0.29908613               -0.80255462               -0.04561972               -0.00906337               -1.90607406
               6.81624255               11.68773093               35.01426377                0.96135057                0.21482565               -0.02332159               -0.11706714                0.15045517                0.78395988                1.39665390
               7.81839081               11.37463997               34.65717107                0.69287901                0.39069024                0.36498974               -1.29168574                0.15668138                2.01284985               -1.22441609
               8.82405636               11.06003703               34.32451430                0.49295470                4.84156714                0.67385506               -2.32918770               -4.88581116               33.87979618               -2.50389577
               9.91522215               10.64361868               34.60421044                0.44656806                7.04916065               -1.59112922               -1.76751499               -4.03737726               63.74166262               -0.75426021
              10.96503957               10.24270475               34.85297285                0.43618315                3.57318671               -0.66297127               -1.33724487               -2.05316719               62.36458043               -0.13575397
              11.98668588                9.83895118               35.09448698                0.44937082                0.91112478               -0.05638041               -0.99167940               -1.99943242               62.76760314                0.41950558
              12.98326206                9.43502168               35.34358357                0.48508694               -1.94247506                0.66165805               -0.72927843               -2.57823284               64.93020072                1.17551445
              13.94783638                9.03151953               35.62254192                0.54793762               -4.42800078                1.29287989               -0.57686115               -4.00132436               54.64487518                3.00818736
              14.89470205                8.64630063               35.66156973                0.64900673               -2.95147601               -0.45990455                1.79186874               -3.62959068               23.20615823                2.27199050
              15.88880686                8.33663875               35.31691016                0.80850321               -0.32151216               -0.19931871                0.75562193                0.03563412                2.47374811                1.17266797
              16.88827181                8.03153179               34.94160765                0.97016311               -0.05350575                0.23106471               -0.48551968                0.15237144                0.95233040               -1.53851262
               3.68698447                1.82067668               36.79645627                1.00000000               -0.61972007               -0.67090429                2.28204355               -0.11624353               -1.59830207                1.67532180
               4.68078727                1.45304510               36.58849984                0.92808333               -0.58033648               -0.46852427                1.73179416               -0.07490228               -1.82446130               -0.40130766
               5.67537774                1.08389296               36.37619276                0.63950963               -0.72383025               -0.26074303                1.11939610               -0.37984553               -1.50722142               -1.16448293
               6.66631066                0.70538070               36.17491941                0.50819489               -1.04724919               -0.13960853                0.54991956               -0.55991766                0.43201473               -0.16406371
               7.65443275                0.30703444               36.00256209                0.44915703               -1.01511984                0.04535661               -0.04229331               -0.50862884                3.03217006               -0.14986948
               8.64600826               -0.11317862               35.85490017                0.44916108               -0.31810910                0.22460698               -0.67886459               -0.28867326                4.21115497                0.02708764
               9.64807057               -0.54238375               35.70747063                0.50525907                0.58137908                0.39177218               -1.30754200               -0.31389724                2.98304568                0.18340896
              10.65763585               -0.96430248               35.53559125                0.62157587                1.02607738                0.54973921               -1.89856687               -0.37635357                0.56128651                0.28037648
              11.66859212               -1.37393566               35.33914789                0.80948314                1.05586028                0.69051283               -2.48570217               -0.28656711               -1.44798999                0.54908790
              12.67875305               -1.77517322               35.12623440                1.00000000                1.03522671                0.85237722               -3.11035187               -0.12853490               -1.84856785                0.99994361
              13.68929665               -2.17351877               34.92107961                1.00000000                1.05436017                1.09112120               -3.70713673               -0.14993440               -1.43349521               -1.45285121
               4.05345361                2.81396764               36.71482231                1.00000000               -0.50235099               -0.65057974                2.01189291               -0.04088934                0.19496501                2.04946059
               5.04843010                2.44835986               36.50545635                0.68774717               -0.40210654               -0.40873862                1.43841846               -0.01276773                0.63549748               -0.90247937
               6.04541148                2.08128553               36.30497707                0.16274738                0.03553240               -0.15486908                0.94796841               -0.48015538                2.55911057               -2.87665370
               7.04914075                1.70398462               36.13398817                0.00010000                0.66073238               -0.18140518                0.45198127               -1.40609231                5.11255053               -2.37666056
               8.05862613                1.30748800               35.98354831                0.00010000                0.93449383               -0.68832316               -0.07169630               -2.33337841                7.61397913                0.36693259
               9.06783063                0.88906745               35.86101643                0.00010000                0.59337000               -0.31013849               -0.64598750               -2.85130380                9.12846758                0.98532290
              10.07049353                0.46153397               35.73943704                0.00010000                0.09088187                0.19286924               -1.21167828               -2.51395386                7.95176865                1.41372283
              11.06964826                0.04119491               35.59276682                0.14310381                0.03341460                0.29405659               -1.72990495               -1.46125651                5.52052483                3.08405241
              12.07116182               -0.36703053               35.42268521                0.42431923                0.38054988                0.48609939               -2.24581602               -0.59843323                3.58240878                3.12949922
              13.07725926               -0.76664945               35.23745423                0.86012310                0.74905211                0.76253440               -2.76197885               -0.13456786                1.75970215                1.73197030
              14.08614286               -1.16260756               35.03077027                1.00000000                0.88836013                1.07528472               -3.31870163               -0.08495211                0.70944340               -1.71671759
               4.41738224                3.80766509               36.64087037                1.00000000               -0.41682242               -0.59972504                1.74541737               -0.05854949                0.20923071                2.26875328
               5.41321401                3.44487033               36.41243715                0.50504023               -0.36161851               -0.26878581                1.07562124               -0.03777135                0.98266838               -1.62764340
               6.41014987                3.08079558               36.19948430                0.04017720               -0.06138334                0.10540196                0.54250477               -0.80619971                4.86124611               -5.67073943
               7.41198635                2.70175260               36.04877318                0.00010000                0.62662434               -0.65431795                0.30969207               -2.88024463               11.86089206               -2.20977601
               8.42268236                2.29326797               35.97474378                0.00010000                1.14749364               -1.13883568               -0.22184564               -4.47752495               15.07563887                0.44270197
               9.43493622                1.88061861               35.88609764                0.00010000                1.14908368               -0.87291846               -0.66030605               -4.83101852               14.37373457                1.93586561
              10.44566403                1.46147363               35.79574204                0.00010000                1.10194972               -0.35465757               -1.07750749               -4.61347456               14.40102692                3.17415727
              11.45697521                1.04157865               35.70568392                0.04116913                0.94018944               -0.17818733               -1.48447509               -3.21528486               11.60683889                5.20329685
              12.46446782                0.63578633               35.55744302                0.22126570                0.73317560               -0.52838343               -1.76834817               -1.25865650                6.46055618                8.16193069
              13.47163873                0.24007747               35.36286218                0.51684307                0.75230094                0.38263043               -2.30038459               -0.38508283                2.49220544                2.92304987
              14.47951384               -0.15201308               35.13461670                0.88245515                0.78751101                1.23696950               -2.99740991               -0.31872427                0.83151445               -1.90928697
               4.77787214                4.80197314               36.56385341                0.99119506               -0.33279591               -0.52932618                1.46692388               -0.04988394                0.04014785                2.03314955
               5.77454418                4.44298414               36.31476101                0.47817943               -0.27334611               -0.13474887                0.74533478                0.00318184                0.35391859               -1.81651627
               6.77240521                4.08339357               36.07195331                0.02735581                0.22596454                0.30410866                0.05418145               -1.56651650                9.80453141               -6.26691901
               7.77906347                3.69089826               36.01198865                0.00010000                0.89022032               -0.76942304               -0.08775560               -3.51093751               19.37750561               -1.12640083
               8.79020962                3.28471129               35.95859111                0.00010000                1.19705640               -0.77565744               -0.38585634               -4.43219064               20.17300124                0.10735333
               9.80300460                2.87160908               35.91192613                0.00010000                1.35271861               -0.88661384               -0.69370655               -4.83886285               20.52148471                1.99061681
              10.81726399                2.45444082               35.86256438                0.00010000                1.40126367               -0.82451866               -0.97532718               -4.72122532               20.13746592                3.80602990
              11.83102987                2.03763117               35.80521683                0.04540843                1.51129424               -0.76010765               -1.21488493               -4.24700227               19.57111866                5.42211890
              12.84748988                1.62240180               35.74181371                0.22180647                1.31635725               -1.29955623               -1.17524010               -1.91991567               10.39997217                9.00288530
              13.85735701                1.24100316               35.49760413                0.50380280                0.82297962                0.05260667               -1.84418232               -0.09376971                0.73869709                2.96479623
              14.86394947                0.86213183               35.23966908                0.86937230                0.65924557                1.35552928               -2.64279674               -0.08811539                0.06625730               -1.76417607
               5.13436255                5.79707856               36.48542247                0.97911544               -0.25053350               -0.45173168                1.22884334               -0.04808961                0.04500726                1.96599395
               6.13185721                5.44217535               36.21767569                0.46220616               -0.17285646               -0.03994153                0.43162514                0.01195943                0.22758083               -1.75358152
               7.13090542                5.08687776               35.95363127                0.02038437                0.42963343                0.38306291               -0.34380428               -2.15209438               13.38110689               -5.60550467
               8.14044988                4.68636414               35.94889348                0.00010000                1.12111515               -0.28206483               -0.42189211               -4.51722715               26.47548440               -2.55862562
               9.15332772                4.27775482               35.94388299                0.00010000                1.39897753               -0.60944075               -0.57877797               -5.06041696               26.62470896               -0.01034189
              10.16842943                3.86288633               35.93878322                0.00010000                1.59448559               -0.87067583               -0.74918565               -5.32648953               26.71807299                2.03940277
              11.18521743                3.44498326               35.93194060                0.00010000                1.78223761               -1.06055878               -0.90447957               -5.28094278               26.67770405                4.05794206
              12.20407419                3.02637650               35.92220102                0.05191290                1.87400390               -1.26694851               -1.01508208               -4.87627804               25.87945116                6.26365489
              13.22269751                2.60979520               35.89552525                0.23151085                1.29795602               -1.14720769               -0.70595956               -2.33836384               13.00593609                6.82578249
              14.23003331                2.24112960               35.62411073                0.51749286                0.63983394                0.01980193               -1.44248438               -0.05124866                0.41434610                2.30608626
              15.23549419                1.87509751               35.34457042                0.87763885                0.54608855                1.19080170               -2.31296704               -0.02821057                0.02179778               -1.88022976
               5.48671677                6.79293850               36.40731423                0.96723277               -0.17325946               -0.37639371                1.01367031               -0.04700586                0.04425259                1.98650542
               6.48498417                6.44218531               36.12104248                0.44651188               -0.07711141                0.03727581                0.13387563                0.01172373                0.23455394               -1.70460136
               7.48517454                6.09105483               35.83860517                0.01357207                0.64288433                0.45217193               -0.71866943               -2.62714709               16.79654592               -5.36402479
               8.49784186                5.68525696               35.88340814                0.00010000                1.36522755                0.01105812               -0.72084233               -5.38376381               33.22534383               -2.68719385
               9.51247909                5.27252247               35.92587968                0.00010000                1.57022558               -0.42703732               -0.76656473               -5.83426493               33.21228066               -0.22990223
              10.52924637                4.85419556               35.96632298                0.00010000                1.78379402               -0.84824989               -0.82377813               -6.10944602               33.21778228                2.04047297
              11.54815497                4.43322964               36.00444499                0.00010000                1.97229965               -1.21511213               -0.87381706               -6.11075765               33.16778336                4.22903250
              12.56869236                4.01229220               36.03923958                0.05856514                1.89072662               -1.43955097               -0.89496886               -5.63980432               31.42355073                6.33269877
              13.58596950                3.59945765               36.03794414                0.24143289                1.11686890               -0.95122575               -0.26248089               -2.71155259               15.29332181                5.99107528
              14.59102974                3.24139920               35.74570045                0.53178962                0.47399728                0.02209744               -1.06659472               -0.05901817                0.39778246                1.90202241
              15.59544945                2.88594786               35.44567369                0.88642193                0.44197064                0.98899091               -2.00783804               -0.02884385                0.02234350               -2.14668728
               5.83492882                7.78955069               36.32949798                0.95542614               -0.09534554               -0.29997861                0.79654190               -0.04646856                0.04478960                1.99984984
               6.83397536                7.44292087               36.02484316                0.43093590                0.01810053                0.11004137               -0.16104752                0.01292508                0.26376594               -1.66457553
               7.83529083                7.09592119               35.72455624                0.00688631                0.86658028                0.52014610               -1.08493959               -3.00989015               20.16233477               -5.26281230
               8.85130697                6.68658530               35.81765089                0.00010000                1.62064994                0.24503813               -1.00291393               -6.14304417               39.87810539               -2.68055264
               9.86770382                6.26921408               35.90723487                0.00010000                1.71131890               -0.23586733               -0.94818410               -6.62557991               39.80574008               -0.28989940
              10.88553334                5.84592133               35.99403065                0.00010000                1.86009115               -0.77434185               -0.90987047               -6.93232688               39.79671478                1.98814024
              11.90490565                5.42068102               36.07823930                0.00010000                1.97583751               -1.23677356               -0.87717854               -6.95532937               39.73700797                4.27326150
              12.92505009                4.99758548               36.15853334                0.06531788                1.72269063               -1.46496334               -0.83613519               -6.19085343               36.65215418                6.60196983
              13.93935946                4.59077069               36.17603826                0.25142786                0.86563174               -0.80827061                0.17083001               -2.86908897               17.25494907                5.61771447
              14.94236273                4.24157155               35.86399933                0.54615150                0.32302631                0.00207283               -0.70429223               -0.06188721                0.41144675                1.64720597
              15.94581999                3.89487732               35.54398869                0.89523977                0.34572579                0.80401138               -1.71708230               -0.03095359                0.02684531               -2.31980996
               6.17904704                8.78693893               36.25180403                0.94364560               -0.01748703               -0.22179748                0.57659695               -0.04607264                0.04517696                1.99443962
               7.17887216                8.44438614               35.92889746                0.41550083                0.11326317                0.18388051               -0.45654911                0.01319276                0.30212297               -1.63810744
               8.18131230                8.10145775               35.61108476                0.00033838                1.14079635                0.58605011               -1.44817333               -3.31165633               23.51937654               -5.17804992
               9.20168809                7.69015773               35.75224082                0.00010000                1.96595792                0.42967224               -1.27109996               -6.67557660               46.48976363               -2.58242134
              10.22063146                7.26780513               35.88854651                0.00010000                1.87223999               -0.09885271               -1.12053310               -7.16416731               46.36608193               -0.30639917
              11.23913289                6.83870873               36.02152470                0.00010000                1.83763886               -0.64246827               -0.99826415               -7.43030212               46.41417429                1.83794221
              12.25738423                6.40849417               36.15285902                0.00010000                1.78263640               -1.11296939               -0.90083226               -7.52217175               46.51114111                4.16359318
              13.27478562                5.98299293               36.28193419                0.07225503                1.36087098               -1.38828886               -0.82168441               -6.48723553               41.69935858                6.91077986
              14.28460165                5.58329224               36.31171971                0.26156875                0.54498712               -0.70241803                0.60184351               -2.89116955               18.87733303                5.38744138
              15.28568536                5.24144065               35.98030977                0.56061536                0.18085852               -0.03632020               -0.34718938               -0.06430674                0.42974270                1.51187705
              16.28821882                4.90202809               35.64064902                0.90409920                0.25334624                0.63160980               -1.43315409               -0.03416674                0.03142226               -2.39056485
               6.51911295                9.78511474               36.17398569                0.93186784                0.06074455               -0.14286200                0.35363092               -0.04587389                0.05445432                1.98478159
               7.51972039                9.44659848               35.83306064                0.40011179                0.20865826                0.26030554               -0.75364722                0.01012015                0.36477844               -1.64800290
               8.52328611                9.10764220               35.49826377                0.00010000                1.58638345                0.64620035               -1.80903175               -3.57790849               26.93698307               -4.94669013
               9.55144806                8.69517875               35.68843665                0.00010000                2.62916832                0.35951107               -1.52071433               -6.85734840               53.09158909               -2.22341800
              10.57586948                8.26723702               35.87023128                0.00010000                2.23950975               -0.23367340               -1.27322511               -6.84236233               52.78699783               -0.26715273
              11.59623826                7.83307197               36.04742328                0.00010000                1.71542651               -0.44923313               -1.07404552               -6.92902347               52.96486062                1.47550380
              12.61017801                7.39842163               36.22586713                0.00010000                1.21345313               -0.65719466               -0.92605584               -7.28232081               53.54362920                3.56678885
              13.62050732                6.96981970               36.40847701                0.07936722                0.64551686               -1.02708420               -0.82980081               -6.55297797               46.74853693                6.75311064
              14.62308835                6.57672233               36.44569481                0.27182551                0.09167105               -0.61824757                1.03219641               -2.88806382               20.27225181                5.04413338
              15.62234074                6.24084514               36.09570575                0.57514850                0.04367179               -0.08982950                0.01022824               -0.07386762                0.48215432                1.50694350
              16.62396178                5.90750952               35.73677425                0.91296988                0.16210416                0.46947020               -1.14978214               -0.03810065                0.04936789               -2.38257822
               6.85516208               10.78408169               36.09618207                0.92005967                0.13850296               -0.06438094                0.12931967               -0.04551951               -0.00551911                1.71849962
               7.85654711               10.44959225               35.73670208                0.38487564                0.30058900                0.33953240               -1.05491618               -0.00092051                0.58532207               -1.47767963
               8.86117386               10.11438176               35.38892838                0.00010000                2.41995948                0.68456553               -2.15616258               -4.00885368               30.65122950               -3.68739693
               9.90494630                9.69734795               35.63035543                0.00010000                4.23585646               -0.78505054               -1.73191132               -5.41043028               59.61937077               -1.29309897
              10.94589099                9.26313166               35.85335481                0.00010000                3.22107589               -0.60240410               -1.38858783               -4.69003917               58.80613112               -0.16514742
              11.96936782                8.82972406               36.06913370                0.00010000                1.45495474               -0.24334370               -1.11765304               -4.43741991               59.09278434                0.83212689
              12.97499008                8.39535028               36.29000535                0.00010000               -0.19712286                0.14541767               -0.92284654               -5.13167244               60.61609026                2.13500644
              13.96542536                7.96245125               36.52989624                0.08672586               -0.95875733                0.29841481               -0.83176432               -5.16431019               52.04780287                4.68167410
              14.95581494                7.57092728               36.57479543                0.28230249               -0.60022700               -0.51342930                1.44956474               -2.99575497               21.93542140                3.57222427
              15.95342082                7.23964406               36.21172503                0.58971421               -0.08434378               -0.15575394                0.37430954               -0.09633721                0.76391573                1.37769682
              16.95412806                6.91141749               35.83297549                0.92179643                0.07072420                0.32079265               -0.86339425               -0.04542998               -0.00575078               -1.98868842
               7.18718144               11.78382712               36.01310209                0.95621152                0.22204726               -0.02545715               -0.11493338                0.15813661                0.81226473                1.45244275
               8.18940191               11.45338913               35.64401345                0.68755627                0.40859505                0.37968758               -1.34093595                0.16079974                2.11314469               -1.27925198
               9.19535334               11.12133351               35.30079600                0.49211253                5.25438232                0.69517470               -2.41631932               -5.27762134               34.86014274               -2.60610931
              10.29448956               10.67947774               35.58604686                0.44673387                7.71696192               -1.78702112               -1.86741433               -4.35290237               65.47091158               -0.80131877
              11.34969258               10.25518894               35.83905963                0.43633102                4.03908400               -0.79427175               -1.44704640               -2.18347302               63.99704062               -0.16901468
              12.37527124                9.82820509               36.08397667                0.44915175                1.25623990               -0.15189683               -1.11012340               -2.10260574               64.32686357                0.39075098
              13.37481738                9.40132998               36.33561418                0.48418200               -1.68135646                0.59797041               -0.86019096               -2.63812541               66.39749634                1.14188733
              14.34164411                8.97578800               36.61590268                0.54585124               -4.44184740                1.33367537               -0.74145132               -4.12193694               57.21892900                2.94427645
              15.28598043                8.56645374               36.67941129                0.64460800               -3.08601614               -0.44735405                1.77137172               -3.88634753               25.20786717                2.36258892
              16.27992379                8.23773007               36.32435210                0.79953339               -0.32370526               -0.19139984                0.72938557                0.02387816                2.62232936                1.21714459
              17.27950632                7.91392537               35.93647981                0.96369842               -0.04174628                0.25078791               -0.54432866                0.15735690                0.99456930               -1.60250566
               3.88156008                1.92063150               37.81941371                1.00000000               -0.62836729               -0.68212658                2.30995249               -0.11774429               -1.62863641                1.71964248
               4.87527641                1.53327361               37.60591152                0.91772286               -0.59320845               -0.47083652                1.75045627               -0.07713997               -1.88715986               -0.45758117
               5.86969591                1.14429419               37.38741618                0.63548964               -0.76083129               -0.25905626                1.12397623               -0.40599758               -1.58017742               -1.16960674
               6.86005978                0.74513495               37.18039544                0.50705958               -1.11350116               -0.13815078                0.54300482               -0.59093800                0.37246026               -0.17051544
               7.84742589                0.32467978               37.00205158                0.44909470               -1.08330045                0.05108912               -0.06328264               -0.53436657                2.94867074               -0.15419193
               8.83839377               -0.11918064               36.84795755                0.44891600               -0.35518303                0.23364774               -0.71375947               -0.30205795                4.12335215                0.02755065
               9.84032223               -0.57296447               36.69417861                0.50387070                0.58962609                0.40456127               -1.35500990               -0.32352241                2.92707396                0.18847116
              10.85018630               -1.01947216               36.51633060                0.61778764                1.06226748                0.56636751               -1.95631286               -0.39008717                0.52888357                0.28863804
              11.86156758               -1.45318107               36.31396062                0.80146048                1.09460449                0.71000415               -2.55247832               -0.30001891               -1.49688961                0.54812945
              12.87207838               -1.87801330               36.09474118                1.00000000                1.06600924                0.87466105               -3.18681497               -0.13651313               -1.90317794                1.02313487
              13.88288776               -2.29977946               35.88354804                1.00000000                1.08093778                1.11861416               -3.79605387               -0.15380769               -1.47617216               -1.47191371
               4.26774053                2.91381024               37.73504286                1.00000000               -0.50668714               -0.66237009                2.03562094               -0.04113244                0.21628553                2.09226065
               5.26267366                2.52856524               37.51988824                0.66969283               -0.40176354               -0.40647683                1.44872475               -0.01639572                0.69951268               -0.99446779
               6.25970526                2.14170363               37.31449340                0.15678952                0.06419724               -0.14294687                0.95558782               -0.53001792                2.66285171               -3.00254637
               7.26395761                1.74375344               37.13849789                0.00010000                0.72673782               -0.20277242                0.44917706               -1.51296586                5.19943931               -2.40504116
               8.27424002                1.32519067               36.98277192                0.00010000                1.01188556               -0.71810839               -0.08589801               -2.49364279                7.66283340                0.29547198
               9.28419532                0.88315584               36.85443482                0.00010000                0.64963727               -0.32342987               -0.67340093               -3.04592430                9.16295341                0.95452816
              10.28723277                0.43108115               36.72713588                0.00010000                0.10992034                0.20641386               -1.25209449               -2.69704370                8.02893173                1.43176958
              11.28639373               -0.01380849               36.57522010                0.13765096                0.03025957                0.30345497               -1.78195509               -1.58137782                5.63584202                3.12523656
              12.28783796               -0.44608103               36.39991126                0.41233881                0.38093622                0.49072010               -2.30978548               -0.64652732                3.70494101                3.24719413
              13.29401245               -0.86926669               36.20944742                0.83620707                0.76389465                0.78072235               -2.83826164               -0.14987290                1.86302982                1.81188838
              14.30311585               -1.28859332               35.99713896                1.00000000                0.91033997                1.10859972               -3.40507142               -0.09257133                0.79229133               -1.77170718
               4.65122742                3.90738410               37.65835343                0.99681545               -0.41723240               -0.61138635                1.75238301               -0.05979450                0.20709410                2.30585603
               5.64705510                3.52514407               37.42316595                0.49031149               -0.36600362               -0.25947102                1.07521252               -0.04728014                1.04930546               -1.73558900
               6.64390735                3.14143526               37.20488100                0.03665054               -0.03708385                0.13878359                0.53699596               -0.91371958                5.14977945               -5.95988191
               7.64631342                2.74107950               37.05188344                0.00010000                0.71216453               -0.68569183                0.31046787               -3.09266274               12.15041096               -2.40668314
               8.65815064                2.31031762               36.97238126                0.00010000                1.26356969               -1.19137225               -0.25349977               -4.76292013               15.26239711                0.30283346
               9.67158482                1.87435076               36.87929109                0.00010000                1.25975188               -0.90752988               -0.70470182               -5.16653195               14.62926621                1.86672013
              10.68334568                1.43116381               36.78471298                0.00010000                1.20680492               -0.35849084               -1.13235781               -4.95799956               14.68119594                3.18600249
              11.69572091                0.98659694               36.69050931                0.03794798                1.03747765               -0.17177843               -1.55377580               -3.49557071               11.96869926                5.29799592
              12.70409523                0.55663333               36.53945189                0.21382737                0.79361528               -0.58849885               -1.83151621               -1.37814964                6.77899090                8.45171550
              13.71159322                0.13760115               36.33949222                0.50063562                0.77971849                0.38204561               -2.37338004               -0.42146556                2.60089730                3.05643051
              14.71968960               -0.27760747               36.10420625                0.87049982                0.80963819                1.30379719               -3.08260367               -0.34897396                0.85642248               -1.98087627
               5.03102471                4.90158251               37.57856254                0.97867647               -0.33478017               -0.54218478                1.48452935               -0.05284019                0.05639021                2.09111684
               6.02767690                4.52337582               37.32219082                0.46448977               -0.27646338               -0.12499101                0.74057610               -0.00610947                0.37975021               -1.90298282
               7.02549544                4.14447930               37.07236669                0.02432008                0.27725449                0.34302340                0.02988302               -1.70589634               10.12245800               -6.55476181
               8.03322199                3.73003961               37.01090421                0.00010000                1.01074607               -0.77674200               -0.13080932               -3.76370647               19.90383278               -1.41605000
               9.04571036                3.30136323               36.95450718                0.00010000                1.33982454               -0.80765422               -0.43393954               -4.72174429               20.62413209               -0.05240247
              10.06001848                2.86500524               36.90471921                0.00010000                1.50581200               -0.92139863               -0.75159010               -5.16454244               20.98851557                1.90397207
              11.07582660                2.42391133               36.85251768                0.00010000                1.54971532               -0.85145605               -1.03841845               -5.05485468               20.64996586                3.78884207
              12.09101279                1.98275594               36.79278923                0.04213365                1.67220764               -0.77202851               -1.27523956               -4.60709637               20.25324688                5.49020823
              13.10927075                1.54214899               36.72969832                0.21460218                1.44055743               -1.39472489               -1.25310129               -2.11686464               10.88194180                9.28311682
              14.11982394                1.13837422               36.47882152                0.48867056                0.86414257                0.04451871               -1.91391726               -0.11190783                0.80961072                3.06516316
              15.12655360                0.73748262               36.21283479                0.85830959                0.67296642                1.44448760               -2.72364140               -0.09255896                0.06788804               -1.82606444
               5.40658400                5.89654041               37.49786509                0.96695948               -0.25478810               -0.46485434                1.26172882               -0.04882998                0.04892003                2.05268541
               6.40403612                5.52264425               37.22194603                0.44895469               -0.17291799               -0.03441154                0.42549166                0.00857992                0.24407744               -1.83156357
               7.40312564                5.14829572               36.95001463                0.01753898                0.50596252                0.41234215               -0.37989141               -2.31168368               13.76294467               -5.83924364
               8.41415537                4.72554466               36.94439474                0.00010000                1.28122438               -0.27784715               -0.47936897               -4.82196562               27.18011383               -2.78797880
               9.42875013                4.29416453               36.93778796                0.00010000                1.57952504               -0.63252456               -0.64321497               -5.38416892               27.29423856               -0.17827659
              10.44574587                3.85592279               36.93096805                0.00010000                1.78738783               -0.90889014               -0.81766226               -5.66782075               27.39744377                1.93537749
              11.46449788                3.41413469               36.92258167                0.00010000                1.97977277               -1.10079694               -0.97167180               -5.63129436               27.39837515                4.00698520
              12.48534132                2.97115637               36.91178546                0.04851284                2.08208889               -1.30657327               -1.07286520               -5.28017141               26.83640544                6.25457356
              13.50613966                2.52873883               36.88811026                0.22406630                1.43400563               -1.21384594               -0.78443128               -2.57847279               13.66281367                7.03557469
              14.51402144                2.13849152               36.60937547                0.50198905                0.67409831                0.02333158               -1.50752038               -0.07091530                0.48879051                2.36757644
              15.51962163                1.75128228               36.32106161                0.86634545                0.56001898                1.26485730               -2.38974740               -0.02741786                0.02418449               -1.96359860
               5.77784042                6.89228542               37.41757587                0.95539608               -0.17472340               -0.38586739                1.03840527               -0.04765954                0.04583168                2.07519939
               6.77609318                6.52268759               37.12231431                0.43374474               -0.07395332                0.04195426                0.12090943                0.01404222                0.25092722               -1.77510196
               7.77636135                6.15272615               36.83118751                0.01094056                0.74103459                0.47611792               -0.76470451               -2.80140140               17.25565451               -5.58530480
               8.79091388                5.72448266               36.87587088                0.00010000                1.56437529                0.01460512               -0.78822121               -5.72905181               34.10166196               -2.88839880
               9.80764886                5.28871274               36.91785084                0.00010000                1.78890181               -0.45073972               -0.84195545               -6.19717299               34.07309225               -0.38833198
              10.82669191                4.84682744               36.95771555                0.00010000                2.01591396               -0.89308577               -0.90102112               -6.48133872               34.08702077                1.92424268
              11.84796714                4.40189539               36.99536941                0.00010000                2.20566542               -1.26934011               -0.94481819               -6.48498384               34.06651938                4.14341795
              12.87080522                3.95662448               37.03003997                0.05499714                2.11995025               -1.48488202               -0.94844419               -6.08460057               32.66450771                6.25595409
              13.89036614                3.51787207               37.03499936                0.23372159                1.25284826               -0.99485732               -0.33477958               -2.98457927               16.15180867                6.18781299
              14.89586219                3.13884085               36.73475738                0.51583843                0.50287918                0.03178657               -1.12588748               -0.07676896                0.47427223                1.94744730
              15.90042372                2.76277977               36.42523874                0.87486317                0.45615396                1.04667055               -2.08158088               -0.02807448                0.02530964               -2.24715329
               6.14482647                7.88882306               37.33755287                0.94390647               -0.09502350               -0.30657822                0.81525343               -0.04714609                0.04659784                2.08604073
               7.14387624                7.52348334               37.02312636                0.41860295                0.02380313                0.11741499               -0.18231081                0.01627605                0.28325356               -1.73416954
               8.14530254                7.15781808               36.71342840                0.00443295                0.98557505                0.54331726               -1.14117175               -3.20011000               20.70672932               -5.47892206
               9.16358774                6.72583677               36.80725099                0.00010000                1.85796795                0.24628866               -1.07865942               -6.52533976               40.92551747               -2.86610637
              10.18246189                6.28514974               36.89734226                0.00010000                1.96743513               -0.26525661               -1.03269963               -7.02493079               40.84378838               -0.43885180
              11.20293644                5.83806107               36.98451753                0.00010000                2.12696347               -0.82871041               -0.99515647               -7.33247665               40.83536922                1.86727235
              12.22500116                5.38874789               37.06909546                0.00010000                2.23680933               -1.30131512               -0.95336588               -7.34582901               40.78874098                4.16297195
              13.24767263                4.94145872               37.14991472                0.06163152                1.96152667               -1.51316022               -0.88835574               -6.64930839               38.19061453                6.47452388
              14.26423170                4.50884169               37.17747036                0.24346424                0.99528680               -0.83654440                0.10796545               -3.15426892               18.34136778                5.81317566
              15.26757836                4.13912725               36.85671009                0.52980337                0.34753063                0.01377234               -0.75759683               -0.07637140                0.48864398                1.68749606
              16.27118231                3.77221569               36.52647466                0.88339221                0.36039459                0.84940864               -1.78879977               -0.03010806                0.03041475               -2.42868516
               6.50757694                8.88615386               37.25763828                0.93243458               -0.01532621               -0.22689913                0.59093746               -0.04684265                0.04677674                2.07780385
               7.50742368                8.52503589               36.92418686                0.40356367                0.12143895                0.19374914               -0.48573140                0.01669979                0.32581533               -1.70815237
               8.51000572                8.16359249               36.59627445                0.00010000                1.28258737                0.61051971               -1.51479859               -3.52081737               24.15494104               -5.39114370
               9.53307543                7.72940844               36.73911744                0.00010000                2.24601071                0.42546404               -1.35524380               -7.08977187               47.71118950               -2.75232837
              10.55492593                7.28340761               36.87688491                0.00010000                2.16844007               -0.14172856               -1.21364517               -7.58581969               47.57275112               -0.44069206
              11.57644423                6.83025323               37.01107797                0.00010000                2.13634849               -0.70926246               -1.09225941               -7.83491092               47.60645311                1.72304532
              12.59765290                6.37586909               37.14342418                0.00010000                2.06405125               -1.18391920               -0.98582916               -7.90298106               47.69280107                4.04321893
              13.61772525                5.92636127               37.27339317                0.06839011                1.59796655               -1.44187813               -0.88263426               -6.92831166               43.54756955                6.75006472
              14.62961224                5.50114119               37.31751062                0.25334251                0.66177489               -0.71972116                0.54905565               -3.17388533               20.21608508                5.58608248
              15.63096075                5.13911630               36.97661986                0.54382035                0.20162234               -0.02462352               -0.39471136               -0.07562924                0.50697069                1.55379149
              16.63364468                4.77976794               36.62598344                0.89197213                0.26839313                0.66781722               -1.50349516               -0.03330343                0.03573861               -2.50084350
               6.86612556                9.88428508               37.17757170                0.92096677                0.06460437               -0.14680642                0.36423476               -0.04669032                0.05638119                2.06568056
               7.86677160                9.52735832               36.82534280                0.38862056                0.21940416                0.27238905               -0.79039287                0.01284534                0.39430735               -1.72049278
               8.87051364                9.17002848               36.47979558                0.00010000                1.76027930                0.67129106               -1.88603976               -3.81214678               27.67275274               -5.15090541
               9.90197719                8.73434605               36.67277490                0.00010000                2.96935353                0.33246709               -1.61324038               -7.29489901               54.49451842               -2.36587767
              10.92990071                8.28231517               36.85699979                0.00010000                2.58997773               -0.31022254               -1.37449814               -7.24071550               54.15781457               -0.37399167
              11.95377674                7.82387582               37.03616588                0.00010000                2.04663934               -0.53245445               -1.17746524               -7.28230331               54.29737963                1.38229427
              12.97083350                7.36506950               37.21609853                0.00010000                1.50287775               -0.72554573               -1.02472742               -7.60098675               54.83413112                3.45921792
              13.98383430                6.91262116               37.39971941                0.07537167                0.85827323               -1.07813612               -0.91393839               -6.93462089               48.90832769                6.58193915
              14.98799896                6.49444726               37.45583837                0.26335546                0.18023647               -0.62567536                0.99026490               -3.15807070               21.87964198                5.23918409
              15.98743903                6.13863478               37.09561633                0.55790551                0.06070003               -0.07883909               -0.03183831               -0.08358071                0.56094640                1.55580033
              16.98921296                5.78557204               36.72494942                0.90055203                0.17739371                0.49869419               -1.21922888               -0.03724835                0.05511110               -2.48941714
               7.22049665               10.88321773               37.09750867                0.90951106                0.14405343               -0.06726692                0.13654400               -0.04642713               -0.00721672                1.78817144
               8.22193718               10.53048367               36.72593470                0.37385253                0.31392030                0.35369335               -1.09925822               -0.00056119                0.62741610               -1.54406988
               9.22677506               10.17701831               36.36694198                0.00010000                2.64767872                0.70755600               -2.24203786               -4.28568639               31.50794006               -3.83925980
              10.27489076                9.73605778               36.61254699                0.00010000                4.69033961               -0.90682971               -1.83157664               -5.77077987               61.21390398               -1.37967430
              11.32058185                9.27720316               36.83893405                0.00010000                3.65765328               -0.72001797               -1.49678785               -4.96518901               60.33442780               -0.22637520
              12.34804382                8.81960414               37.05739390                0.00010000                1.81529916               -0.33977749               -1.22966332               -4.64765571               60.55675334                0.77893336
              13.35688783                8.36135817               37.28018582                0.00010000                0.08056256                0.07861306               -1.03655815               -5.31765534               61.99588087                2.06971431
              14.34965507                7.90479855               37.52092001                0.08255249               -0.82253146                0.28855160               -0.95172319               -5.40734679               54.50240365                4.55951416
              15.34043720                7.48862768               37.58915665                0.27355711               -0.57453562               -0.50632852                1.41675197               -3.24240131               23.81568007                3.71408594
              16.33816436                7.13753952               37.21530165                0.57204599               -0.07059990               -0.14536412                0.33749260               -0.10699741                0.85322210                1.42784429
              17.33902520                6.78974182               36.82401810                0.90911990                0.08608410                0.34505019               -0.93246550               -0.04502862               -0.00165461               -2.07511128
               7.57066513               11.88293974               37.01196511                0.95101556                0.22946613               -0.02779936               -0.11210369                0.16609318                0.84211085                1.51157908
               8.57295979               11.53443219               36.63035235                0.68215861                0.42803353                0.39485139               -1.39206223                0.16425409                2.22200685               -1.33734627
               9.57922580               11.18417960               36.27618791                0.49122760                5.67084761                0.71612845               -2.50640081               -5.66606177               35.86900859               -2.71340081
              10.68637675               10.71620945               36.56686215                0.44684897                8.39123839               -1.98483267               -1.97166193               -4.66464072               67.23590591               -0.85025464
              11.74705057               10.26791481               36.82403192                0.43646234                4.51459312               -0.92883493               -1.56008260               -2.30958655               65.66363222               -0.20353482
              12.77666861                9.81708027               37.07228452                0.44893295                1.61177038               -0.25238645               -1.22795456               -2.20117356               65.91744641                0.35980807
              13.77928598                9.36664176               37.32637975                0.48328691               -1.41253773                0.52835914               -0.98244585               -2.69458917               67.88289529                1.10243606
              14.74841785                8.91839219               37.60771289                0.54372981               -4.44380061                1.35936440               -0.88357931               -4.23977564               59.87824223                2.85748002
              15.69040997                8.48432069               37.69699717                0.64014864               -3.21164608               -0.43069861                1.73997162               -4.13595820               27.30934340                2.45982520
              16.68418493                8.13572750               37.33149787                0.79057340               -0.32510931               -0.18120195                0.69615687                0.00967444                2.78842857                1.26483939
              17.68390778                7.79247304               36.93072108                0.95727492               -0.02771520                0.27312176               -0.61210708                0.16281190                1.03977911               -1.66966040
               4.08141612                2.02381123               38.84265532                1.00000000               -0.63745189               -0.69380967                2.33962276               -0.11987320               -1.65989697                1.76970409
               5.07504160                1.61594005               38.62350897                0.90726299               -0.60629271               -0.47239686                1.76877639               -0.08042065               -1.95373062               -0.51889623
               6.06929027                1.20634639               38.39867229                0.63137777               -0.79585731               -0.25766032                1.12591762               -0.43186903               -1.65810608               -1.17289762
               7.05912446                0.78576549               38.18577950                0.50591936               -1.17231037               -0.13696938                0.53172312               -0.61916762                0.30899693               -0.17806484
               8.04584406                0.34250993               38.00129644                0.44895814               -1.13880876                0.05578373               -0.09086828               -0.55720220                2.86121202               -0.15915473
               9.03634828               -0.12558216               37.84062498                0.44870331               -0.38025332                0.24066265               -0.75682594               -0.31419489                4.03303144                0.02707804
              10.03823900               -0.60452887               37.68037043                0.50248056                0.60416113                0.41638590               -1.41072042               -0.33153959                2.87193771                0.19244079
              11.04843151               -1.07630872               37.49646499                0.61395628                1.10023747                0.58296587               -2.01959309               -0.40145231                0.50119659                0.29588917
              12.06024375               -1.53487435               37.28809832                0.79338618                1.13352846                0.72964287               -2.62028023               -0.31175616               -1.53976159                0.54527304
              13.07110208               -1.98412300               37.06249811                1.00000000                1.09578772                0.89602845               -3.25940526               -0.14421814               -1.95381873                1.04388674
              14.08215950               -2.43013889               36.84515854                1.00000000                1.10574244                1.14389659               -3.87742759               -0.15697671               -1.51719727               -1.48935357
               4.48808858                3.01687313               38.75553472                1.00000000               -0.51187560               -0.67743487                2.06385681               -0.04155723                0.23447845                2.13332143
               5.48296982                2.61121608               38.53443084                0.65154671               -0.40148590               -0.40420424                1.46050004               -0.02361998                0.76710209               -1.09130748
               6.48005886                2.20376978               38.32408882                0.15075010                0.09405968               -0.13108692                0.96361709               -0.58412943                2.77318611               -3.13581731
               7.48485101                1.78439579               38.14297172                0.00010000                0.79435041               -0.22764366                0.44431629               -1.61660879                5.28754872               -2.43598374
               8.49594587                1.34306776               37.98183035                0.00010000                1.09373603               -0.74602734               -0.10498884               -2.64463743                7.71054771                0.21051650
               9.50672573                0.87682446               37.84754841                0.00010000                0.71705076               -0.33746046               -0.70795147               -3.22956178                9.19487216                0.91027096
              10.51028688                0.39963499               37.71439515                0.00010000                0.14319944                0.21703761               -1.30073957               -2.87363978                8.10416326                1.43780932
              11.50958972               -0.07047907               37.55712771                0.13214562                0.03732209                0.31390848               -1.84001518               -1.70170640                5.75111395                3.15349393
              12.51103332               -0.52757792               37.37648950                0.40030048                0.38512195                0.49539643               -2.37573605               -0.69313343                3.82806495                3.36156048
              13.51729216               -0.97516272               37.18068899                0.81230241                0.77861474                0.79774873               -2.91220020               -0.16608788                1.96788748                1.89041036
              14.52660562               -1.41869992               36.96266884                1.00000000                0.93134560                1.14062225               -3.48598893               -0.10098451                0.87734539               -1.82619520
               4.89189909                4.01026253               38.67591803                0.98357361               -0.42265365               -0.62946580                1.77570371               -0.05791759                0.22145889                2.35350316
               5.88767255                3.60785596               38.43394140                0.47553487               -0.37355639               -0.25358401                1.08805526               -0.05863398                1.12724556               -1.85303366
               6.88442796                3.20372465               38.21022422                0.03308156               -0.00891252                0.16974622                0.53034532               -1.02806101                5.45441967               -6.26752651
               7.88749430                2.78121262               38.05498254                0.00010000                0.80473408               -0.71649163                0.30705347               -3.29933242               12.44486333               -2.63076732
               8.90052264                2.32758938               37.96967379                0.00010000                1.38477604               -1.24056086               -0.29113850               -5.03062913               15.44166674                0.13879169
               9.91518982                1.86766863               37.87200361                0.00010000                1.37735427               -0.94064520               -0.75700616               -5.48694135               14.88561854                1.77473872
              10.92806973                1.39981188               37.77309488                0.00010000                1.32102314               -0.36430092               -1.19608490               -5.28963897               14.95923540                3.17951350
              11.94161029                0.92996944               37.67460841                0.03467492                1.14974995               -0.16808738               -1.63143595               -3.77269302               12.33410055                5.38140794
              12.95106473                0.47503358               37.52081269                0.20630305                0.86460142               -0.65081501               -1.89871957               -1.50371887                7.10604122                8.72851256
              13.95890232                0.03183197               37.31539458                0.48448179                0.80747439                0.37929447               -2.44672237               -0.46197107                2.70972337                3.18952253
              14.96721422               -0.40732644               37.07296463                0.85862995                0.83119010                1.37275520               -3.16375016               -0.38208766                0.88050342               -2.05164916
               5.29174337                5.00428382               38.59354400                0.96609078               -0.34083432               -0.55717992                1.52321441               -0.04994374                0.06957067                2.16964589
               6.28833502                4.60614440               38.32957253                0.45071083               -0.28011922               -0.12176835                0.74167105               -0.01012207                0.40997816               -1.99382777
               7.28614098                4.20716471               38.07255097                0.02124191                0.33323055                0.37737111                0.00694609               -1.83953936               10.44704202               -6.86276531
               8.29499963                3.77006596               38.00937246                0.00010000                1.13681440               -0.77873579               -0.17686634               -4.00618170               20.43877221               -1.73954844
               9.30887727                3.31825655               37.94991232                0.00010000                1.48823859               -0.83718730               -0.48826990               -4.99689343               21.08596904               -0.23415427
              10.32476441                2.85801156               37.89689433                0.00010000                1.66580072               -0.95355473               -0.81766824               -5.47564062               21.46322737                1.79960452
              11.34219328                2.39234897               37.84179601                0.00010000                1.70748793               -0.87703224               -1.11109209               -5.37772840               21.17364337                3.76040149
              12.35891417                1.92615919               37.77971204                0.03882673                1.84515667               -0.78761068               -1.34604530               -4.96398834               20.93823387                5.55902751
              13.37909642                1.45940578               37.71675168                0.20730265                1.57492970               -1.49139585               -1.34368522               -2.32184852               11.36827289                9.55395516
              14.39041276                1.03242317               37.45932579                0.47351944                0.90921377                0.03566525               -1.98786824               -0.13475727                0.88991891                3.16704303
              15.39728069                0.60875518               37.18519625                0.84731368                0.68679347                1.53740158               -2.80398442               -0.09722973                0.06885805               -1.88642445
               5.68717906                5.99911893               38.51065705                0.95469944               -0.25898345               -0.47645561                1.29399654               -0.04917597                0.04880151                2.14494738
               6.68458922                5.60542059               38.22618552                0.43565557               -0.17317229               -0.03207234                0.42260322                0.01045975                0.26073868               -1.90991955
               7.68371561                5.21127207               37.94603345                0.01464899                0.58448057                0.43851292               -0.41533003               -2.45963090               14.15095513               -6.08741083
               8.69627883                4.76563790               37.93930610                0.00010000                1.44617841               -0.27166125               -0.53961127               -5.11071553               27.89691353               -3.03329684
               9.71263918                4.31084563               37.93101869                0.00010000                1.76528787               -0.65275073               -0.71363451               -5.69106899               27.98029073               -0.36409864
              10.73158459                3.84859753               37.92242997                0.00010000                1.98641788               -0.94403121               -0.89412807               -5.99352953               28.09400160                1.81769309
              11.75236754                3.38227123               37.91250717                0.00010000                2.18445609               -1.13823775               -1.04829502               -5.97063235               28.13960915                3.94879505
              12.77527371                2.91421723               37.90074372                0.04504859                2.29981191               -1.34385866               -1.14165419               -5.68135879               27.79844493                6.24719754
              13.79836377                2.44520566               37.87983663                0.21654345                1.57920262               -1.27759859               -0.87934683               -2.82400522               14.32545575                7.25079314
              14.80685776                2.03254528               37.59396032                0.48646285                0.71209132                0.02951772               -1.57938177               -0.09605092                0.57645021                2.43350151
              15.81260560                1.62342159               37.29677548                0.85511514                0.57478360                1.34182815               -2.46930996               -0.02675762                0.02654947               -2.04707097
               6.07815653                6.99475470               38.42808233                0.94348055               -0.17654457               -0.39549192                1.06364418               -0.04843794                0.04782057                2.16449058
               7.07639108                6.60550295               38.12346066                0.42087675               -0.07127346                0.04721663                0.10848440                0.01779736                0.26949116               -1.84962513
               8.07673106                6.21593497               37.82331108                0.00823399                0.84103401                0.49918678               -0.81053934               -2.96425208               17.72436298               -5.81720066
               9.09321176                5.76463274               37.86764372                0.00010000                1.76825994                0.01893571               -0.85849750               -6.05544065               34.99408676               -3.10140656
              10.11209626                5.30520153               37.90904057                0.00010000                2.01282262               -0.47213315               -0.92289689               -6.54139668               34.95550929               -0.55954869
              11.13346821                4.83913094               37.94830256                0.00010000                2.25323415               -0.93465820               -0.98527479               -6.83571927               34.98114149                1.79743194
              12.15716094                4.36958421               37.98554862                0.00010000                2.44421750               -1.31927761               -1.02367948               -6.84665891               34.99618141                4.05237581
              13.18235256                3.89928201               38.02027069                0.05138753                2.35636641               -1.52472379               -1.01027285               -6.52583163               33.91833961                6.18305428
              14.20428827                3.43385380               38.03124855                0.22592001                1.39616231               -1.03413573               -0.42396824               -3.26204051               17.01922732                6.39786088
              15.21027581                3.03301353               37.72318270                0.49991631                0.53523243                0.04568531               -1.19320862               -0.09942574                0.56567479                1.99899577
              16.21499292                2.63559175               37.40404207                0.86333924                0.47171064                1.10686641               -2.16052564               -0.02750128                0.02847429               -2.34952394
               6.46471381                7.99120910               38.34580305                0.93230680               -0.09488995               -0.31392631                0.83528690               -0.04797259                0.04817916                2.17555285
               7.46376491                7.60636493               38.02119694                0.40618394                0.02934875                0.12518482               -0.20350120                0.02039639                0.30538710               -1.80751626
               8.46530078                7.22125581               37.70173280                0.00193784                1.10692744                0.56663639               -1.19845545               -3.37994151               21.26398337               -5.70553837
               9.48590346                6.76601661               37.79607770                0.00010000                2.10061324                0.24772536               -1.15746640               -6.88815874               41.99423804               -3.06155155
              10.50731305                6.30140297               37.88658087                0.00010000                2.22920339               -0.29338870               -1.12206061               -7.40412743               41.90835541               -0.59790789
              11.53048752                5.82990437               37.97412752                0.00010000                2.39851172               -0.88048272               -1.08569737               -7.71314102               41.90579028                1.73783152
              12.55528328                5.35588568               38.05917198                0.00010000                2.49999823               -1.36143661               -1.03393212               -7.72087526               41.88108663                4.04692591
              13.58048749                4.88372276               38.14076622                0.05785373                2.20540856               -1.55462405               -0.94371154               -7.10323641               39.75294385                6.34690353
              14.59939145                4.42452294               38.17819757                0.23542791                1.13219106               -0.86039671                0.02848428               -3.44276873               19.44237745                6.02503853
              15.60313131                4.03345898               37.84884739                0.51344972                0.37538420                0.02983592               -0.81922309               -0.09439402                0.58121531                1.73435666
              16.60689914                3.64555892               37.50821269                0.87161429                0.37678267                0.89723538               -1.86712785               -0.02933037                0.03452807               -2.54064536
               6.84688541                8.98847618               38.26362278                0.92116335               -0.01331150               -0.23255687                0.60664774               -0.04772482                0.04838108                2.16517321
               7.84675230                8.60800665               37.91918283                0.39158783                0.12975634                0.20379281               -0.51524698                0.02046339                0.35266488               -1.78198634
               8.84948054                8.22726769               37.58078878                0.00010000                1.42745628                0.63503783               -1.58307720               -3.72055584               24.80685918               -5.61485438
               9.87530142                7.76958724               37.72513594                0.00010000                2.53227063                0.42075152               -1.44267065               -7.48515828               48.95926648               -2.93123860
              10.90012595                7.29933376               37.86427360                0.00010000                2.47106288               -0.18474583               -1.31067355               -7.98721110               48.81072137               -0.58321728
              11.92472268                6.82152128               37.99967951                0.00010000                2.43995481               -0.77512242               -1.18913000               -8.21893481               48.83568213                1.60066924
              12.94892505                6.34235548               38.13314243                0.00010000                2.34639461               -1.25206649               -1.07074556               -8.26539638               48.92147928                3.91506381
              13.97165057                5.86818953               38.26428150                0.06447268                1.83858087               -1.48955516               -0.93763997               -7.36315338               45.43239584                6.57825145
              14.98569667                5.41664587               38.32270082                0.24504321                0.78506918               -0.73314828                0.48098620               -3.45932335               21.57968402                5.80187728
              15.98735196                5.03361024               37.97241554                0.52705946                0.22548876               -0.00898078               -0.45035124               -0.08960547                0.60010717                1.60199121
              16.99020644                4.65353645               37.61057912                0.87991552                0.28544841                0.70638019               -1.58146476               -0.03244562                0.04084896               -2.61510462
               7.22469837                9.98655796               38.18127038                0.91005694                0.06842849               -0.15122311                0.37607424               -0.04770354                0.05824789                2.15102394
               8.22538266                9.61044078               37.81725278                0.37708570                0.23053463                0.28473262               -0.82792995                0.01542149                0.42745516               -1.79687217
               9.22930907                9.23395656               37.46054297                0.00010000                1.93757844                0.69682724               -1.96482659               -4.03846537               28.42851223               -5.36473980
              10.26413423                8.77443164               37.65617184                0.00010000                3.31628603                0.30399845               -1.70915577               -7.71588118               55.92963541               -2.51611835
              11.29563479                8.29770805               37.84274132                0.00010000                2.94764380               -0.38808687               -1.47878695               -7.62115210               55.56397493               -0.48697734
              12.32308710                7.81440192               38.02387397                0.00010000                2.38361577               -0.61685914               -1.28141869               -7.61676349               55.66926467                1.28303139
              13.34330710                7.33084435               38.20537258                0.00010000                1.79234636               -0.79460685               -1.11827178               -7.90068626               56.17109799                3.34191775
              14.35893403                6.85393165               38.39019824                0.07126904                1.07385854               -1.12707398               -0.98206767               -7.30661747               51.12269931                6.38684456
              15.36478427                6.40985998               38.46550011                0.25480460                0.27572931               -0.62978299                0.93448628               -3.43010256               23.52994675                5.45103701
              16.36444862                6.03327937               38.09506898                0.54071136                0.08067661               -0.06454200               -0.08166410               -0.09507976                0.65527518                1.61065821
              17.36639781                5.65968652               37.71238968                0.88821519                0.19491884                0.53035812               -1.29703761               -0.03650321                0.06165539               -2.60080964
               7.59816569               10.98545172               38.09891295                0.89888294                0.14964300               -0.07060617                0.14485112               -0.04750242               -0.00909925                1.86185179
               8.59966212               10.61370130               37.71471691                0.36270789                0.32773389                0.36830531               -1.14486608               -0.00054447                0.67484674               -1.61397208
               9.60472037               10.24120424               37.34408762                0.00010000                2.87850936                0.73085359               -2.32998359               -4.55597174               32.38909278               -3.99780280
              10.65723231                9.77566721               37.59372390                0.00010000                5.15061314               -1.02946618               -1.93474681               -6.12013909               62.84523846               -1.47148354
              11.70773263                9.29157202               37.82341905                0.00010000                4.10094012               -0.83927762               -1.60758683               -5.22875225               61.90068362               -0.29073484
              12.73925111                8.80918410               38.04454043                0.00010000                2.18244794               -0.43909495               -1.34071179               -4.84617222               62.05962627                0.72241878
              13.75138159                8.32646334               38.26927419                0.00010000                0.36257425                0.00732425               -1.14148615               -5.48981197               63.41305818                1.99670849
              14.74650260                7.84564805               38.51086178                0.07834884               -0.68173463                0.27100913               -1.04723667               -5.63778120               57.02570589                4.41330583
              15.73774690                7.40405021               38.60313047                0.26474468               -0.54393890               -0.49453782                1.37122089               -3.48653033               25.76288662                3.86777369
              16.73562382                7.03231940               38.21847488                0.55442886               -0.05424149               -0.13224828                0.29322472               -0.11933827                0.95864970                1.48299253
              17.73666207                6.66414362               37.81432618                0.89648640                0.10382503                0.37198396               -1.01047550               -0.04469442                0.00303784               -2.16570618
               7.96724916               11.98514583               38.01086002                0.94580635                0.23700861               -0.03058820               -0.10842904                0.17445215                0.87374140                1.57413036
               8.96961925               11.61780689               37.61617220                0.67673085                0.44872784                0.41055900               -1.44483413                0.16710234                2.34052435               -1.39852859
               9.97622372               11.24857363               37.25066798                0.49033322                6.08722095                0.73693956               -2.59911892               -6.04789382               36.90804747               -2.82606279
              11.09136367               10.75384232               37.54661362                0.44696938                9.06595699               -2.18248928               -2.07988266               -4.96942122               69.03812821               -0.90072271
              12.15754286               10.28092250               37.80785798                0.43660196                4.99543349               -1.06495190               -1.67634838               -2.43009264               67.36813188               -0.23854728
              13.19127234                9.80562002               38.05941757                0.44869339                1.97520262               -0.35640766               -1.34522379               -2.29446093               67.54619406                0.32797272
              14.19704691                9.33099084               38.31596526                0.48237553               -1.13403977                0.45274937               -1.09608410               -2.74687773               69.39932322                1.05889494
              15.16859154                8.85935183               38.59823109                0.54156935               -4.43322968                1.37037823               -0.99876405               -4.34218656               62.61047377                2.75205006
              16.10838232                8.39996922               38.71421072                0.63567294               -3.33115465               -0.40809881                1.69552236               -4.37233014               29.49605699                2.56569131
              17.10196845                8.03063440               38.33827524                0.78163222               -0.32634104               -0.16850021                0.65532377               -0.00768842                2.97563424                1.31671060
              18.10185549                7.66712620               37.92423767                0.95087161               -0.01129522                0.29825850               -0.68940902                0.16852226                1.08821726               -1.74034582
               4.28665484                2.13026678               39.86620617                1.00000000               -0.64700152               -0.70528241                2.37176759               -0.12318162               -1.69229654                1.82229932
               5.28018483                1.70105194               39.64128705                0.89674023               -0.61957931               -0.47452745                1.78696673               -0.08550286               -2.02356377               -0.58635914
               6.27426326                1.27000317               39.40993453                0.62726739               -0.82846302               -0.25678192                1.12599833               -0.45665015               -1.73982269               -1.17396451
               7.26361557                0.82718923               39.19102990                0.50475703               -1.22293055               -0.13584956                0.51694101               -0.64356715                0.24201691               -0.18698371
               8.24980465                0.36042886               39.00023422                0.44886883               -1.18175797                0.05947992               -0.12359154               -0.57679505                2.76811929               -0.16492516
               9.23998041               -0.13248594               38.83282103                0.44848113               -0.39418366                0.24685680               -0.80751818               -0.32494073                3.93790952                0.02572311
              10.24192097               -0.63716508               38.66596420                0.50105826                0.62509634                0.42779589               -1.47486412               -0.33811912                2.81576563                0.19518749
              11.25248234               -1.13487983               38.47593874                0.61009815                1.14091296                0.59977994               -2.08901884               -0.41071318                0.47828127                0.30198265
              12.26473923               -1.61905797               38.26155501                0.78525494                1.17297306                0.74937756               -2.68884387               -0.32200124               -1.57491319                0.54034796
              13.27594180               -2.09351734               38.02955308                1.00000000                1.12418615                0.91623835               -3.32642920               -0.15155303               -1.99891045                1.06209456
              14.28722296               -2.56458715               37.80599948                1.00000000                1.12811586                1.16638316               -3.94851661               -0.15897070               -1.55565701               -1.50471099
               4.71463787                3.12321395               39.77632000                1.00000000               -0.51762634               -0.69109445                2.09557270               -0.04297780                0.25227407                2.18181810
               5.70946160                2.69630666               39.54909824                0.63330547               -0.40048783               -0.40551136                1.47436719               -0.03348066                0.84070676               -1.18823596
               6.70662811                2.26743535               39.33376574                0.14468390                0.12527235               -0.11902931                0.97115659               -0.63922930                2.89093675               -3.27879514
               7.71196705                1.82583073               39.14738422                0.00010000                0.86230833               -0.25629064                0.43654829               -1.71330664                5.37551720               -2.47136060
               8.72387428                1.36102366               38.98067214                0.00010000                1.17804594               -0.77086857               -0.12908202               -2.78449194                7.75415730                0.11121629
               9.73552797                0.86998263               38.84027579                0.00010000                0.79312245               -0.35072240               -0.75122086               -3.40075488                9.21959722                0.85289820
              10.73973673                0.36711288               38.70112109                0.00010000                0.18968393                0.22591481               -1.35969986               -3.04300230                8.17438298                1.43247510
              11.73932165               -0.12888203               38.53841980                0.12656201                0.05506253                0.32602977               -1.90646926               -1.82371472                5.86578851                3.16834949
              12.74083798               -0.61156419               38.35239654                0.38816635                0.39346046                0.49996826               -2.44494823               -0.73911390                3.95239093                3.47235219
              13.74719086               -1.08435496               38.15120342                0.78845910                0.79325400                0.81360706               -2.98370999               -0.18325846                2.07419368                1.96676275
              14.75670306               -1.55292332               37.92741918                1.00000000                0.95121995                1.17096446               -3.56026595               -0.11000507                0.96382936               -1.87935302
               5.13960987                4.11644489               39.69386751                0.97027989               -0.43160497               -0.64887713                1.81431044               -0.06425817                0.24012375                2.41799175
               6.13529382                3.69294171               39.44492705                0.46077111               -0.38276332               -0.25257606                1.10619766               -0.07072058                1.20730480               -1.97435640
               7.13195460                3.26762258               39.21548791                0.02949153                0.02336534                0.19897122                0.52403543               -1.14350293                5.77177463               -6.59622549
               8.13576113                2.82206341               39.05802451                0.00010000                0.90041526               -0.74528261                0.29813839               -3.49710277               12.74394705               -2.88192589
               9.14996291                2.34501149               38.96655849                0.00010000                1.50574811               -1.28442090               -0.33514617               -5.27651046               15.61198509               -0.05056703
              10.16587609                1.86049962               38.86415097                0.00010000                1.49813388               -0.97058338               -0.81779518               -5.78934499               15.14017349                1.66001433
              11.17992559                1.36735322               38.76079128                0.00010000                1.44045129               -0.37029041               -1.26975675               -5.60569070               15.23205938                3.15501525
              12.19468511                0.87164077               38.65788059                0.03133031                1.27521497               -0.16583966               -1.72030393               -4.04558391               12.70169461                5.45349765
              13.20542989                0.39094140               38.50147750                0.19872988                0.94753200               -0.71158232               -1.97281079               -1.63507431                7.44038460                8.98759820
              14.21363575               -0.07724520               38.29055777                0.46839902                0.83648453                0.37521498               -2.52205194               -0.50611814                2.81733995                3.32046312
              15.22215958               -0.54116786               38.04093125                0.84683908                0.85238213                1.44333004               -3.24086185               -0.41792669                0.90332070               -2.12127842
               5.56035906                5.11023641               39.60902683                0.95347462               -0.34895625               -0.57719342                1.56770989               -0.05346631                0.06988340                2.25464539
               6.55686950                4.69125514               39.33702425                0.43691218               -0.28613565               -0.11919932                0.74970563               -0.01204819                0.43721031               -2.09406564
               7.55463635                4.27141477               39.07250562                0.01812301                0.38832957                0.40824092               -0.01474763               -1.96302509               10.77578902               -7.18674054
               8.56463609                3.81092508               39.00736689                0.00010000                1.26357595               -0.77279726               -0.22534440               -4.23661325               20.98133888               -2.09595442
               9.57990787                3.33533524               38.94474178                0.00010000                1.63816247               -0.86285931               -0.54897196               -5.25424788               21.55641793               -0.43785664
              10.59739934                2.85057096               38.88836584                0.00010000                1.82869458               -0.98155957               -0.89238016               -5.76834185               21.94326613                1.67765955
              11.61648176                2.35970707               38.83029584                0.00010000                1.87112256               -0.89976223               -1.19437438               -5.68595269               21.70521178                3.72114311
              12.63482179                1.86780118               38.76586832                0.03544701                2.02703506               -0.80495535               -1.42953128               -5.31036315               21.62043284                5.62927458
              13.65702246                1.37420416               38.70282462                0.19995587                1.71779812               -1.58417849               -1.45002290               -2.53247740               11.85640423                9.81094488
              14.66917775                0.92314934               38.43906416                0.45839563                0.95836924                0.02749178               -2.06795342               -0.16425211                0.98102317                3.26934037
              15.67618985                0.47594328               38.15675510                0.83634991                0.70120914                1.63314508               -2.88493673               -0.10246957                0.06898977               -1.94729955
               5.97650308                6.10490102               39.52374502                0.94240043               -0.26285888               -0.49035876                1.32462131               -0.05027442                0.05101515                2.23497828
               6.97387449                5.69055772               39.23039810                0.42225733               -0.17394592               -0.02857361                0.42020145                0.01355727                0.28001292               -1.99222776
               7.97302416                5.27578740               38.94170803                0.01173118                0.66169509                0.46340009               -0.44914995               -2.59605226               14.54438726               -6.34803521
               8.98710839                4.80660747               38.93360251                0.00010000                1.61039514               -0.26210755               -0.60207978               -5.38015379               28.62347860               -3.29421663
              10.00523207                4.32775430               38.92351527                0.00010000                1.95145123               -0.66878306               -0.78998402               -5.97733557               28.68078811               -0.56736523
              11.02613742                3.84086842               38.91308549                0.00010000                2.18721248               -0.97462176               -0.97906679               -6.29944895               28.80559083                1.68702321
              12.04897632                3.34935797               38.90161577                0.00010000                2.39216716               -1.17144881               -1.13552658               -6.29429460               28.89816727                3.88475039
              13.07398076                2.85554166               38.88895237                0.04153098                2.52279295               -1.37690587               -1.22372551               -6.07249265               28.75925224                6.24403628
              14.09943218                2.35925783               38.87052332                0.20890855                1.73154147               -1.33679059               -0.99283800               -3.07104053               14.99190056                7.47338865
              15.10861159                1.92330464               38.57778783                0.47096943                0.75450643                0.03921770               -1.65924313               -0.12791890                0.67994468                2.50448386
              16.11452230                1.49149504               38.27167541                0.84391895                0.59107116                1.42043945               -2.55305684               -0.02672782                0.02870832               -2.13267466
               6.38804017                7.10042924               39.43884876                0.93152910               -0.17859025               -0.40536770                1.08954810               -0.04959710                0.04904727                2.25780154
               7.38625426                6.69068367               39.12448400                0.40793002               -0.06873042                0.05265576                0.09644882                0.02166356                0.29001463               -1.92831572
               8.38666556                6.28068278               38.81497672                0.00551761                0.94059249                0.52211027               -0.85631914               -3.11617327               18.20164310               -6.06129343
               9.40506611                5.80568293               38.85870093                0.00010000                1.97173216                0.02530213               -0.93125021               -6.36035809               35.90088800               -3.32608679
              10.42610020                5.32195958               38.89939290                0.00010000                2.23702875               -0.48978774               -1.00949072               -6.86286388               35.85796970               -0.74299562
              11.44980669                4.83107853               38.93801006                0.00010000                2.49112138               -0.97138375               -1.07725707               -7.16788797               35.89876649                1.66146956
              12.47592263                4.33627810               38.97489582                0.00010000                2.68326974               -1.36326884               -1.11184180               -7.19037943               35.95484617                3.95891769
              13.50347208                3.84026306               39.00983451                0.04771292                2.59580236               -1.55778389               -1.08337668               -6.95422975               35.17867037                6.11931235
              14.52783868                3.34746835               39.02652000                0.21807167                1.54550395               -1.06838204               -0.53161822               -3.53817338               17.89335596                6.62402056
              15.53438216                2.92393370               38.71089320                0.48399126                0.57179011                0.06384547               -1.26909729               -0.12701618                0.67493096                2.05798736
              16.53927448                2.50435207               38.38202822                0.85187860                0.48923156                1.16853483               -2.24578966               -0.02716399                0.03204402               -2.45514806
               6.79500227                8.09679367               39.35425861                0.92067183               -0.09480479               -0.32196241                0.85641527               -0.04906831                0.04969311                2.26883455
               7.79405422                7.69161084               39.01905633                0.39370182                0.03495836                0.13283258               -0.22454877                0.02463245                0.33003763               -1.88514419
               8.79570144                7.28622961               38.68945929                0.00010000                1.22851027                0.59012292               -1.25642922               -3.54865433               21.83361450               -5.94422705
               9.81862443                6.80711351               38.78410166                0.00010000                2.34388746                0.25033014               -1.23928689               -7.22806182               43.08337974               -3.26708440
              10.84257919                6.31795855               38.87490105                0.00010000                2.49183565               -0.31883810               -1.21660145               -7.75880870               42.99895344               -0.76623573
              11.86846114                5.82144075               38.96280359                0.00010000                2.67025026               -0.92791859               -1.18245050               -8.06917985               43.00819766                1.60198434
              12.89598419                5.32209260               39.04841682                0.00010000                2.76223858               -1.41541661               -1.12086077               -8.07484479               43.01440800                3.92981030
              13.92370591                4.82438598               39.13104049                0.05401938                2.45069399               -1.58843913               -1.00495391               -7.54298564               41.33258955                6.22733357
              14.94499807                4.33789019               39.17804004                0.22730969                1.27408165               -0.87960788               -0.06940144               -3.72856200               20.55464112                6.25636723
              15.94918755                3.92458155               38.84032562                0.49711223                0.40720997                0.05004195               -0.88957815               -0.11610074                0.69321589                1.78907509
              16.95314227                3.51486574               38.48913210                0.85988613                0.39547258                0.94683952               -1.95335223               -0.02857904                0.03949402               -2.65688276
               7.19742446                9.09398999               39.26977124                0.90987926               -0.01134821               -0.23891411                0.62362876               -0.04879433                0.04982170                2.25694279
               8.19731097                8.69334032               38.91388192                0.37952665                0.13826718                0.21379791               -0.54502633                0.02445686                0.38280717               -1.86008210
               9.20018980                8.29248523               38.56461291                0.00010000                1.57324819                0.66026208               -1.65259185               -3.90936999               25.47522939               -5.84978792
              10.22877594                7.81068953               38.71026403                0.00010000                2.82034956                0.41611045               -1.53343192               -7.85776473               50.23404924               -3.11946118
              11.25659679                7.31558282               38.85067144                0.00010000                2.77565525               -0.22641897               -1.41214512               -8.36352439               50.08093744               -0.73287084
              12.28428904                6.81252016               38.98729537                0.00010000                2.74418539               -0.83826101               -1.29006723               -8.57717105               50.10415808                1.47353799
              13.31148050                6.30796977               39.12200927                0.00010000                2.62628694               -1.31582469               -1.15726073               -8.60394411               50.20095470                3.78436640
              14.33681478                5.80849428               39.25464037                0.06050335                2.07956887               -1.53041033               -0.99058630               -7.78193671               47.34688972                6.40696792
              15.35307188                5.32987619               39.32713035                0.23668986                0.91349086               -0.74259175                0.39563599               -3.74153307               22.96156900                6.03820472
              16.35508460                4.92493454               38.96761284                0.51031307                0.25313189                0.01035304               -0.51464566               -0.10599587                0.71291040                1.65777310
              17.35813451                4.52328886               38.59435414                0.86792449                0.30499152                0.74715231               -1.66822906               -0.03144691                0.04690291               -2.73416078
               7.59532572               10.09201538               39.18509319                0.89903543                0.07223964               -0.15624282                0.38914599               -0.04874436                0.06023534                2.24098994
               8.59604811                9.69588680               38.80878420                0.36541818                0.24195556                0.29722432               -0.86621194                0.01839712                0.46525070               -1.87755567
               9.60016483                9.29943485               38.44049905                0.00010000                2.11617186                0.72260063               -2.04528165               -4.25454752               29.20501738               -5.58958722
              10.63837155                8.81543572               38.63859179                0.00010000                3.66566228                0.27483992               -1.80848612               -8.11582632               57.39744296               -2.67410626
              11.67347807                8.31343017               38.82742405                0.00010000                3.30796113               -0.46555124               -1.58668682               -7.97889985               57.00796913               -0.60498906
              12.70453077                7.80467553               39.01053751                0.00010000                2.72265569               -0.70056221               -1.38701392               -7.92809447               57.08494720                1.18047222
              13.72793119                7.29577610               39.19373310                0.00010000                2.08149888               -0.86350544               -1.20865271               -8.17752996               57.56285382                3.22037873
              14.74616075                6.79377778               39.38007806                0.06715713                1.28979840               -1.17312314               -1.03554475               -7.66198119               53.38097377                6.17922345
              15.75372716                6.32303835               39.47452810                0.24620656                0.37471042               -0.63018273                0.86208846               -3.69896086               25.21132451                5.68230917
              16.75365496                5.92478861               39.09398304                0.52355981                0.10387622               -0.04707116               -0.13987887               -0.10862579                0.76922117                1.67259181
              17.75580468                5.52980878               38.69900867                0.87594563                0.21497207                0.56454245               -1.38411579               -0.03553939                0.06931680               -2.71714167
               7.98870674               11.09086513               39.10040570                0.88819226                0.15527095               -0.07435885                0.15431345               -0.04853874               -0.01106115                1.93979138
               8.99025945               10.69928481               38.70303738                0.35150504                0.34215912                0.38321154               -1.19175011               -0.00068408                0.72826181               -1.68792470
               9.99554992               10.30693725               38.32034231                0.00010000                3.11023196                0.75313810               -2.42035403               -4.81589831               33.29616565               -4.16522811
              11.05246409                9.81618633               38.57385205                0.00010000                5.61145302               -1.15100797               -2.04127999               -6.45438469               64.51499261               -1.56825494
              12.10777898                9.30627179               38.80678231                0.00010000                4.54585630               -0.95820818               -1.72151083               -5.47731196               63.50822368               -0.35750610
              13.14338122                8.79850891               39.03057966                0.00010000                2.55243324               -0.53950405               -1.45169030               -5.03088510               63.60785630                0.66454361
              14.15882765                8.29069966               39.25735610                0.00010000                0.64658454               -0.06692971               -1.23882020               -5.64746787               64.88018345                1.91991889
              15.15631291                7.78503182               39.49997527                0.07406769               -0.53729101                0.24583963               -1.11887299               -5.86029988               59.60751161                4.25083115
              16.14808183                7.31727254               39.61658107                0.25585068               -0.50856285               -0.47821666                1.31080970               -3.72394515               27.76202770                4.03525668
              17.14614165                6.92399311               39.22116614                0.53683482               -0.03492298               -0.11638037                0.24084791               -0.13385564                1.08404342                1.54390353
              18.14738337                6.53457971               38.80380859                0.88394052                0.12417193                0.40171834               -1.09816434               -0.04421045                0.00872263               -2.26083778
               8.37751559               12.09052821               39.00979653                0.94057510                0.24467266               -0.03369240               -0.10373717                0.18316691                0.90710664                1.64035906
               9.37996232               11.70355103               38.60145567                0.67127058                0.47148752                0.42662205               -1.49917302                0.16875668                2.46934373               -1.46338266
              10.38694534               11.31449761               38.22420553                0.48938376                6.49934974                0.75603631               -2.69395986               -6.41723171               37.97918676               -2.94563461
              11.50994931               10.79241556               38.52526450                0.44705653                9.73319558               -2.37707682               -2.19181756               -5.26305819               70.87901225               -0.95232652
              12.58160925               10.29426600               38.79050495                0.43672771                5.47679485               -1.20057887               -1.79605245               -2.54347892               69.11363021               -0.27346453
              13.61948521                9.79388545               39.04538004                0.44845908                2.34248372               -0.46234648               -1.46260195               -2.38102555               69.21973863                0.29672166
              14.62845893                9.29443751               39.30445807                0.48145604               -0.85516684                0.37378530               -1.20076570               -2.79641617               70.96118172                1.01370296
              15.60238187                8.79869457               39.58773761                0.53937305               -4.40859842                1.36627534               -1.08881235               -4.44127804               65.40522745                2.63366997
              16.54028696                8.31347402               39.73090761                0.63115123               -3.43555987               -0.37985189                1.63602997               -4.59116568               31.75282515                2.68125806
              17.53367067                7.92246100               39.34460435                0.77271610               -0.32698424               -0.15321132                0.60646992               -0.02864105                3.18865711                1.37332014
              18.53374727                7.53784315               38.91693290                0.94450742                0.00765991                0.32634394               -0.77667670                0.17460555                1.14045975               -1.81497524
               4.49740843                2.24002955               40.89009067                1.00000000               -0.65664646               -0.71813952                2.40665825               -0.12699190               -1.72516389                1.87901498
               5.49084197                1.78859048               40.65924830                0.88606991               -0.63287355               -0.47791301                1.80632521               -0.09161930               -2.09580311               -0.65806333
               6.48475096                1.33520468               40.42119225                0.62306503               -0.85884305               -0.25641716                1.12608633               -0.47960028               -1.82448540               -1.17310262
               7.47366511                0.86931718               40.19611832                0.50350719               -1.26678192               -0.13432058                0.50048249               -0.66447045                0.17204489               -0.19732892
               8.45941532                0.37833557               39.99882461                0.44877445               -1.21443073                0.06322412               -0.15970164               -0.59250935                2.66812549               -0.17165815
               9.44937649               -0.13997723               39.82447462                0.44825671               -0.39893634                0.25297180               -0.86419251               -0.33449971                3.83429278                0.02315624
              10.45143660               -0.67093890               39.65087315                0.49961404                0.65149119                0.43963038               -1.54747691               -0.34330439                2.75469038                0.19696437
              11.46240632               -1.19523120               39.45468462                0.60619053                1.18472732                0.61772652               -2.16680935               -0.41820462                0.45828630                0.30700448
              12.47513114               -1.70575044               39.23432145                0.77708248                1.21365397                0.76970742               -2.75986182               -0.33089173               -1.60053013                0.53293797
              13.48667940               -2.20618179               38.99596952                1.00000000                1.15111995                0.93496353               -3.38629186               -0.15870230               -2.03624833                1.07769640
              14.49815354               -2.70307249               38.76618820                1.00000000                1.14741464                1.18537464               -4.00623363               -0.15935596               -1.59023442               -1.51715342
               4.94757758                3.23284816               40.79744618                1.00000000               -0.52393678               -0.70570061                2.13030182               -0.04497827                0.27063308                2.23629425
               5.94233821                2.78381135               40.56391819                0.61498367               -0.39929855               -0.40738301                1.48950996               -0.04256869                0.92040200               -1.28755124
               6.93959161                2.33264050               40.34351196                0.13851452                0.15583698               -0.10722065                0.97779867               -0.69111722                3.01540092               -3.42935446
               7.94545495                1.86797398               40.15170268                0.00010000                0.92729131               -0.28628764                0.42593125               -1.80175691                5.46326123               -2.51264224
               8.95813744                1.37896781               39.97924871                0.00010000                1.26068894               -0.79135882               -0.15796015               -2.91004642                7.79081149               -0.00230857
               9.97066873                0.86255248               39.83252399                0.00010000                0.87465482               -0.36219499               -0.80249796               -3.55632011                9.23180120                0.78382357
              10.97563053                0.33345740               39.68720115                0.00010000                0.24806544                0.23381664               -1.42970673               -3.20308578                8.23493863                1.41809907
              11.97563004               -0.18905393               39.51899833                0.12089922                0.08334954                0.34110342               -1.98450646               -1.94795640                5.97780000                3.17047334
              12.97729752               -0.69805337               39.32759054                0.37596603                0.40616780                0.50539519               -2.51974058               -0.78570639                4.07886939                3.57919845
              13.98375340               -1.19683216               39.12101479                0.76461928                0.80765792                0.82811417               -3.05256793               -0.20247016                2.18222699                2.04001331
              14.99345068               -1.69121875               38.89146352                1.00000000                0.96972856                1.19922773               -3.62643408               -0.11965240                1.05092344               -1.93002441
               5.39458247                4.22591554               40.71220424                0.95701370               -0.43842249               -0.66744734                1.85097647               -0.06884094                0.25915143                2.48788631
               6.39019825                3.78044282               40.45606535                0.44598483               -0.39082384               -0.25096595                1.11971279               -0.07965271                1.29145631               -2.09595010
               7.38676600                3.33306026               40.22070493                0.02586578                0.05522049                0.22846359                0.51905458               -1.25644439                6.10114261               -6.94367189
               8.39130266                2.86359143               40.06094531                0.00010000                0.99349444               -0.77025522                0.28316980               -3.68082879               13.04492931               -3.15981631
               9.40663589                2.36250840               39.96297086                0.00010000                1.62289219               -1.32125872               -0.38509280               -5.49716614               15.77258182               -0.26498103
              10.42376050                1.85277887               39.85564770                0.00010000                1.61727049               -0.99611279               -0.88655925               -6.06820125               15.39015309                1.52397559
              11.43898130                1.33373743               39.74769975                0.00010000                1.55987291               -0.37550310               -1.35340474               -5.90117451               15.49597911                3.11421979
              12.45495796                0.81159087               39.64020233                0.02793522                1.41069735               -0.16365862               -1.82107329               -4.31079848               13.06999645                5.51609987
              13.46719524                0.30435746               39.48135648                0.19110055                1.04187047               -0.76838865               -2.05614216               -1.77396199                7.78003444                9.22692454
              14.47579537               -0.18961951               39.26495354                0.45236264                0.86692152                0.37060364               -2.60180450               -0.55480294                2.92205136                3.44770555
              15.48453367               -0.67908794               39.00814739                0.83512136                0.87383032                1.51418884               -3.31550371               -0.45544707                0.92459751               -2.18953213
               5.83714620                5.21949921               40.62489820                0.94078885               -0.35457570               -0.59594868                1.60402013               -0.05518133                0.06805330                2.34268084
               6.83360044                4.77879204               40.34456664                0.42305178               -0.29160381               -0.11632695                0.75721763               -0.01306073                0.46378564               -2.19775087
               7.83131412                4.33720978               40.07225602                0.01496202                0.43949024                0.43900000               -0.03509005               -2.07951101               11.10589785               -7.52703096
               8.84239024                3.85256887               40.00486557                0.00010000                1.38462781               -0.75859508               -0.27608330               -4.45143134               21.52736358               -2.48275328
               9.85900668                3.35254264               39.93893288                0.00010000                1.78427144               -0.88305938               -0.61567998               -5.49012838               22.03267289               -0.66294373
              10.87807567                2.84263023               39.87904673                0.00010000                1.98941805               -1.00425433               -0.97537362               -6.03799516               22.42626172                1.53844499
              11.89879504                2.32594734               39.81790852                0.00010000                2.03591853               -0.91855853               -1.28823906               -5.97373126               22.24114102                3.67133805
              12.91879404                1.80767290               39.75112141                0.03201804                2.21168151               -0.82295527               -1.52593012               -5.63876164               22.29414704                5.70198736
              13.94302867                1.28657886               39.68775123                0.19250730                1.86543470               -1.66897036               -1.57354388               -2.74609501               12.34388114               10.05285452
              14.95610274                0.81057992               39.41796672                0.44325166                1.01249664                0.02127097               -2.15596727               -0.20023141                1.08369663                3.37359532
              15.96327860                0.33906503               39.12749751                0.82544850                0.71758627                1.72914571               -2.96971310               -0.10794151                0.06785741               -2.01045999
               6.27489320                6.21399657               40.53714948                0.93008818               -0.26667278               -0.50510345                1.35581550               -0.05198834                0.05234621                2.32778730
               7.27222647                5.77811629               40.23458955                0.40889464               -0.17471280               -0.02568170                0.41820794                0.01533336                0.29977248               -2.08021882
               8.27139894                5.34184026               39.93705045                0.00876145                0.73573488                0.48740307               -0.48223296               -2.72319449               14.94088665               -6.62165719
               9.28694117                4.84841953               39.92726450                0.00010000                1.76865094               -0.24785084               -0.66658018               -5.62849794               29.35659522               -3.57082804
              10.30677196                4.34484721               39.91521901                0.00010000                2.13273654               -0.67934007               -0.87209972               -6.23929507               29.39301863               -0.78800779
              11.32959590                3.83269378               39.90284864                0.00010000                2.38460205               -0.99939980               -1.07254352               -6.58079974               29.52988919                1.54350354
              12.35446400                3.31536626               39.88979664                0.00010000                2.59776561               -1.19929103               -1.23385565               -6.59618204               29.67082863                3.81555004
              13.38155121                2.79513177               39.87626921                0.03796046                2.74511614               -1.40463780               -1.32052159               -6.44402280               29.71304336                6.24704915
              14.40936632                2.27097805               39.85997987                0.20124100                1.88766790               -1.38806835               -1.12492288               -3.31289140               15.66163040                7.70417884
              15.41930457                1.81080591               39.56077546                0.45545456                0.80191445                0.05277827               -1.74750338               -0.16598053                0.80276782                2.58270918
              16.42540461                1.35549498               39.24571434                0.83277991                0.61000447                1.49835304               -2.64330018               -0.02683564                0.03098319               -2.22232427
               6.70786699                7.20939714               40.44987329                0.91949975               -0.18035812               -0.41666299                1.11590812               -0.05092259                0.05031028                2.35507717
               7.70606341                6.77827840               40.12538964                0.39495638               -0.06600017                0.05739171                0.08485180                0.02496032                0.31251422               -2.01220981
               8.70654699                6.34695784               39.80618469                0.00273931                1.03749637                0.54474064               -0.90203343               -3.25688727               18.68587916               -6.31814799
               9.72681334                5.84761185               39.84901871                0.00010000                2.16997660                0.03461508               -1.00658276               -6.64069363               36.81979503               -3.56341333
              10.74994652                5.33895584               39.88885076                0.00010000                2.45636437               -0.50237459               -1.10191443               -7.15756971               36.77840626               -0.93889051
              11.77594063                4.82264223               39.92675742                0.00010000                2.72434437               -1.00175157               -1.17758742               -7.47272576               36.83828182                1.51686850
              12.80443341                4.30196152               39.96331179                0.00010000                2.91805846               -1.39989123               -1.21061545               -7.50957781               36.94013686                3.86471051
              13.83430180                3.77958014               39.99860316                0.04397479                2.83316442               -1.58341009               -1.17011859               -7.35895931               36.44029102                6.06924621
              14.86109670                3.25881749               40.02061619                0.21015987                1.69822043               -1.09690557               -0.65933047               -3.80559225               18.77455093                6.86821165
              15.86826620                2.81163548               39.69780076                0.46806274                0.61335295                0.08574702               -1.35358017               -0.15931992                0.80691762                2.12559310
              16.87336376                2.36903209               39.35912628                0.84047288                0.50975522                1.23001827               -2.33941446               -0.02676663                0.03652866               -2.56617633
               7.13611223                8.20566331               40.36293135                0.90899411               -0.09472446               -0.33083421                0.87879569               -0.05024442                0.05104916                2.36673699
               8.13516498                7.77926412               40.01670597                0.38115979                0.04077590                0.13993663               -0.24550256                0.02875617                0.35734226               -1.96795279
               9.13692774                7.35273508               39.67660422                0.00010000                1.34821561                0.61371682               -1.31482271               -3.70481295               22.41491279               -6.19576229
              10.16212929                6.84911183               39.77129197                0.00010000                2.58312218                0.25480200               -1.32437682               -7.54124095               44.19147061               -3.48379618
              11.18859019                6.33479972               39.86224885                0.00010000                2.75032040               -0.34012499               -1.31688357               -8.08431196               44.11469687               -0.94388795
              12.21713570                5.81265875               39.95047851                0.00010000                2.93721744               -0.96920579               -1.28662935               -8.39519479               44.14218832                1.46093542
              13.24733454                5.28736844               40.03675476                0.00010000                3.01901762               -1.46174936               -1.21631800               -8.40147282               44.18875315                3.81506596
              14.27751605                4.76346357               40.12066714                0.05014184                2.69323018               -1.61444104               -1.07548903               -7.95814970               42.92292941                6.12284283
              15.30119914                4.24903994               40.17680954                0.21915959                1.41937578               -0.89477903               -0.18696806               -4.00419149               21.67656075                6.50825821
              16.30590357                3.81252085               39.83105583                0.48081090                0.44384602                0.07364025               -0.96881332               -0.14122189                0.82959644                1.85208385
              17.31007606                3.38009534               39.46914565                0.84822462                0.41724910                0.99722874               -2.04904582               -0.02764447                0.04549834               -2.77905707
               7.55966048                9.20278046               40.27609536                0.89849815               -0.00937120               -0.24600051                0.64196354               -0.04989108                0.05134162                2.35337455
               8.55956677                8.78107713               39.90828231                0.36743428                0.14712714                0.22350460               -0.57516289                0.02842713                0.41671304               -1.94332202
               9.56260302                8.35923217               39.54773695                0.00010000                1.71785553                0.68501725               -1.72303952               -4.08475774               26.16004432               -6.09753267
              10.59392388                7.85270789               39.69446730                0.00010000                3.10551698                0.41248324               -1.62788703               -8.20250187               51.53505327               -3.31756969
              11.62471336                7.33215334               39.83603070                0.00010000                3.07720668               -0.26511579               -1.51890636               -8.70957600               51.38387995               -0.88938218
              12.65546801                6.80325812               39.97387817                0.00010000                3.04428868               -0.89658403               -1.39664718               -8.90427546               51.41363644                1.34358254
              13.68559914                6.27272653               40.10999722                0.00010000                2.89996424               -1.37316662               -1.24842550               -8.91388517               51.53420433                3.65581388
              14.71346730                5.74729132               40.24446978                0.05645565                2.31782238               -1.56411725               -1.04542804               -8.17810871               49.28450206                6.24670566
              15.73195558                5.24092191               40.33061354                0.22825084                1.04595352               -0.74922529                0.29046850               -4.01381979               24.35779688                6.29644327
              16.73438637                4.81310829               39.96212263                0.49360518                0.28531513                0.03285249               -0.58802776               -0.12481735                0.85062957                1.72129158
              17.73766189                4.38897667               39.57721454                0.85599367                0.32755190                0.78969527               -1.76508532               -0.03032089                0.05421530               -2.85917052
               7.97852105               10.20074330               40.18905330                0.88799572                0.07607573               -0.16181259                0.40361681               -0.04987717                0.06227669                2.33582609
               8.97928181                9.78373421               39.79992854                0.35377506                0.25403894                0.30971003               -0.90543540                0.02080507                0.50780747               -1.96342290
               9.98360183                9.36643542               39.41963734                0.00010000                2.29381413                0.74805123               -2.12739629               -4.45733659               30.00304412               -5.82613704
              11.02515809                8.85736149               39.62000212                0.00010000                4.01233074                0.24607552               -1.91153533               -8.48848687               58.89885747               -2.84014675
              12.06384844                8.32949740               39.81100758                0.00010000                3.66594536               -0.54061734               -1.69919134               -8.30891453               58.49159417               -0.72754321
              13.09847700                7.79472707               39.99613369                0.00010000                3.05875923               -0.78128379               -1.49605533               -8.21129272               58.54839050                1.07686242
              14.12502363                7.25990510               40.18119952                0.00010000                2.36407521               -0.92948928               -1.29821842               -8.42776656               59.01739299                3.09958671
              15.14575850                6.73218122               40.36948735                0.06300917                1.50410750               -1.21430972               -1.08179973               -7.99445546               55.67251814                5.97126864
              16.15510578                6.23405544               40.48274188                0.23750345                0.47969821               -0.62730401                0.77057773               -3.95811578               26.91434059                5.93556756
              17.15535247                5.81317790               40.09227140                0.50643155                0.13135519               -0.02660575               -0.20719487               -0.12376905                0.90820073                1.74194661
              18.15773288                5.39588925               39.68470736                0.86375160                0.23804164                0.60129846               -1.48185258               -0.03437800                0.07836408               -2.83951834
               8.39268111               11.19954421               40.10199922                0.87745122                0.16096394               -0.07859711                0.16501710               -0.04968963               -0.01329595                2.02203176
               9.39429075               10.78727134               39.69088191                0.34025877                0.35739514                0.39842171               -1.23997244               -0.00178505                0.78821517               -1.76633903
              10.39982901               10.37419320               39.29568054                0.00010000                3.34007069                0.77495393               -2.51201676               -5.06225667               34.23034022               -4.34043204
              11.46109216                9.85762940               39.55289830                0.00010000                6.06702435               -1.26952958               -2.15158057               -6.76829048               66.22449720               -1.67037126
              12.52116950                9.32134099               39.78898884                0.00010000                4.98711475               -1.07447367               -1.83948103               -5.70727458               65.15984308               -0.42627190
              13.56083445                8.78763244               40.01550663                0.00010000                2.92100776               -0.63866834               -1.56434932               -5.19836263               65.20759599                0.60667102
              14.57958965                8.25413675               40.24449778                0.00010000                0.92967002               -0.14220776               -1.33093159               -5.78689847               66.40986252                1.84453029
              15.57942785                7.72300513               40.48848432                0.06972669               -0.38965316                0.21596716               -1.17182752               -6.06364374               62.23617509                4.07840576
              16.57179659                7.22837583               40.62934667                0.24693535               -0.46753401               -0.45570682                1.23254539               -3.94813273               29.79937504                4.21860842
              17.57007717                6.81257617               40.22329184                0.51928790               -0.01224775               -0.09767548                0.17975022               -0.15046780                1.23437872                1.61100683
              18.57155163                6.40100264               39.79236289                0.87147672                0.14744584                0.43444124               -1.19670573               -0.04361827                0.01559365               -2.36134844
               8.80207300               12.19917136               40.00878528                0.93528529                0.25241154               -0.03728511               -0.09785466                0.19231853                0.94238384                1.71020806
               9.80459712               11.79170265               39.58618874                0.66578341                0.49628135                0.44313110               -1.55502507                0.16879419                2.60998937               -1.53192785
              10.81199863               11.38193450               39.19678879                0.48845023                6.90236862                0.77413009               -2.78997217               -6.76962541               39.08328939               -3.07033206
              11.94264449               10.83197090               39.50277727                0.44712682               10.38506446               -2.56585030               -2.30757470               -5.54109568               72.75921366               -1.00531010
              13.01969992               10.30800793               39.77193693                0.43684543                5.95347512               -1.33330638               -1.91978384               -2.64781795               70.90288928               -0.30778558
              14.06171399                9.78195370               40.03016553                0.44823694                2.71065291               -0.56787400               -1.58133594               -2.45939536               70.94521909                0.26694894
              15.07391297                9.25706095               40.29194995                0.48051980               -0.57337226                0.29242016               -1.29903469               -2.84032447               72.58192347                0.97110570
              16.05024655                8.73650056               40.57645484                0.53715972               -4.36704472                1.34954378               -1.15475827               -4.52411340               68.25866659                2.50503017
              16.98657208                8.22494130               40.74693132                0.62660354               -3.52651200               -0.34345302                1.55853046               -4.78625941               34.06684187                2.80783834
              17.97971631                7.81122439               40.35040464                0.76380150               -0.32822454               -0.13517801                0.54944005               -0.05424831                3.43285655                1.43504322
              18.98000759                7.40457807               39.90870413                0.93821213                0.02912843                0.35754365               -0.87440941                0.18096374                1.19699476               -1.89416233
               4.71383630                2.35313607               41.91433933                1.00000000               -0.66691183               -0.73097963                2.44408840               -0.13149467               -1.75746941                1.93923577
               5.70716719                1.87855091               41.67741355                0.87547568               -0.64663857               -0.48123173                1.82738748               -0.09804946               -2.16956710               -0.73418212
               6.70090353                1.40190171               41.43245626                0.61886282               -0.88715367               -0.25661301                1.12750923               -0.49903868               -1.91176623               -1.16934319
               7.68942411                0.91207393               41.20103955                0.50225469               -1.30463367               -0.13230281                0.48441721               -0.68057063                0.09811171               -0.20875188
               8.67481086                0.39614749               40.99704019                0.44866506               -1.24031940                0.06837477               -0.19763881               -0.60394085                2.55990497               -0.17905518
               9.66461772               -0.14812156               40.81553718                0.44803719               -0.40030363                0.26075798               -0.92462110               -0.34208005                3.71879395                0.01941888
              10.66680479               -0.70588179               40.63501466                0.49817581                0.67910215                0.45300516               -1.62693703               -0.34664234                2.68228311                0.19785318
              11.67819977               -1.25736716               40.43260255                0.60224544                1.23194693                0.63768907               -2.25565643               -0.42393071                0.43449123                0.31175158
              12.69144372               -1.79493739               40.20635778                0.76887806                1.25751530                0.79221347               -2.84050437               -0.33882179               -1.61631331                0.52284213
              13.70335007               -2.32205396               39.96182724                1.00000000                1.17685890                0.95152455               -3.43813064               -0.16593958               -2.06128250                1.08957718
              14.71498090               -2.84548086               39.72587481                1.00000000                1.16308299                1.19978659               -4.04754570               -0.15837393               -1.61809738               -1.52530578
               5.18710652                3.34582627               41.81892604                1.00000000               -0.53026479               -0.71927352                2.16510194               -0.04704921                0.28870317                2.29554638
               6.18180387                2.87373859               41.57888844                0.59661594               -0.39774405               -0.40883276                1.50378837               -0.05178082                1.00588677               -1.38938051
               7.17915163                2.39933558               41.35332171                0.13232876                0.18458257               -0.09483137                0.98353476               -0.73968605                3.14640964               -3.58583356
               8.18549552                1.91075090               41.15590284                0.00010000                0.98587805               -0.31848653                0.41343951               -1.87673387                5.54970405               -2.56004942
               9.19886920                1.39683123               40.97751294                0.00010000                1.33580207               -0.80598907               -0.19047380               -3.01817963                7.81881600               -0.12915985
              10.21221156                0.85448602               40.82422583                0.00010000                0.95459848               -0.37110230               -0.85855973               -3.69252144                9.22782331                0.70419370
              11.21796116                0.29864827               40.67252695                0.00010000                0.31383505                0.24060149               -1.50781946               -3.34952686                8.27807582                1.39727318
              12.21848826               -0.25099027               40.49872967                0.11522999                0.12188687                0.36034236               -2.07520758               -2.07174862                6.08085095                3.16282221
              13.22039890               -0.78701525               40.30200173                0.36372755                0.42370751                0.51282941               -2.60508588               -0.83563989                4.20701439                3.68335052
              14.22696241               -1.31253871               40.09015206                0.74079176                0.82125814                0.84054697               -3.11683902               -0.22659696                2.29243186                2.10737815
              15.23682407               -1.83348299               39.85489050                1.00000000                0.98616541                1.22441820               -3.68206577               -0.13028186                1.13660595               -1.97848917
               5.65707068                4.33875060               41.73088703                0.94369307               -0.44484222               -0.68407380                1.88370208               -0.07379802                0.27972854                2.56430587
               6.65262226                3.87037425               41.46732131                0.43117318               -0.39865891               -0.24813328                1.13000373               -0.08809915                1.37922452               -2.21951958
               7.64909750                3.40000509               41.22586900                0.02221054                0.08857635                0.25965282                0.51247182               -1.36831555                6.43956257               -7.30683398
               8.65439378                2.90570420               41.06368791                0.00010000                1.08073243               -0.79000418                0.26125411               -3.84831984               13.34497034               -3.46210593
               9.67071215                2.38002771               40.95885664                0.00010000                1.72782409               -1.35015073               -0.43915450               -5.68684164               15.92272078               -0.50406934
              10.68895026                1.84445639               40.84641978                0.00010000                1.72891969               -1.01735442               -0.96135527               -6.31800457               15.63345078                1.36705320
              11.70529054                1.29893024               40.73372319                0.00010000                1.67390247               -0.38056597               -1.44505416               -6.16739909               15.74812169                3.05888214
              12.72242831                0.74983968               40.62145913                0.02450734                1.54944104               -0.16178397               -1.93005642               -4.56186400               13.43481117                5.57017688
              13.73627936                0.21531920               40.46035466                0.18341458                1.14287784               -0.81734409               -2.14609253               -1.92134126                8.12040303                9.44531657
              14.74528587               -0.30524302               40.23852168                0.43637215                0.89922327                0.36690212               -2.68908851               -0.60843524                3.01998325                3.57186699
              15.75426383               -0.82099249               39.97462117                0.82351139                0.89779579                1.58250630               -3.39594055               -0.49188068                0.94343027               -2.25678957
               6.12238324                5.33214479               41.64110723                0.92814056               -0.35958462               -0.61344631                1.63655848               -0.05692801                0.06589688                2.43633091
               7.11878739                4.86877593               41.35216860                0.40920641               -0.29639321               -0.11219521                0.76177823               -0.01347196                0.48977825               -2.30555383
               8.11645538                4.40452864               41.07180382                0.01177116                0.48595536                0.47102475               -0.05668689               -2.18778309               11.43463136               -7.88256770
               9.12850650                3.89495082               41.00184522                0.00010000                1.49623958               -0.73332163               -0.32929193               -4.65112320               22.07386605               -2.89757268
              10.14638017                3.36982822               40.93242818                0.00010000                1.92212145               -0.89757202               -0.68771485               -5.70078648               22.51277005               -0.90957599
              11.16694893                2.83413893               40.86885837                0.00010000                2.14248630               -1.02142933               -1.06545999               -6.27919821               22.91085250                1.38110752
              12.18922989                2.29103695               40.80453106                0.00010000                2.19565472               -0.93322682               -1.39132015               -6.23415560               22.77993852                3.61017051
              13.21086203                1.74577405               40.73534972                0.02854656                2.39124411               -0.84193913               -1.63393036               -5.93844981               22.95564713                5.77555077
              14.23705478                1.19663786               40.67135374                0.18498929                2.01216868               -1.74213772               -1.71241122               -2.95477707               12.83080593               10.28023807
              15.25110540                0.69479933               40.39594481                0.42815169                1.07153149                0.01838994               -2.25138075               -0.24120612                1.20031830                3.48459028
              16.25848541                0.19816713               40.09736084                0.81458436                0.73800073                1.82061437               -3.06305375               -0.11320099                0.06530450               -2.07716467
               6.58266986                6.32648167               41.55086133                0.91770541               -0.27008842               -0.51979464                1.38650430               -0.05361010                0.05323023                2.42499290
               7.57996897                5.86813035               41.23876226                0.39546760               -0.17514553               -0.02264326                0.41579672                0.01748336                0.31985670               -2.17399892
               8.57916694                5.40942558               40.93206337                0.00576155                0.80513836                0.51187024               -0.51562049               -2.83969442               15.33830762               -6.90908036
               9.59607174                4.89103777               40.92027091                0.00010000                1.91706805               -0.22818095               -0.73354330               -5.85299337               30.09368342               -3.86400539
              10.61750831                4.36207627               40.90607327                0.00010000                2.30429181               -0.68381434               -0.95976187               -6.47302524               30.11491368               -1.02688186
              11.64215757                3.82402781               40.89163462                0.00010000                2.57320044               -1.01764518               -1.17431050               -6.83240971               30.26545323                1.38573035
              12.66897231                3.28026571               40.87693866                0.00010000                2.79504125               -1.22113819               -1.34323441               -6.86885889               30.45542890                3.73970490
              13.69805840                2.73300090               40.86254194                0.03429499                2.95931108               -1.42619957               -1.43198687               -6.78388914               30.65709424                6.25480824
              14.72815854                2.18047644               40.84802486                0.19349660                2.04370389               -1.43174761               -1.27510954               -3.53993992               16.33785203                7.94492293
              15.73893248                1.69512478               40.54283776                0.44000091                0.85528343                0.06829270               -1.84225465               -0.20758117                0.94978159                2.67006808
              16.74526420                1.21541979               40.21880941                0.82171429                0.63317273                1.57150514               -2.74225129               -0.02706844                0.03405426               -2.31765230
               7.03801368                7.32174890               41.46116692                0.90747273               -0.18205300               -0.42876625                1.14359129               -0.05237523                0.05136554                2.45718596
               8.03619315                6.86832306               41.12618103                0.38196598               -0.06298056                0.06143835                0.07330217                0.02881878                0.33672267               -2.10269295
               9.03675407                6.41476604               40.79693605                0.00010000                1.13013994                0.56682627               -0.94855952               -3.38445555               19.17593571               -6.58904418
              10.05879595                5.89038720               40.83856927                0.00010000                2.35877767                0.04756161               -1.08494628               -6.89383164               37.74874620               -3.81513208
              11.08392962                5.35615193               40.87735462                0.00010000                2.66576726               -0.50877103               -1.20053307               -7.42114466               37.71515239               -1.14858849
              12.11211129                4.81378603               40.91445831                0.00010000                2.94750002               -1.02445501               -1.28694055               -7.74481675               37.79837165                1.36245731
              13.14287962                4.26661418               40.95068351                0.00010000                3.14311049               -1.42786099               -1.32135099               -7.79688323               37.95049583                3.76924215
              14.17497350                3.71725006               40.98643214                0.04019406                3.06262362               -1.60123384               -1.27233095               -7.72799723               37.69968021                6.03403367
              15.20413210                3.16800291               41.01333339                0.20215799                1.85184607               -1.12092230               -0.80745447               -4.05514021               19.66692316                7.13008820
              16.21201043                2.69616519               40.68382160                0.45222516                0.66109594                0.10882841               -1.44528405               -0.19473915                0.96834412                2.20113445
              17.21735401                2.22959724               40.33523993                0.82914877                0.53435886                1.28882715               -2.44287319               -0.02637495                0.04207702               -2.68432340
               7.48847403                8.31790634               41.37183453                0.89726816               -0.09458295               -0.34066863                0.90269204               -0.05153776                0.05235630                2.46943269
               8.48752820                7.86935912               41.01414628                0.36858982                0.04698305                0.14641212               -0.26664063                0.03331264                0.38772989               -2.05718717
               9.48941369                7.42076211               40.66316283                0.00010000                1.46405064                0.63677080               -1.37383526               -3.84592470               23.00744439               -6.46162008
              10.51680922                6.89198900               40.75761412                0.00010000                2.81364449                0.26203943               -1.41333090               -7.82369810               45.31716952               -3.71334541
              11.54568658                6.35190084               40.84856337                0.00010000                2.99948871               -0.35577473               -1.42375733               -8.37581957               45.25468535               -1.13202665
              12.57679899                5.80353871               40.93707100                0.00010000                3.19420191               -1.00247032               -1.39978935               -8.68541990               45.30739395                1.31439136
              13.60957062                5.25170849               41.02409046                0.00010000                3.26553673               -1.49864496               -1.32290247               -8.69345663               45.40358554                3.70373230
              14.64210973                4.70097622               41.10953071                0.04620769                2.92849894               -1.63209331               -1.15977155               -8.33677473               44.52027021                6.03794367
              15.66814060                4.15805800               41.17430068                0.21090589                1.56668218               -0.90650947               -0.32663523               -4.26160044               22.81126260                6.78100696
              16.67344337                3.69730135               40.82094936                0.46452928                0.48660018                0.09898029               -1.05669670               -0.16879469                0.99720826                1.92188138
              17.67787260                3.24119634               40.44815119                0.83664073                0.44292357                1.04732507               -2.15564790               -0.02645175                0.05292180               -2.90911394
               7.93407738                9.31493553               41.28261051                0.88709255               -0.00737414               -0.25391511                0.66197263               -0.05108565                0.05289180                2.45457107
               8.93400364                8.87125130               40.90237866                0.35525820                0.15641540                0.23298109               -0.60601901                0.03289776                0.45515579               -2.03275647
               9.93720569                8.42750146               40.53015212                0.00010000                1.85898031                0.71032060               -1.79482540               -4.24424344               26.86160326               -6.35895530
              10.97118325                7.89562799               40.67770629                0.00010000                3.38289158                0.41063947               -1.72663060               -8.51478885               52.86164067               -3.52687979
              12.00486352                7.34903644               40.82029331                0.00010000                3.37060027               -0.29898388               -1.63219631               -9.01997855               52.71981061               -1.05338876
              13.03859525                6.79373662               40.95936242                0.00010000                3.33547253               -0.94771951               -1.51112165               -9.19437524               52.76520177                1.21144268
              14.07157297                6.23664128               41.09704076                0.00010000                3.16466220               -1.42206072               -1.34811157               -9.18868291               52.92386033                3.53329309
              15.10188850                5.68460819               41.23373181                0.05240111                2.55009926               -1.58938070               -1.10829246               -8.54047625               51.23784099                6.10381277
              16.12257496                5.14987272               41.33293972                0.21976824                1.18038478               -0.75207098                0.16272565               -4.26870438               25.76725191                6.57649474
              17.12549619                4.69814479               40.95585228                0.47690560                0.32300237                0.05784887               -0.67106240               -0.14594307                1.02031552                1.79109831
              18.12903501                4.25054374               40.55905244                0.84413721                0.35388131                0.83368628               -1.87395122               -0.02873309                0.06327333               -2.99226896
               8.37482077               10.31282804               41.19316552                0.87691490                0.07994548               -0.16808669                0.41958525               -0.05102756                0.06430773                2.43538283
               9.37562023                9.87401874               40.79067549                0.34204192                0.26656837                0.32232622               -0.94579369                0.02396352                0.55648863               -2.05512933
              10.38015214                9.43496852               40.39795113                0.00010000                2.46791169                0.77378501               -2.21101745               -4.64411504               30.82344577               -6.07467695
              11.42497846                8.90020179               40.60036108                0.00010000                4.35131199                0.21878832               -2.01898571               -8.82924327               60.43373029               -3.01514192
              12.46717838                8.34592117               40.79344022                0.00010000                4.01640904               -0.61097182               -1.81773838               -8.60567389               60.01630038               -0.85484695
              13.50530664                7.78458432               40.98061640                0.00010000                3.38735084               -0.85630642               -1.61124559               -8.46124784               60.06340675                0.97325183
              14.53492540                7.22326727               41.16776873                0.00010000                2.63810595               -0.99007237               -1.39139806               -8.64607360               60.54038536                2.98430681
              15.55806876                6.66918861               41.35844207                0.05873269                1.71522570               -1.24878768               -1.12862775               -8.29758329               57.99373580                5.77303915
              16.56922991                6.14301658               41.48993965                0.22876106                0.58923650               -0.62087299                0.65660167               -4.20217166               28.63560224                6.21114940
              17.56985349                5.69845833               41.08983915                0.48935058                0.16350699               -0.00323879               -0.28453453               -0.14148550                1.07881989                1.81772442
              18.57250005                5.25787006               40.66937162                0.85163936                0.26465592                0.64061169               -1.59192064               -0.03291976                0.08914697               -2.96971508
               8.81067544               11.31157379               41.10370604                0.86666853                0.16669946               -0.08338931                0.17709682               -0.05081887               -0.01561677                2.10847834
               9.81234244               10.87769783               40.67823793                0.32893418                0.37324485                0.41400327               -1.28971810               -0.00291339                0.85678297               -1.84967765
              10.81814034               10.44297716               40.27010197                0.00010000                3.56516482                0.79529764               -2.60503787               -5.29118028               35.19309655               -4.52429974
              11.88364573                9.90000375               40.53082044                0.00010000                6.51135888               -1.38251816               -2.26615504               -7.05765909               67.97394459               -1.77823814
              12.94836752                9.33681700               40.76999269                0.00010000                5.41892288               -1.18535329               -1.96292264               -5.91464359               66.85791656               -0.49708655
              13.99202419                8.77661049               40.99929268                0.00010000                3.28398459               -0.73388520               -1.68146918               -5.34536173               66.86439624                0.54975616
              15.01404721                8.21683984               41.23073746                0.00010000                1.20816672               -0.21559919               -1.42230843               -5.90476831               68.01293420                1.77172991
              16.01618753                7.65963244               41.47653872                0.06534830               -0.23927009                0.18327571               -1.21260868               -6.24397506               64.90547872                3.90833360
              17.00926181                7.13745526               41.64123198                0.23792999               -0.41872630               -0.42775514                1.13239260               -4.15541636               31.86551143                4.41792235
              18.00781300                6.69808002               41.22476114                0.50179746                0.01456675               -0.07610284                0.10901621               -0.16988925                1.41622954                1.68390109
              19.00955314                6.26335597               40.77987447                0.85911466                0.17401426                0.47036810               -1.30733944               -0.04299787                0.02386789               -2.46818832
               9.24155633               12.31116026               41.00783943                0.93000670                0.26022630               -0.04135382               -0.09064161                0.20194342                0.97953100                1.78379976
              10.24415859               11.88229880               40.57035517                0.66025475                0.52331380                0.46009761               -1.61264661                0.16732632                2.76418769               -1.60464551
              11.25202261               11.45087447               40.16840609                0.48747041                7.29134220                0.78973101               -2.88732526               -7.09914221               40.22307484               -3.20212437
              12.38998544               10.87255143               40.47911300                0.44717479               11.01280812               -2.74523290               -2.42733623               -5.79904811               74.67953057               -1.05935653
              13.47227877               10.32221410               40.75210928                0.43697496                6.41955682               -1.46029009               -2.04861481               -2.74111548               72.73844455               -0.34134739
              14.51837657                9.76990661               41.01375332                0.44800434                3.07646591               -0.67038802               -1.70368543               -2.52770237               72.72803395                0.23959312
              15.53380809                9.21895529               41.27847738                0.47954812               -0.29013708                0.21154538               -1.39538881               -2.87653665               74.27603674                0.93112560
              16.51257383                8.67285412               41.56464244                0.53494484               -4.30670426                1.32216883               -1.19987428               -4.58605999               71.15448718                2.37713891
              17.44767400                8.13446148               41.76207822                0.62203629               -3.60094184               -0.29937859                1.45974492               -4.95467317               36.42433302                2.94524009
              18.44055500                7.69693627               41.35559315                0.75493613               -0.32929106               -0.11437451                0.48387559               -0.08500302                3.71596471                1.50180272
              19.44108818                7.26727742               40.89944471                0.93193556                0.05331852                0.39214524               -0.98321323                0.18761916                1.25838405               -1.97836280
               4.93611061                2.46964086               42.93897244                1.00000000               -0.67769027               -0.74294786                2.48357924               -0.13675493               -1.78898548                2.00116324
               5.92933370                1.97095708               42.69579605                0.86472363               -0.66104840               -0.48410846                1.85114345               -0.10504147               -2.24479959               -0.81477275
               6.92288964                1.47008690               42.44374244                0.61459970               -0.91451460               -0.25758061                1.13144873               -0.51549992               -2.00169443               -1.16218774
               7.91104341                0.95541556               42.20580667                0.50094999               -1.33869200               -0.12909268                0.46964609               -0.69245713                0.01881775               -0.22107720
               8.89611580                0.41380896               41.99487183                0.44852323               -1.26327577                0.07592059               -0.23631598               -0.61158966                2.44187849               -0.18709439
               9.88577790               -0.15696617               41.80598220                0.44782043               -0.40494571                0.27199206               -0.98697351               -0.34744024                3.59039531                0.01468002
              10.88801688               -0.74200642               41.61833441                0.49674013                0.69875641                0.47007603               -1.71063515               -0.34707866                2.59473587                0.19778949
              11.89975302               -1.32125040               41.40957149                0.59829521                1.27816524                0.65963420               -2.35342027               -0.42682770                0.39836929                0.31644464
              12.91358019               -1.88658150               41.17751136                0.76063387                1.30918438                0.81982591               -2.94313354               -0.34595061               -1.62889622                0.51304585
              13.92593671               -2.44103989               40.92720691                0.99796081                1.20581298                0.96608516               -3.49772488               -0.17376821               -2.07072917                1.08614119
              14.93769645               -2.99160998               40.68523729                1.00000000                1.17597367                1.20750830               -4.09248944               -0.15606111               -1.62189737               -1.54257608
               5.43342685                3.46221138               42.84074822                1.00000000               -0.53665729               -0.73101983                2.19729144               -0.04964474                0.30595474                2.35805578
               6.42806027                2.96611599               42.59399395                0.57823224               -0.39607242               -0.40924016                1.51607931               -0.06166110                1.09741413               -1.49410489
               7.42550540                2.46751109               42.36318265                0.12610817                0.20987681               -0.08227079                0.98928782               -0.78451729                3.28381924               -3.74689198
               8.43225781                1.95412463               42.15997147                0.00010000                1.03426852               -0.35043143                0.40061677               -1.93859546                5.63446476               -2.61552238
               9.44619077                1.41456817               41.97543924                0.00010000                1.39766885               -0.81485977               -0.22398983               -3.10641296                7.83886028               -0.26894591
              10.46021119                0.84575375               41.81535280                0.00010000                1.02487232               -0.37732167               -0.91517421               -3.80443802                9.20801588                0.61340424
              11.46668821                0.26269434               41.65704476                0.00010000                0.37805506                0.24586956               -1.58737413               -3.47601530                8.30017008                1.36965736
              12.46777229               -0.31465406               41.47749418                0.10947118                0.16636058                0.38123809               -2.17163356               -2.19039453                6.16684634                3.15084368
              13.47001543               -0.87838324               41.27548882                0.35144116                0.44704904                0.52466393               -2.70554058               -0.88822072                4.33433623                3.79197496
              14.47671327               -1.43137904               41.05867801                0.71705666                0.83452507                0.85324802               -3.18378144               -0.25799210                2.40542993                2.16441828
              15.48670593               -1.97953489               40.81782221                1.00000000                0.99926594                1.24579495               -3.73880147               -0.14024375                1.22642333               -2.02799950
               5.92730850                4.45502047               42.74987828                0.93038746               -0.45077241               -0.69799246                1.91190413               -0.07909197                0.30092183                2.64784770
               6.92280078                3.96277227               42.47866543                0.41635823               -0.40589250               -0.24379911                1.13625922               -0.09699204                1.47116832               -2.34428190
               7.91919065                3.46844148               42.23095437                0.01853343                0.12068255                0.29264799                0.50314677               -1.47703072                6.78456871               -7.68382155
               8.92521443                2.94840693               42.06617039                0.00010000                1.15838862               -0.80451095                0.23224318               -3.99721644               13.64011826               -3.78549302
               9.94235842                2.39751177               41.95418777                0.00010000                1.81742690               -1.37168404               -0.49575369               -5.84306860               16.06509564               -0.76952241
              10.96156297                1.83548740               41.83642060                0.00010000                1.82729832               -1.03581040               -1.03919104               -6.53110670               15.87104930                1.18666762
              11.97890439                1.26291097               41.71879867                0.00010000                1.77298742               -0.38795289               -1.54028988               -6.39493980               15.99185341                2.98622555
              12.99702271                0.68637436               41.60160120                0.02102601                1.68181804               -0.16224206               -2.04172302               -4.78435867               13.80193713                5.61551285
              14.01254075                0.12391178               41.43843463                0.17571109                1.24529038               -0.85516705               -2.23487292               -2.06575087                8.46109302                9.64563450
              15.02192852               -0.42397493               41.21117177                0.42046781                0.93312698                0.36673356               -2.78341492               -0.66085596                3.11038356                3.69925563
              16.03120329               -0.96669408               40.94022858                0.81201144                0.92747680                1.64341992               -3.49548861               -0.51957969                0.95815774               -2.32476666
               6.41634140                5.44825154               42.65762937                0.91541888               -0.36419779               -0.62918664                1.66814424               -0.05878053                0.06299922                2.53832745
               7.41269942                4.96124001               42.35980221                0.39527471               -0.30056362               -0.10742002                0.76392355               -0.01333488                0.51563241               -2.41589317
               8.41033012                4.47336405               42.07112228                0.00854388                0.52718892                0.50424689               -0.08090666               -2.28699005               11.76255209               -8.25356556
               9.42324320                3.93803441               41.99827973                0.00010000                1.59594039               -0.69957820               -0.38491537               -4.83195288               22.62150952               -3.33744307
              10.44224893                3.38713449               41.92517858                0.00010000                2.04733263               -0.90643117               -0.76415482               -5.88243864               22.99694657               -1.18031724
              11.46418985                2.82503754               41.85773753                0.00010000                2.28267618               -1.03394753               -1.16110441               -6.48612986               23.39829379                1.20195753
              12.48790245                2.25493528               41.79008212                0.00010000                2.34472279               -0.94515313               -1.50154267               -6.45877855               23.32301463                3.53255456
              13.51108430                1.68210110               41.71844281                0.02499050                2.55736197               -0.86144232               -1.75129288               -6.19188408               23.60666030                5.84320456
              14.53904969                1.10451342               41.65350300                0.17745824                2.15088493               -1.80074566               -1.86081685               -3.14293357               13.32408435               10.48203828
              15.55410200                0.57595564               41.37293911                0.41307818                1.13514702                0.01527060               -2.34730010               -0.27963876                1.33731336                3.60437752
              16.56175263                0.05333351               41.06623644                0.80379498                0.76506315                1.89784569               -3.16628451               -0.11525662                0.06396409               -2.14715277
               6.90015594                6.44243673               42.56487956                0.90532167               -0.27343802               -0.53419354                1.41836184               -0.05505219                0.05386289                2.52893000
               7.89742156                5.96062387               42.24290549                0.38196628               -0.17497501               -0.01997445                0.41237098                0.02095004                0.34079256               -2.27327402
               8.89665644                5.47852642               41.92673804                0.00270779                0.86916854                0.53567186               -0.55128824               -2.94305815               15.73695930               -7.21256160
               9.91480493                4.93441537               41.91259364                0.00010000                2.05250391               -0.20342079               -0.80341790               -6.05083865               30.83411767               -4.17501641
              10.93770652                4.37938314               41.89602377                0.00010000                2.46173197               -0.68202600               -1.05285464               -6.67476601               30.84614515               -1.28636736
              11.96403957                3.81480845               41.87936243                0.00010000                2.74793700               -1.02912705               -1.28413529               -7.04929613               31.01236318                1.20970073
              12.99266526                3.24400791               41.86293195                0.00010000                2.97836604               -1.23703580               -1.46363116               -7.10479463               31.25230356                3.65193549
              14.02360689                2.66914551               41.84762947                0.03062525                3.15811395               -1.44145266               -1.55800125               -7.07749111               31.59214213                6.26112459
              15.05582754                2.08789686               41.83447768                0.18570374                2.19543815               -1.46849922               -1.44110086               -3.74095096               17.03082212                8.18725772
              16.06751566                1.57633049               41.52393036                0.42452077                0.91574384                0.07954704               -1.93990047               -0.25047448                1.13140790                2.76239593
              17.07414242                1.07126284               41.19086931                0.81068825                0.66267601                1.63351687               -2.85198474               -0.02596525                0.03906041               -2.42136811
               7.37886608                7.43756766               42.47274512                0.89543236               -0.18373431               -0.44141797                1.17313784               -0.05371972                0.05223681                2.56462236
               8.37702873                6.96084052               42.12685568                0.36896671               -0.05943062                0.06494384                0.06113362                0.03397648                0.36282817               -2.20038732
               9.37767746                6.48407749               41.78721350                0.00010000                1.21704833                0.58800933               -0.99694835               -3.49610871               19.67203035               -6.87658726
              10.40136970                5.93396600               41.82731979                0.00010000                2.53415343                0.06462703               -1.16711944               -7.11581558               38.68722537               -4.08330634
              11.42836053                5.37349397               41.86484010                0.00010000                2.86047309               -0.50813283               -1.30593362               -7.64952500               38.66742304               -1.37484285
              12.45857916                4.80445500               41.90101861                0.00010000                3.15544809               -1.03829909               -1.40630366               -7.97912403               38.77855017                1.19484488
              13.49146949                4.23019456               41.93688477                0.00010000                3.35331810               -1.44610370               -1.44582629               -8.04508399               38.98537251                3.66858242
              14.52564552                3.65327205               41.97315654                0.03634384                3.27881037               -1.61113726               -1.39262529               -8.04733951               38.95672456                6.00929707
              15.55704570                3.07514343               42.00446710                0.19411383                2.00405084               -1.14215550               -0.97644325               -4.27736321               20.58042107                7.40288566
              16.56572654                2.57754658               41.66889508                0.43642226                0.71614625                0.12986550               -1.54301899               -0.23290066                1.16907195                2.27870106
              17.57136863                2.08600384               41.31026881                0.81786838                0.56420864                1.34188611               -2.55777005               -0.02485215                0.04948354               -2.81398034
               7.85253584                8.43360837               42.38098520                0.88550373               -0.09445698               -0.35133920                0.92862910               -0.05276621                0.05382568                2.57683874
               8.85159127                7.96192275               42.01137315                0.35597400                0.05364752                0.15261366               -0.28858603                0.03888837                0.42219948               -2.15375202
               9.85360879                7.49028661               41.64912751                0.00010000                1.57404374                0.65936445               -1.43461824               -3.96924202               23.61148729               -6.74301377
              10.88307214                6.93570791               41.74302535                0.00010000                3.03091142                0.27286719               -1.50700206               -8.07101614               46.45949291               -3.95789393
              11.91422702                6.36922048               41.83377370                0.00010000                3.23421751               -0.36426241               -1.53839379               -8.62862699               46.41836055               -1.33296466
              12.94775649                5.79404246               41.92248272                0.00010000                3.43597595               -1.02567175               -1.52397718               -8.93446084               46.50331336                1.16000801
              13.98294654                5.21508583               42.01029671                0.00010000                3.49773700               -1.52402183               -1.44411263               -8.94411193               46.65848180                3.59407894
              15.01771124                4.63692277               42.09747171                0.04224678                3.15296036               -1.64079123               -1.26319421               -8.66762187               46.12178290                5.97190654
              16.04600574                4.06505375               42.17027684                0.20262182                1.71429993               -0.91652992               -0.49111441               -4.49302610               23.96592448                7.06902784
              17.05199723                3.57892780               41.80992190                0.44832497                0.53625485                0.12469432               -1.15306024               -0.19998906                1.20581666                1.99306265
              18.05673084                3.09810056               41.42603269                0.82511497                0.47336082                1.09535037               -2.27495366               -0.02480298                0.06241736               -3.05109278
               8.32118200                9.43054088               42.28933481                0.87565517               -0.00537347               -0.26264753                0.68390358               -0.05223752                0.05444330                2.56033199
               9.32112827                8.96389279               41.89616193                0.34306862                0.16627297                0.24248057               -0.63803357                0.03793027                0.49899434               -2.12913456
              10.32450746                8.49726478               41.51184044                0.00010000                1.99436137                0.73527114               -1.86865762               -4.38465405               27.58069079               -6.63556737
              11.36101550                7.93942334               41.65993469                0.00010000                3.64729866                0.41182960               -1.83051438               -8.78923007               54.21351832               -3.74887224
              12.39745344                7.36620872               41.80338678                0.00010000                3.65045504               -0.32596998               -1.75362714               -9.28948333               54.08860412               -1.22652017
              13.43402460                6.78394157               41.94365573                0.00010000                3.61267572               -0.98903067               -1.63649720               -9.44172295               54.15924839                1.07607051
              14.46970695                6.19971413               42.08303499                0.00010000                3.41502830               -1.45956464               -1.46097245               -9.42131036               54.37045337                3.41718120
              15.50232516                5.62045622               42.22230393                0.04825262                2.77366001               -1.60438372               -1.18775370               -8.85751176               53.20288019                5.98263278
              16.52518015                5.05681283               42.33386805                0.21123980                1.31773951               -0.75337972                0.00789114               -4.50003795               27.19385102                6.87447056
              17.52867995                4.58004046               41.94870138                0.46029989                0.36734444                0.08478653               -0.76458149               -0.17011600                1.23064049                1.86331754
              18.53252704                4.10791085               41.53973551                0.83234653                0.38470864                0.87861767               -1.99666844               -0.02695967                0.07410542               -3.13659665
               8.78478727               10.42835542               42.19744501                0.86576577                0.08387141               -0.17505079                0.43720721               -0.05215722                0.06650305                2.53954399
               9.78562598                9.96677236               41.78101267                0.33027810                0.27989474                0.33526569               -0.98770926                0.02694017                0.61229371               -2.15335984
              10.79038516                9.50499203               41.37541699                0.00010000                2.63588117                0.79937327               -2.29653165               -4.81134479               31.66765946               -6.33672971
              11.83834360                8.94394450               41.57962240                0.00010000                4.67669839                0.19446887               -2.13160603               -9.13130531               62.00235584               -3.19992077
              12.88391913                8.36270109               41.77465281                0.00010000                4.35365117               -0.67392562               -1.94422428               -8.86402479               61.58270791               -0.98786069
              13.92541663                7.77426185               41.96390878                0.00010000                3.70432739               -0.92254595               -1.73610996               -8.67267690               61.63184269                0.86956116
              14.95800568                7.18589454               42.15337156                0.00010000                2.90228331               -1.04257152               -1.49489150               -8.82657098               62.13563214                2.87680712
              15.98346229                6.60483509               42.34691479                0.05446052                1.92075338               -1.27424002               -1.18256127               -8.55953144               60.33555648                5.59285369
              16.99642074                6.04998616               42.49587391                0.21996512                0.70173025               -0.61085632                0.51482230               -4.42536615               30.37341659                6.50601372
              17.99749690                5.58062353               42.08658071                0.47232962                0.20150651                0.02298640               -0.37319580               -0.16169636                1.28972614                1.89738811
              19.00045087                5.11567291               41.65286895                0.83960943                0.29539761                0.68274651               -1.71616205               -0.03129649                0.10199385               -3.10970293
               9.24330499               11.42703986               42.10554116                0.85584535                0.17254802               -0.08874317                0.19068824               -0.05193191               -0.01813661                2.19919161
              10.24503047               10.97059811               41.66508755                0.31757745                0.39017195                0.43014463               -1.34150360               -0.00496938                0.93507828               -1.93847581
              11.25110843               10.51325224               41.24357978                0.00010000                3.78249324                0.81458781               -2.69996638               -5.49841276               36.18653303               -4.71750008
              12.32068033                9.94331272               41.50757520                0.00010000                6.93735816               -1.48729262               -2.38558086               -7.31668646               69.76410770               -1.89228943
              13.38985559                9.35273020               41.74973039                0.00010000                5.83486363               -1.28766374               -2.09374513               -6.09563558               68.60372861               -0.57037817
              14.43737761                8.76549065               41.98187724                0.00010000                3.63733489               -0.82187880               -1.80670833               -5.46887825               68.58193222                0.49391446
              15.46260229                8.17886270               42.21605161                0.00010000                1.48326540               -0.28454511               -1.51966460               -5.99901572               69.69845586                1.70423549
              16.46704291                7.59497142               42.46423215                0.06091734               -0.08589466                0.15004045               -1.24949977               -6.39969192               67.60542052                3.74851517
              17.46088440                7.04459571               42.65199452                0.22889770               -0.36418201               -0.39162725                1.00484752               -4.33919679               33.95316198                4.63238761
              18.45975927                6.58050019               42.22547217                0.48438524                0.04589716               -0.05135440                0.02725231               -0.19288556                1.63820512                1.76131102
              19.46180234                6.12156578               41.76621610                0.84680369                0.20430647                0.50987134               -1.43166247               -0.04237724                0.03403844               -2.58252266
               9.69663214               12.42658056               42.00697244                0.92470701                0.26820705               -0.04593044               -0.08210545                0.21218473                1.01871219                1.86113059
              10.69931421               11.97537525               41.55393581                0.65466785                0.55350740                0.47771458               -1.67244993                0.16353576                2.93395335               -1.68179246
              11.70770229               11.52128378               41.13904228                0.48646255                7.66088480                0.80315423               -2.98586804               -7.39944380               41.40084691               -3.34057981
              12.85253191               10.91419865               41.45423054                0.44720565               11.60630982               -2.91140717               -2.55153740               -6.03164098               76.64052496               -1.11465481
              13.93982849               10.33694781               41.73096464                0.43708155                6.86873294               -1.57823943               -2.18407140               -2.82142891               74.62194878               -0.37412181
              14.98990657                9.75782427               41.99609183                0.44778467                3.43580498               -0.76663728               -1.83304753               -2.58431238               74.57265814                0.21502483
              16.00854459                9.18020364               42.26404217                0.47857635               -0.00855634                0.13409402               -1.49474798               -2.90518865               76.05529042                0.89600435
              16.98973544                8.60783590               42.55245736                0.53265697               -4.22182757                1.28644821               -1.23616300               -4.63324827               74.08573245                2.25669113
              17.92410804                8.04215361               42.77612622                0.61743870               -3.65331647               -0.24420934                1.33547214               -5.08960909               38.81645610                3.09455494
              18.91666911                7.57959644               42.36008215                0.74609673               -0.33179437               -0.09037528                0.40892007               -0.12317985                4.04624112                1.57308460
              19.91747215                7.12587034               41.88903987                0.92571088                0.08030358                0.43045582               -1.10404403                0.19437111                1.32494770               -2.06818972
               5.16440937                2.58960778               43.96401092                1.00000000               -0.69081727               -0.75262352                2.52984765               -0.14233537               -1.81889469                2.06460537
               6.15750120                2.06585965               43.71443642                0.85393651               -0.67751685               -0.48725341                1.87980011               -0.10986016               -2.32231075               -0.90146191
               7.15085903                1.53977753               43.45508523                0.61032534               -0.94150611               -0.25917198                1.13808873               -0.52769704               -2.09725893               -1.15122590
               8.13867107                0.99932277               43.21043247                0.49966601               -1.36930671               -0.12460439                0.45519560               -0.69962182               -0.06805337               -0.23381746
               9.12347290                0.43127079               42.99231387                0.44836397               -1.28540098                0.08655882               -0.27597294               -0.61537928                2.31452077               -0.19530604
              10.11296305               -0.16656916               42.79579771                0.44756331               -0.41813410                0.28848675               -1.05086559               -0.35054396                3.45308446                0.00936347
              11.11511021               -0.77934670               42.60080196                0.49527924                0.70135752                0.49238528               -1.79687390               -0.34442716                2.49895601                0.19735405
              12.12699020               -1.38688365               42.38553415                0.59429661                1.30600820                0.68805395               -2.45870587               -0.42514248                0.35065252                0.32002602
              13.14123038               -1.98063139               42.14749511                0.75232285                1.36096771                0.85323694               -3.06472340               -0.35234294               -1.63549937                0.50905040
              14.15420956               -2.56327334               41.89187274                0.98274220                1.26259070                1.00581335               -3.63610125               -0.19073481               -2.06864125                1.07108581
              15.16648219               -3.14150222               41.64402502                1.00000000                1.22726347                1.24679454               -4.25411460               -0.16469281               -1.61454623               -1.60254850
               5.68673414                3.58208154               43.86287186                1.00000000               -0.54164223               -0.73906892                2.22112777               -0.05416923                0.32431692                2.42234506
               6.68131772                3.06098712               43.60921002                0.55969674               -0.39418189               -0.40896461                1.52742845               -0.07136935                1.19694488               -1.60168323
               7.67885050                2.53718581               43.37310747                0.11979793                0.23052557               -0.06942529                0.99724961               -0.82427546                3.42831486               -3.91330382
               8.68592823                1.99807673               43.16391518                0.00010000                1.07072863               -0.38183480                0.38855995               -1.98788827                5.71824504               -2.68180269
               9.70026507                1.43213638               42.97303314                0.00010000                1.44190646               -0.81864365               -0.25614333               -3.17350354                7.85521101               -0.42376677
              10.71476636                0.83631570               42.80592235                0.00010000                1.07790578               -0.38129095               -0.96862222               -3.88809583                9.18088569                0.50780499
              11.72182319                0.22557716               42.64077947                0.00010000                0.43073858                0.24820464               -1.66176713               -3.57410128                8.31211887                1.33063798
              12.72338113               -0.38000311               42.45529700                0.10367698                0.20393020                0.40424826               -2.26448168               -2.29176453                6.24115814                3.13002092
              13.72590179               -0.97209902               42.24789092                0.33907258                0.46782465                0.54245498               -2.81161192               -0.92559083                4.46937333                3.91521521
              14.73273762               -1.55321521               42.02647643                0.69343541                0.85811741                0.88771714               -3.30174874               -0.27226066                2.54485795                2.21054820
              15.74306414               -2.12903427               41.78011447                0.99222854                1.03265197                1.28000789               -3.87404348               -0.14034768                1.34353032               -2.11834107
               6.20551483                4.57482640               43.76912512                0.91708789               -0.45452915               -0.70857394                1.93624862               -0.08643324                0.32302625                2.73923719
               7.20096954                4.05768036               43.49004649                0.40160949               -0.41154589               -0.23845589                1.13520730               -0.10739775                1.56689998               -2.46783912
               8.19728391                3.53838903               43.23593193                0.01484788                0.14966036                0.32439225                0.49378303               -1.58079455                7.13558109               -8.07607094
               9.20396274                2.99168608               43.06833277                0.00010000                1.22399707               -0.81490108                0.19687400               -4.12694742               13.93547580               -4.13388269
              10.22176385                2.41489792               42.94894156                0.00010000                1.88988065               -1.38752505               -0.55374094               -5.96424154               16.20613119               -1.06524073
              11.24176036                1.82580502               42.82563596                0.00010000                1.90915777               -1.05397253               -1.11757708               -6.70178033               16.10953030                0.97551035
              12.25994701                1.22561740               42.70291739                0.00010000                1.85353683               -0.40112018               -1.63594198               -6.57209931               16.23711872                2.88600434
              13.27883109                0.62120131               42.58062467                0.01750752                1.79918232               -0.16935097               -2.15028553               -4.96032365               14.19245998                5.63971072
              14.29593065                0.03021771               42.41565720                0.16794552                1.34342484               -0.88326977               -2.31912347               -2.17909683                8.82178263                9.82388848
              15.30569959               -0.54551900               42.18285338                0.40467617                0.96913565                0.36717477               -2.87225110               -0.68695777                3.20308631                3.81720473
              16.31531337               -1.11590206               41.90471140                0.80059155                0.96137764                1.68088077               -3.60723895               -0.53301208                0.97135361               -2.41474762
               6.71929755                5.56791006               43.67447011                0.90274110               -0.36904159               -0.64409415                1.70310799               -0.06018431                0.05902462                2.65196552
               7.71560713                5.05621800               43.36744707                0.38139545               -0.30343280               -0.10344858                0.76513982               -0.01397977                0.54154546               -2.52788143
               8.71322889                4.54367366               43.07018568                0.00527393                0.56366292                0.53470481               -0.10913287               -2.37526122               12.09137596               -8.63934395
               9.72688039                3.98177871               42.99414691                0.00010000                1.68162054               -0.65943473               -0.44270064               -4.98910845               23.17177859               -3.80229132
              10.74686130                3.40438588               42.91714509                0.00010000                2.15654391               -0.91052574               -0.84437323               -6.03219442               23.48764782               -1.47909513
              11.77001127                2.81523625               42.84563628                0.00010000                2.40618027               -1.04321363               -1.26136696               -6.65474101               23.89282808                0.99364052
              12.79498491                2.21755475               42.77450021                0.00010000                2.47815384               -0.95578156               -1.61783725               -6.64110280               23.87642713                3.42721763
              13.81957435                1.61660987               42.70032386                0.02138775                2.70276277               -0.88458263               -1.87631058               -6.38973762               24.25681659                5.88911081
              14.84904016                1.01023558               42.63413740                0.16984611                2.27719417               -1.84801013               -2.01624806               -3.29690720               13.84613458               10.63648948
              15.86511823                0.45412829               42.34899881                0.39800518                1.20649284               -0.00321366               -2.43808583               -0.30914132                1.51137559                3.71694322
              16.87317002               -0.09541666               42.03403515                0.79308319                0.80517917                1.94310581               -3.28080905               -0.11178698                0.06626045               -2.22755365
               7.22769527                6.56194452               43.57922857                0.89298565               -0.27689190               -0.54871743                1.45328465               -0.05632550                0.05437683                2.64016554
               8.22492635                6.05561139               43.24700968                0.36851020               -0.17386432               -0.01851779                0.40773452                0.02564041                0.36289681               -2.37804854
               9.22421798                5.54908312               42.92103760                0.00010000                0.92710057                0.55855816               -0.59051175               -3.03061623               16.13867198               -7.53133901
              10.24346836                4.97849738               42.90420255                0.00010000                2.17222201               -0.17446738               -0.87661109               -6.21811253               31.58022966               -4.50636563
              11.26766242                4.39668740               42.88501618                0.00010000                2.60141510               -0.67403635               -1.15150415               -6.84193385               31.58791485               -1.57073334
              12.29549666                3.80494075               42.86595192                0.00010000                2.90444599               -1.03368113               -1.40237629               -7.22796394               31.77241927                1.00850041
              13.32575134                3.20650177               42.84766604                0.00010000                3.14294271               -1.24668437               -1.59591688               -7.29834282               32.06374508                3.54233817
              14.35835551                2.60350966               42.83138191                0.02691862                3.33613741               -1.45080537               -1.70046603               -7.31464711               32.52431582                6.25254797
              15.39247409                1.99325750               42.81920284                0.17790449                2.34067425               -1.49870570               -1.62324071               -3.90655565               17.75821844                8.41032020
              16.40516900                1.45441673               42.50403976                0.40916128                0.98467143                0.08096936               -2.03819491               -0.29127618                1.36015800                2.84248528
              17.41216752                0.92296006               42.16176971                0.79975094                0.69985165                1.67854545               -2.97379160               -0.02435750                0.04574049               -2.54355642
               7.73083729                7.55693572               43.48462968                0.88335393               -0.18559577               -0.45455428                1.20535725               -0.05483860                0.05330967                2.67726020
               8.72898133                7.05584765               43.12740371                0.35591401               -0.05533584                0.06832203                0.04765750                0.04063169                0.39216486               -2.30549735
               9.72973057                6.55484482               42.77699708                0.00010000                1.29662652                0.60958844               -1.04788743               -3.58925096               20.17570060               -7.18007682
              10.75491386                5.97828936               42.81522688                0.00010000                2.69243457                0.08594167               -1.25401576               -7.30275701               39.63599414               -4.37056223
              11.78357927                5.39090515               42.85123594                0.00010000                3.03618814               -0.49962645               -1.41895716               -7.83963640               39.63554650               -1.62173405
              12.81563763                4.79456263               42.88633224                0.00010000                3.34349367               -1.04195033               -1.53724082               -8.17192506               39.77886489                1.00818351
              13.85044914                4.19262107               42.92176699                0.00010000                3.54440199               -1.45309588               -1.58685821               -8.24844718               40.04481942                3.55510832
              14.88652567                3.58759376               42.95857964                0.03247009                3.47764206               -1.61213462               -1.53558340               -8.30749261               40.21353355                5.98517421
              15.92000198                2.98026147               42.99380452                0.18603732                2.15322423               -1.16099517               -1.16919587               -4.46556318               21.52891575                7.66929529
              16.92959015                2.45574768               42.65296122                0.42060280                0.77971170                0.14697844               -1.64686885               -0.27361818                1.42113399                2.34651235
              17.93559621                1.93815425               42.28408453                0.80668733                0.60060636                1.38738620               -2.68650970               -0.02274982                0.05933999               -2.96186355
               8.22877463                8.55285343               43.39040711                0.87371836               -0.09447578               -0.36266807                0.95717078               -0.05382391                0.05537848                2.68893531
               9.22782987                8.05697783               43.00837456                0.34333170                0.06083067                0.15907236               -0.31205231                0.04590139                0.46165589               -2.25795875
              10.22999124                7.56127489               42.63447047                0.00010000                1.67615086                0.68279067               -1.49878117               -4.07227204               24.22853336               -7.04065803
              11.26135289                6.98021622               42.72747408                0.00010000                3.23025887                0.28820639               -1.60624156               -8.27933020               47.61879772               -4.21946982
              12.29459642                6.38669487               42.81779550                0.00010000                3.44946758               -0.36391145               -1.66225235               -8.83895913               47.60533521               -1.55010301
              13.33034224                5.78410174               42.90659146                0.00010000                3.65774228               -1.03653306               -1.66188720               -9.13803198               47.72917648                0.99340182
              14.36775127                5.17743985               42.99520821                0.00010000                3.71115096               -1.53555036               -1.58454897               -9.14750315               47.95213744                3.48138353
              15.40456526                4.57126697               43.08426683                0.03818803                3.36288191               -1.63879972               -1.39263293               -8.94074398               47.72751650                5.91927978
              16.43500891                3.97003760               43.16447840                0.19428283                1.86192932               -0.92482039               -0.68547327               -4.69290610               25.15264770                7.36024926
              17.44180385                3.45735630               42.79788815                0.43217615                0.59452292                0.15023243               -1.25928857               -0.23392110                1.46708941                2.05721839
              18.44689936                2.95070778               42.40265211                0.81366134                0.50955164                1.14106465               -2.40976321               -0.02221954                0.07427193               -3.21045984
               8.72151201                9.54968235               43.29628858                0.86418016               -0.00341135               -0.27204280                0.70798139               -0.05328202                0.05608616                2.67056400
               9.72147790                9.05902909               42.88961799                0.33083722                0.17673671                0.25240447               -0.67175085                0.04412632                0.54958676               -2.23286554
              10.72504675                8.56850064               42.49277897                0.00010000                2.12146906                0.76098452               -1.94522737               -4.50356258               28.31863703               -6.92707583
              11.76390728                7.98405349               42.64109600                0.00010000                3.89339077                0.41733235               -1.94051105               -9.02184248               55.59039574               -3.98509798
              12.80291456                7.38362692               42.78522077                0.00010000                3.91123655               -0.34372646               -1.88510091               -9.51358926               55.48969421               -1.41125465
              13.84213201                6.77383197               42.92663248                0.00010000                3.87096430               -1.01738544               -1.77636034               -9.64171787               55.59504458                0.93475993
              14.88033385                6.16191006               43.06782131                0.00010000                3.64905117               -1.48265304               -1.59331199               -9.60667215               55.87269001                3.30512576
              15.91511303                5.55481776               43.20997674                0.04410488                2.98603389               -1.60747499               -1.29252926               -9.12163598               55.17670272                5.88452801
              16.94005453                4.96176506               43.33309754                0.20264961                1.45642556               -0.75136052               -0.18115221               -4.70210129               28.64664348                7.18321989
              17.94424155                4.45875232               42.94056065                0.44374337                0.41971651                0.11395045               -0.87026008               -0.19701917                1.49361332                1.93158236
              18.94844886                3.96097555               42.51911907                0.82065923                0.42073101                0.92438157               -2.13552788               -0.02447307                0.08756407               -3.29627718
               9.20901551               10.54741257               43.20190967                0.85460343                0.08786071               -0.18260809                0.45668979               -0.05326968                0.06882670                2.64825010
              10.20989412               10.06202592               42.77092131                0.31848497                0.29400429                0.34880374               -1.03175001                0.03047448                0.67722126               -2.25854702
              11.21489560                9.57649458               42.35202049                0.00010000                2.79478189                0.82506169               -2.38380575               -4.95632256               32.53706588               -6.61092075
              12.26578976                8.98856286               42.55772896                0.00010000                4.98252796                0.17481681               -2.25042581               -9.39021185               63.60411438               -3.39563630
              13.31454616                8.37982034               42.75455573                0.00010000                4.67174952               -0.72646531               -2.08080108               -9.07916764               63.19055359               -1.12816132
              14.35922475                7.76375403               42.94589420                0.00010000                4.00429367               -0.97631156               -1.87498016               -8.84119800               63.25364938                0.76454655
              15.39463203                7.14778679               43.13787090                0.00010000                3.15263976               -1.08280628               -1.61548274               -8.96544925               63.80471067                2.77723619
              16.42227754                6.53911747               43.33479084                0.05013999                2.12001448               -1.28787961               -1.25610475               -8.77681996               62.68946872                5.43744275
              17.43703232                5.95501039               43.50023610                0.21114101                0.81877170               -0.59571767                0.33796616               -4.62258287               32.13055519                6.81652423
              18.43865298                5.45963531               43.08237523                0.45534872                0.24655697                0.05262384               -0.47523725               -0.18505014                1.55232658                1.97686472
              19.44196346                4.96919541               42.63504838                0.82766186                0.33104830                0.72795268               -1.85727580               -0.02913031                0.11764627               -3.26275834
               9.69121993               11.54603019               43.10751980                0.84503314                0.17854523               -0.09461408                0.20576805               -0.05308603               -0.02094975                2.29404176
              10.69300538               11.06600517               42.65140786                0.30617553                0.40817116                0.44702528               -1.39570349               -0.00773093                1.02548025               -2.03293500
              11.69938335               10.58500187               42.21610265                0.00010000                3.98859515                0.83216441               -2.79605712               -5.68030626               37.21240208               -4.91877034
              12.77277728                9.98754983               42.48310882                0.00010000                7.33783466               -1.58076114               -2.51088102               -7.54102156               71.59466564               -2.01315938
              13.84614004                9.36909761               42.72811779                0.00010000                6.22821620               -1.37785916               -2.23408826               -6.24668918               70.39752705               -0.64696075
              14.89734161                8.75430574               42.96315851                0.00010000                3.97606910               -0.89880423               -1.94461710               -5.56581137               70.36175253                0.43867072
              15.92566143                8.14025393               43.20034417                0.00010000                1.75057128               -0.34462650               -1.63061047               -6.06646163               71.47232435                1.64423475
              16.93235303                7.52906017               43.45154873                0.05643326                0.07118006                0.12100268               -1.29633650               -6.52381672               70.32572974                3.60417618
              17.92708503                6.94985070               43.66132893                0.21983289               -0.29987571               -0.34606087                0.84215306               -4.49546784               36.05946188                4.85964738
              18.92635552                6.45980480               43.22530619                0.46699300                0.08305050               -0.02286558               -0.06764289               -0.22014545                1.91152206                1.84123697
              19.92874604                5.97553460               42.75124122                0.83460922                0.23905187                0.55353442               -1.57222188               -0.04160809                0.04686181               -2.70625941
              10.16800384               12.54552029               43.00619732                0.91936540                0.27639849               -0.05098989               -0.07229405                0.22300433                1.05984596                1.94206331
              11.17076782               12.07096643               42.53690617                0.64912227                0.58704886                0.49612572               -1.73491771                0.15712325                3.12190722               -1.76336950
              12.17974482               11.59313787               42.10868873                0.48543402                8.00528787                0.81360023               -3.08511968               -7.66479272               42.61890649               -3.48488638
              13.33087358               10.95694764               42.42808225                0.44725024               12.15558225               -3.06021838               -2.68092119               -6.23410580               78.64259969               -1.17141222
              14.42285646               10.35226316               42.70842785                0.43719149                7.29393100               -1.68344540               -2.32798623               -2.88684319               76.55414789               -0.40634865
              15.47675220                9.74577795               42.97709237                0.44754646                3.78459517               -0.85277935               -1.97343914               -2.62738579               76.48176127                0.19326488
              16.49854836                9.14089426               43.24858242                0.47762323                0.27261175                0.06403240               -1.60520856               -2.92332745               77.92744121                0.86825793
              17.48220444                8.54153752               43.53991918                0.53037529               -4.10850152                1.24773479               -1.27605374               -4.65511392               77.04653430                2.14707059
              18.41637833                7.94808917               43.78878767                0.61280356               -3.68191321               -0.17615328                1.17775064               -5.18864556               41.23863563                3.25412698
              19.40856617                7.45917800               43.36377155                0.73730656               -0.33533168               -0.06268057                0.32302765               -0.17008816                4.43508970                1.64799511
              20.40967170                6.98026610               42.87736383                0.91951765                0.11055283                0.47315017               -1.23889240                0.20137691                1.39782448               -2.16451087
               5.39888171                2.71321108               44.98956939                1.00000000               -0.70685295               -0.76669904                2.58644028               -0.14752798               -1.85590359                2.11597585
               6.39181318                2.16338064               44.73339206                0.84313348               -0.69666490               -0.49083788                1.91180112               -0.11462005               -2.40765908               -0.99614580
               7.38494841                1.61101790               44.46650421                0.60595622               -0.96797339               -0.26195885                1.14579915               -0.53852880               -2.20102181               -1.13576980
               8.37245371                1.04377380               44.21491058                0.49830178               -1.39537133               -0.11855163                0.43862337               -0.70334808               -0.16222977               -0.24748184
               9.35704098                0.44846428               43.98935237                0.44822876               -1.30511077                0.10008498               -0.31811633               -0.61541588                2.18069216               -0.20367261
              10.34635149               -0.17702819               43.78496489                0.44736384               -0.43907083                0.30997803               -1.11717919               -0.35082477                3.31263728                0.00416798
              11.34825957               -0.81801437               43.58239693                0.49381776                0.68607165                0.52060309               -1.88697195               -0.33773240                2.40396048                0.19687760
              12.36007293               -1.45437559               43.36039737                0.59028810                1.31360207                0.72314277               -2.57405159               -0.41777935                0.31092073                0.32504274
              13.37453161               -2.07719211               43.11621689                0.74401241                1.39805225                0.89510787               -3.20833758               -0.35331223               -1.65434075                0.50366052
              14.38803397               -2.68882555               42.85448488                0.96757311                1.32846771                1.06768346               -3.85032237               -0.19709546               -2.10691505                1.07301028
              15.40110096               -3.29583983               42.60015500                1.00000000                1.30669893                1.32517383               -4.52431184               -0.18147876               -1.65926174               -1.64757467
               5.94723687                3.70554409               44.88517077                0.99301347               -0.54733036               -0.75020578                2.24693832               -0.05495454                0.36074854                2.48981292
               6.94176357                3.15847226               44.62454252                0.54124770               -0.39351654               -0.41010960                1.54815962               -0.08134966                1.31244554               -1.71770275
               7.93936654                2.60839831               44.38312764                0.11350882                0.24667354               -0.05880251                1.00697460               -0.86081935                3.58142565               -4.08491439
               8.94669704                2.04258828               44.16774267                0.00010000                1.09606396               -0.41381291                0.37761981               -2.02362862                5.80439266               -2.76434579
               9.96128782                1.44946513               43.97031637                0.00010000                1.46927681               -0.81846395               -0.28638796               -3.21899108                7.87506255               -0.59698497
              10.97608257                0.82607159               43.79598036                0.00010000                1.11340623               -0.38440698               -1.01760875               -3.94236115                9.15799564                0.38163602
              11.98355594                0.18719166               43.62380942                0.00010000                0.47007165                0.24623440               -1.72928441               -3.64086284                8.33110995                1.27034938
              12.98548400               -0.44714416               43.43220454                0.09786517                0.23337605                0.42586490               -2.35177635               -2.36867596                6.32982415                3.09105858
              13.98822346               -1.06824103               43.21925658                0.32671917                0.49514360                0.56675851               -2.92288160               -0.93942349                4.60796713                4.03676034
              14.99538688               -1.67814871               42.99264304                0.66985022                0.90384983                0.93361653               -3.47034931               -0.27224925                2.67716345                2.28040571
              16.00630046               -2.28258809               42.74034134                0.97568210                1.09135822                1.34650581               -4.08734161               -0.15327029                1.45062167               -2.19391122
               6.49192628                4.69820696               44.78860326                0.90379525               -0.45943175               -0.71783447                1.97416765               -0.08629646                0.34732327                2.84923615
               7.48733196                4.15517844               44.50136957                0.38678537               -0.41551414               -0.23765315                1.13356151               -0.11569599                1.67304215               -2.59081036
               8.48361599                3.60984185               44.24083003                0.01110355                0.17911771                0.35365945                0.48563081               -1.67948215                7.49491598               -8.48799173
               9.49091431                3.03549754               44.07010787                0.00010000                1.27809289               -0.82347389                0.15397758               -4.23622595               14.23124216               -4.50918552
              10.50917785                2.43209501               43.94311295                0.00010000                1.94317141               -1.39935834               -0.61228433               -6.04945825               16.35465956               -1.39807937
              11.52977774                1.81528367               43.81406906                0.00010000                1.97401051               -1.07385958               -1.19620646               -6.82879823               16.35739760                0.72274512
              12.54865806                1.18691032               43.68607983                0.00010000                1.91771807               -0.42303381               -1.73237902               -6.69772459               16.49886053                2.74201835
              13.56813210                0.55414171               43.55859549                0.01395287                1.90448122               -0.18648867               -2.25725841               -5.08339144               14.62568671                5.61852937
              14.58674769               -0.06585694               43.39205216                0.16017458                1.44019719               -0.90307018               -2.39845625               -2.26104745                9.23350104                9.94646489
              15.59693605               -0.67015322               43.15372675                0.38891550                1.00833165                0.36284188               -2.96326221               -0.70039420                3.32384576                3.92602584
              16.60691432               -1.26890972               42.86808380                0.78928928                0.99782723                1.71561088               -3.73737202               -0.54041481                0.99862015               -2.51809800
               7.03156798                5.69118740               44.69169153                0.88996524               -0.37532192               -0.65632404                1.74462759               -0.05907148                0.05476470                2.77968675
               8.02781476                5.15371919               44.37510500                0.36749884               -0.30550902               -0.10360901                0.76718640               -0.00886982                0.56873878               -2.63842008
               9.02545780                4.61547150               44.06893962                0.00196515                0.59523019                0.56231931               -0.14093812               -2.44896858               12.42552319               -9.04350733
              10.03971936                4.02611881               43.98942572                0.00010000                1.75273626               -0.61447286               -0.50253686               -5.12384464               23.73031311               -4.29204229
              11.06051252                3.42147797               43.90829111                0.00010000                2.24859656               -0.91086923               -0.92846636               -6.14934018               23.98907925               -1.81216894
              12.08469129                2.80459440               43.83251019                0.00010000                2.51154458               -1.05005876               -1.36671368               -6.78433113               24.40009746                0.74597942
              13.11074341                2.17873099               43.75772537                0.00010000                2.59460727               -0.96612159               -1.74165030               -6.78081167               24.44799221                3.27947146
              14.13658344                1.54912607               43.68091660                0.01783725                2.82770122               -0.91005038               -2.01219531               -6.53045614               24.91857317                5.88896975
              15.16729744                0.91369756               43.61317804                0.16219061                2.39241647               -1.88534549               -2.18455188               -3.42157780               14.42376318               10.71223773
              16.18443177                0.32910813               43.32417739                0.38303357                1.28538630               -0.03145007               -2.52759726               -0.33787674                1.74304572                3.78688557
              17.19300516               -0.24827588               43.00062026                0.78243150                0.85733964                1.96260212               -3.40842257               -0.10425036                0.06975571               -2.34743189
               7.56568126                6.68508048               44.59394526                0.88059346               -0.28107953               -0.56265356                1.49278622               -0.05661008                0.05556943                2.75760607
               8.56287046                6.15310626               44.25106018                0.35504282               -0.17221230               -0.01767523                0.40166160                0.03488098                0.38833713               -2.48842460
               9.56223701                5.62108824               43.91492780                0.00010000                0.97802465                0.57857927               -0.63347654               -3.09938386               16.54737509               -7.86332199
              10.58243095                5.02320808               43.89506142                0.00010000                2.27392219               -0.14177919               -0.95345649               -6.35396258               32.33542801               -4.86103085
              11.60771545                4.41387762               43.87299369                0.00010000                2.72035732               -0.65990015               -1.25620828               -6.97359994               32.34254477               -1.88544327
              12.63683810                3.79428250               43.85131490                0.00010000                3.03973552               -1.03076347               -1.53038383               -7.36778048               32.54791856                0.77302682
              13.66851016                3.16758789               43.83101361                0.00010000                3.28591519               -1.24882134               -1.74289974               -7.44833625               32.89255079                3.39768648
              14.70255640                2.53594070               43.81362015                0.02315793                3.49119526               -1.45177231               -1.86405444               -7.49282597               33.46068262                6.20996340
              15.73833407                1.89643615               43.80201286                0.16999682                2.47977741               -1.52218878               -1.83102358               -4.03889617               18.54329294                8.59166949
              16.75215195                1.32921778               43.48316647                0.39380367                1.06316237                0.07601499               -2.13972512               -0.33281895                1.65322399                2.88856358
              17.75959732                0.77034233               43.13139348                0.78886881                0.74453648                1.70800233               -3.10939282               -0.02236386                0.05508981               -2.69671199
               8.09438421                7.67993433               44.49685227                0.87126363               -0.18795888               -0.46761511                1.24105813               -0.05550145                0.05472275                2.79508582
               9.09250462                7.15336569               44.12780883                0.34283895               -0.05079568                0.07215127                0.03247102                0.04996618                0.42656147               -2.41730612
              10.09336830                6.62704309               43.76625575                0.00010000                1.36730513                0.63016629               -1.10263539               -3.66197700               20.68998122               -7.49893131
              11.11985072                6.02328322               43.80223947                0.00010000                2.82989065                0.11206567               -1.34613411               -7.45355020               40.59697249               -4.67930255
              12.14996611                5.40827996               43.83646095                0.00010000                3.18873452               -0.48220124               -1.54068780               -7.99015979               40.62025731               -1.89442030
              13.18362542                4.78397913               43.87027379                0.00010000                3.50761869               -1.03361194               -1.68204467               -8.32180945               40.79912061                0.79475784
              14.22011848                4.15375456               43.90514760                0.00010000                3.71266212               -1.44643566               -1.74860681               -8.40423798               41.12801397                3.41801729
              15.25787866                3.52009062               43.94244487                0.02856002                3.65619740               -1.60147206               -1.70830793               -8.50328991               41.47301942                5.94765268
              16.29324243                2.88325379               43.98108318                0.17791321                2.29952763               -1.17352119               -1.39468108               -4.61794452               22.53142181                7.91202473
              17.30386921                2.33062843               43.63595770                0.40486715                0.85331837                0.16274740               -1.75912680               -0.31781319                1.73970976                2.38842708
              18.31030880                1.78588417               43.25653862                0.79557844                0.64395891                1.42572500               -2.83197357               -0.01987325                0.07181024               -3.13798190
               8.61770850                8.67572818               44.40012861                0.86202254               -0.09474771               -0.37423634                0.98847411               -0.05485443                0.05681055                2.80554140
               9.61676102                8.15454929               44.00513211                0.33068780                0.06857171                0.16615223               -0.33738265                0.05441883                0.50718575               -2.36926822
              10.61907994                7.63369156               43.61915189                0.00010000                1.76810230                0.70650758               -1.56641046               -4.15329951               24.86072813               -7.35349757
              11.65212307                7.02544940               43.71090052                0.00010000                3.40682063                0.30916415               -1.71187069               -8.44635410               48.79614492               -4.50009758
              12.68721635                6.40423360               43.80052865                0.00010000                3.64021222               -0.35282882               -1.79688664               -9.00472048               48.81497836               -1.78764037
              13.72492732                5.77361026               43.88924498                0.00010000                3.85487839               -1.03225578               -1.81676741               -9.29374445               48.98308056                0.80861537
              14.76431392                5.13865918               43.97860573                0.00010000                3.90320310               -1.53003039               -1.75006302               -9.30004955               49.28145025                3.35795713
              15.80299138                4.50391126               44.06961905                0.03417104                3.55617273               -1.62339262               -1.55689100               -9.14945567               49.33577988                5.87154100
              16.83543737                3.87296573               44.15656737                0.18592951                2.00869640               -0.92671302               -0.91949068               -4.85759264               26.38702874                7.64118328
              17.84316531                3.33247273               43.78473612                0.41601563                0.66254954                0.17783034               -1.37849749               -0.27237096                1.79601018                2.10340333
              18.84868836                2.79885683               43.37783743                0.80230983                0.55230570                1.18524342               -2.56349975               -0.01895600                0.08890214               -3.39472208
               9.13564490                9.67244960               44.30349444                0.85274266               -0.00152874               -0.28194881                0.73431495               -0.05448585                0.05776977                2.78501247
              10.13562962                9.15668873               43.88272691                0.31859116                0.18786471                0.26311327               -0.70755964                0.05110964                0.60841889               -2.34364791
              11.13940220                8.64117324               43.47293589                0.00010000                2.23759963                0.78791867               -2.02492963               -4.59916684               29.07730578               -7.23201517
              12.18038161                8.02946651               43.62112447                0.00010000                4.11543216                0.42847751               -2.05732696               -9.20911359               56.99231080               -4.23726395
              13.22171084                7.40122339               43.76568476                0.00010000                4.14716692               -0.34963771               -2.02858891               -9.68919423               56.92168882               -1.61067739
              14.26332495                6.76333402               43.90812853                0.00010000                4.10528253               -1.02917545               -1.93487256               -9.79111502               57.06996081                0.78340363
              15.30381649                6.12315395               44.05116875                0.00010000                3.86290238               -1.48713853               -1.75249334               -9.74109560               57.42720353                3.19374601
              16.34058299                5.48762277               44.19645334                0.03985773                3.18563083               -1.59496505               -1.43391030               -9.32696685               57.15401095                5.80577186
              17.36752911                4.86471953               44.33024501                0.19401282                1.59738475               -0.74402362               -0.41343652               -4.87138241               30.13846734                7.49394945
              18.37253069                4.33418503               43.93129618                0.42721186                0.48161903                0.14712756               -0.99150149               -0.22823224                1.82460607                1.98851440
              19.37716149                3.80958904               43.49702495                0.80905889                0.46307990                0.97193834               -2.29481187               -0.02114250                0.10441702               -3.47723843
               9.64814052               10.67008920               44.20657881                0.84346258                0.09190626               -0.19082772                0.47806901               -0.05451577                0.07111736                2.76133574
              10.64905958               10.15981155               43.76037767                0.30659200                0.30891551                0.36329051               -1.07824681                0.03441735                0.75343100               -2.37054880
              11.65431883                9.64944994               43.32774088                0.00010000                2.94155343                0.85176820               -2.47362647               -5.07696503               33.43414342               -6.89781992
              12.70789065                9.03401895               43.53461389                0.00010000                5.26230631                0.16148655               -2.37600804               -9.60160990               65.23835548               -3.60323793
              13.75956495                8.39724084               43.73303679                0.00010000                4.96419011               -0.76522557               -2.22970386               -9.24732975               64.83825592               -1.27778508
              14.80717445                7.75302675               43.92640918                0.00010000                4.28191501               -1.01340602               -2.03268127               -8.96315552               64.92698736                0.65575776
              15.84520325                7.10891640               44.12106191                0.00010000                3.38560069               -1.10590398               -1.76179477               -9.05863618               65.54535435                2.68499662
              16.87488646                6.47201196               44.32179270                0.04573580                2.31221013               -1.28480829               -1.36370888               -8.94206973               65.05262453                5.30947159
              17.89144746                5.85808525               44.50263323                0.20227104                0.94223422               -0.57412187                0.11550104               -4.79048070               33.91780029                7.13764140
              18.89373115                5.33541528               44.07707597                0.43847117                0.30050215                0.08717894               -0.59390218               -0.21214624                1.88123372                2.05097914
              19.89745750                4.81829559               43.61572343                0.81580993                0.37263507                0.77680528               -2.01873591               -0.02656760                0.13650297               -3.43298773
              10.15510989               11.66863305               44.10965652                0.83415406                0.18473449               -0.10112091                0.22234546               -0.05430772               -0.02385100                2.39303992
              11.15695723               11.16395454               43.63717348                0.29468889                0.42728084                0.46498387               -1.45282581               -0.01115339                1.13091481               -2.13300203
              12.16365550               10.65820860               43.18765864                0.00010000                4.18006367                0.84819803               -2.89458727               -5.83363980               38.27388195               -5.12938612
              13.24055850               10.03269624               43.45735758                0.00010000                7.70504713               -1.65977036               -2.64233706               -7.72677954               73.46491176               -2.14129985
              14.31775644                9.38591888               43.70504862                0.00010000                6.59138849               -1.45200614               -2.38619530               -6.36469826               72.23806776               -0.72786267
              15.37238627                8.74306590               43.94298490                0.00010000                4.29510565               -0.96024495               -2.10030876               -5.63351143               72.20296786                0.38301877
              16.40365856                8.10103587               44.18343941                0.00010000                2.00932391               -0.39120490               -1.76465915               -6.10379744               73.33575264                1.59071335
              17.41257275                7.46192660               44.43830542                0.05192386                0.23288063                0.10122222               -1.36928708               -6.61121834               73.06115121                3.48229986
              18.40831617                6.85323709               44.66883758                0.21069700               -0.22476639               -0.28832848                0.63405673               -4.62085312               38.19017148                5.09728988
              19.40807742                6.33592861               44.22411931                0.44970333                0.12766718                0.01051704               -0.17875412               -0.25241752                2.25084538                1.92103818
              20.41086951                5.82512514               43.73477166                0.82249061                0.27920903                0.60196572               -1.73208187               -0.04101762                0.06276407               -2.84135460
              10.65641137               12.66806678               44.00552656                0.91403491                0.28495899               -0.05662608               -0.06136420                0.23459276                1.10319975                2.02686201
              11.65926096               12.16911123               43.51923746                0.64357595                0.62464866                0.51566875               -1.80093555                0.14772813                3.33163727               -1.84944477
              12.66890434               11.66641390               43.07733989                0.48437882                8.31919135                0.82052942               -3.18596855               -7.88950079               43.88222362               -3.63644816
              13.82564478               11.00082354               43.40061212                0.44721877               12.64984951               -3.18726951               -2.81562957               -6.40203092               80.68562793               -1.22965074
              14.92190133               10.36820072               43.68440491                0.43731616                7.68712216               -1.77181576               -2.48223408               -2.93559607               78.53466831               -0.43844539
              15.97938723                9.73382185               43.95662304                0.44730777                4.11826352               -0.92440450               -2.12963767               -2.65532534               78.45485873                0.17412444
              17.00426660                9.10109231               44.23193800                0.47662671                0.55368269                0.00564342               -1.73617416               -2.92846813               79.89645419                0.84705576
              17.99046088                8.47403640               44.52693628                0.52805477               -3.96191083                1.21098029               -1.33506761               -4.64986834               80.02507530                2.05520484
              18.92502838                7.85231868               44.79968123                0.60819274               -3.68330678               -0.09184072                0.97666945               -5.24931773               43.69439008                3.42410912
              19.91679474                7.33562562               44.36654270                0.72852929               -0.33921510               -0.03029883                0.22331470               -0.22745670                4.89731074                1.72560595
              20.91824408                6.83033491               43.86426202                0.91340071                0.14493370                0.52097634               -1.39048082                0.20838520                1.47708915               -2.26840145
               5.63964597                2.84072454               46.01573972                1.00000000               -0.72327778               -0.78805980                2.64828025               -0.15290932               -1.90542019                2.15927025
               6.63241319                2.26363581               45.75267244                0.83225852               -0.71629496               -0.49802569                1.94488797               -0.12580674               -2.50196601               -1.08828136
               7.62532007                1.68381528               45.47800121                0.60165995               -0.99174383               -0.26535676                1.15293693               -0.55046340               -2.30978009               -1.12104424
               8.61257832                1.08870895               45.21920494                0.49700347               -1.41438202               -0.11164292                0.41838534               -0.70239328               -0.26023468               -0.26123248
               9.59703243                0.46526934               44.98595154                0.44807939               -1.32035378                0.11667565               -0.36393574               -0.61166400                2.04525715               -0.21162518
              10.58617124               -0.18851674               44.77345412                0.44710952               -0.46377454                0.33609960               -1.18827505               -0.34897459                3.17418064               -0.00088845
              11.58775694               -0.85823411               44.56306252                0.49233799                0.66087089                0.55353648               -1.98495706               -0.32759463                2.31581903                0.19659257
              12.59938866               -1.52399715               44.33405311                0.58624565                1.31495542                0.76170851               -2.70404614               -0.40599374                0.27955290                0.33023589
              13.61405605               -2.17663756               44.08332836                0.73567393                1.43722451                0.94384787               -3.38105651               -0.34995549               -1.67232300                0.49646025
              14.62813315               -2.81812944               43.81486629                0.95242747                1.39503400                1.12804854               -4.07720292               -0.20314312               -2.14422180                1.07519411
              15.64195673               -3.45482639               43.55353879                1.00000000                1.38235800                1.39850945               -4.79995221               -0.19737058               -1.71030359               -1.67583706
               6.21520561                3.83284394               45.90781063                0.97764138               -0.55958539               -0.77170846                2.29856933               -0.05470455                0.42205308                2.57409794
               7.20960976                3.25865555               45.64017322                0.52274434               -0.39633725               -0.41670656                1.58549408               -0.09459077                1.44371990               -1.84558481
               8.20727886                2.68116171               45.39324696                0.10718801                0.26087983               -0.04990309                1.01711511               -0.89695820                3.74264372               -4.26686876
               9.21482735                2.08759252               45.17146758                0.00010000                1.11248874               -0.44448165                0.36719929               -2.04996328                5.89823328               -2.86967608
              10.22952864                1.46643610               44.96730538                0.00010000                1.48029358               -0.81538783               -0.31548695               -3.24424225                7.90562182               -0.79224014
              11.24443322                0.81484425               44.78557017                0.00010000                1.13462796               -0.38765859               -1.06434396               -3.96823264                9.15049410                0.22804899
              12.25222120                0.14730125               44.60619378                0.00010000                0.50486115                0.23879614               -1.79441158               -3.67917375                8.37054993                1.17858389
              13.25453045               -0.51638006               44.40826147                0.09198041                0.27007215                0.44284985               -2.44145654               -2.42582497                6.44011819                3.02141218
              14.25762264               -1.16719909               44.18943328                0.31430858                0.53328425                0.59315536               -3.04923197               -0.95277630                4.75901552                4.15491107
              15.26519613               -1.80684896               43.95706944                0.64639007                0.95286653                0.97983055               -3.64724308               -0.28152481                2.80846914                2.35278427
              16.27667997               -2.44084130               43.69836763                0.95925272                1.14838403                1.41417266               -4.30855507               -0.16848700                1.54976487               -2.26287701
               6.78692866                4.82529037               45.80860847                0.89049586               -0.47250544               -0.73410697                2.04144682               -0.08085522                0.36342260                2.98319315
               7.78220361                4.25530167               45.51271772                0.37204975               -0.42423640               -0.24482759                1.14743818               -0.11745462                1.78983346               -2.72501098
               8.77844393                3.68281722               45.24564455                0.00740174                0.20505283                0.37720141                0.47692239               -1.76712899                7.86480304               -8.92215184
               9.78630466                3.07981932               45.07141232                0.00010000                1.32259617               -0.83041031                0.10429625               -4.32739123               14.53309614               -4.91606027
              10.80489586                2.44896159               44.93669588                0.00010000                1.98183868               -1.40871681               -0.67231485               -6.10297272               16.52054608               -1.77557218
              11.82594144                1.80373009               44.80171183                0.00010000                2.02509640               -1.09671280               -1.27684124               -6.91370200               16.62197439                0.41641779
              12.84539778                1.14654181               44.66826981                0.00010000                1.97155293               -0.45454269               -1.83309147               -6.77765450               16.78572361                2.53705569
              13.86537250                0.48485985               44.53547950                0.01035597                2.00358163               -0.21276683               -2.37226930               -5.16767860               15.11889590                5.53012428
              14.88546942               -0.16477446               44.36768808                0.15235431                1.53861845               -0.91406420               -2.47962331               -2.33803439                9.70095162                9.99383582
              15.89614486               -0.79853283               44.12358814                0.37330032                1.05511256                0.36376202               -3.07319076               -0.72138432                3.45920722                4.01773195
              16.90657167               -1.42654294               43.82996396                0.77810204                1.04268036                1.75831613               -3.89514105               -0.55103938                1.02958721               -2.64595849
               7.35356589                5.81816180               45.70936267                0.87732573               -0.38320770               -0.66772340                1.79286583               -0.05787271                0.05373388                2.91346188
               8.34973381                5.25375900               45.38279080                0.35358019               -0.30736264               -0.10813038                0.77118933                0.00254370                0.60263679               -2.74811397
               9.34741864                4.68870574               45.06736692                0.00010000                0.62006719                0.58416675               -0.17232302               -2.50271853               12.77105597               -9.46824219
              10.36213516                4.07098432               44.98409618                0.00010000                1.80698897               -0.56781524               -0.56424195               -5.23188035               24.30223695               -4.80630101
              11.38355842                3.43826176               44.89857576                0.00010000                2.32219010               -0.90764438               -1.01696264               -6.23551731               24.50531624               -2.18636277
              12.40857896                2.79291000               44.81830201                0.00010000                2.59899642               -1.05462022               -1.47900678               -6.87788472               24.92441344                0.44817123
              13.43553835                2.13821040               44.73966720                0.00010000                2.69570896               -0.97542727               -1.87690974               -6.88230399               25.04170364                3.07370143
              14.46249314                1.47936460               44.66007996                0.01421475                2.93581432               -0.93395991               -2.16574592               -6.62466729               25.59677623                5.82193613
              15.49425463                0.81451963               44.59044637                0.15452284                2.50218931               -1.90198950               -2.37908087               -3.53070503               15.07303151               10.67333759
              16.51253693                0.20042628               44.29844687                0.36808225                1.37123816               -0.05297389               -2.62662043               -0.37433040                2.04672092                3.80572288
              17.52167940               -0.40567497               43.96586670                0.77187709                0.91424705                1.98251979               -3.55203573               -0.09794498                0.07642063               -2.51195470
               7.91457681                6.81193590               45.60908429                0.86818415               -0.28662707               -0.57538617                1.53734442               -0.05704743                0.05677236                2.88121096
               8.91171054                6.25313907               45.25504291                0.34160218               -0.17062853               -0.01647016                0.39500400                0.04699554                0.41908633               -2.60308022
               9.91116424                5.69450055               44.90836807                0.00010000                1.02002456                0.59681844               -0.67956824               -3.14975651               16.96847225               -8.20881677
              10.93211103                5.06846302               44.88513342                0.00010000                2.35477940               -0.10600541               -1.03379802               -6.45894492               33.10387635               -5.24205941
              11.95825983                4.43080870               44.85989201                0.00010000                2.81620378               -0.63899911               -1.36778395               -7.07168288               33.11202780               -2.23639051
              12.98843511                3.78263768               44.83534424                0.00010000                3.15186368               -1.01911433               -1.67036703               -7.47105044               33.33980148                0.49344626
              14.02129710                3.12703326               44.81280804                0.00010000                3.40674037               -1.24105539               -1.90899258               -7.55785222               33.73891129                3.20400810
              15.05656992                2.46618065               44.79410083                0.01934187                3.62482647               -1.44083435               -2.05697222               -7.61450862               34.40216816                6.11456109
              16.09379363                1.79718575               44.78258237                0.16203348                2.61414726               -1.52860886               -2.07634747               -4.14550024               19.40613091                8.70779620
              17.10885286                1.20040769               44.46124525                0.37849798                1.15108250                0.07601384               -2.25212766               -0.38431569                2.02980543                2.88433367
              18.11681528                0.61310746               44.09958185                0.77809924                0.79624217                1.73128228               -3.26318359               -0.02046402                0.06772521               -2.89490743
               8.47001861                7.80665408               45.50945084                0.85916182               -0.19095347               -0.48069061                1.28064901               -0.05609632                0.05623479                2.91790643
               9.46810907                7.25342959               45.12805313                0.32976281               -0.04595242                0.07676613                0.01585808                0.06138990                0.46736892               -2.53447393
              10.46909956                6.70064211               44.75494438                0.00010000                1.42695198                0.65121258               -1.16099853               -3.71461143               21.21836598               -7.83083855
              11.49664811                6.06886421               44.78830420                0.00010000                2.94252667                0.14331268               -1.44364622               -7.56861655               41.57280816               -5.01237245
              12.52795009                5.42548178               44.82042219                0.00010000                3.31426364               -0.45452185               -1.67218591               -8.10223990               41.62161216               -2.19840415
              13.56293339                4.77252771               44.85269134                0.00010000                3.64441204               -1.01091873               -1.84351746               -8.43004146               41.83768226                0.54596949
              14.60083833                4.11338929               44.88679485                0.00010000                3.85585453               -1.42277075               -1.93652495               -8.51353525               42.23161442                3.24534026
              15.64005048                3.45054791               44.92441348                0.02461802                3.81396265               -1.57456672               -1.91958178               -8.63462637               42.73443278                5.88107860
              16.67711759                2.78394745               44.96591090                0.16976496                2.44392150               -1.17431584               -1.66712589               -4.73812881               23.60816716                8.11515443
              17.68892891                2.20194656               44.61777868                0.38919926                0.93764967                0.18390971               -1.88535987               -0.36978229                2.14385102                2.39103258
              18.69587058                1.62895067               44.22744506                0.78454163                0.69416738                1.46097736               -2.99800526               -0.01661268                0.08723356               -3.35272366
               9.01990385                8.80232209               45.41017659                0.85024731               -0.09535426               -0.38608336                1.02271433               -0.05557730                0.05845758                2.92680887
              10.01895031                8.25467439               45.00162691                0.31796351                0.07667731                0.17404892               -0.36458639                0.06492309                0.56092022               -2.48683917
              11.02143740                7.70752480               44.60314226                0.00010000                1.84743605                0.73146194               -1.63774715               -4.21246884               25.51076007               -7.68042763
              12.05589903                7.07132927               44.69323667                0.00010000                3.55570661                0.33653162               -1.82398437               -8.57250123               49.99202630               -4.80169277
              13.09255153                6.42171826               44.78185777                0.00010000                3.80138707               -0.32882739               -1.94375399               -9.12578879               50.04580086               -2.05017231
              14.13192677                5.76241931               44.87025611                0.00010000                4.02273339               -1.00959359               -1.99217829               -9.40132810               50.26123347                0.59855728
              15.17300620                5.09857785               44.96020695                0.00010000                4.06962263               -1.50302413               -1.94713563               -9.40076121               50.64056655                3.21454339
              16.21331922                4.43468932               45.05312901                0.03008456                3.73131058               -1.58941775               -1.76721777               -9.29059496               50.94269127                5.81756639
              17.24763241                3.77369944               45.14608858                0.17751159                2.15673867               -0.91846346               -1.20631989               -4.98699922               27.68763235                7.89867321
              18.25645400                3.20408588               44.77031820                0.39997093                0.74211983                0.21181042               -1.51487862               -0.31738081                2.21186284                2.12053974
              19.26247481                2.64232701               44.35138212                0.79102859                0.60208089                1.22970500               -2.73997436               -0.01543458                0.10710640               -3.61171135
               9.56420246                9.79893241               45.31097488                0.84125085                0.00023618               -0.29224393                0.76317764               -0.05536979                0.05978361                2.90403155
              10.56420482                9.25691057               44.87546680                0.30636599                0.19964226                0.27469937               -0.74581575                0.05946480                0.67757943               -2.46104697
              11.56819530                8.71527135               44.45228038                0.00010000                2.33999052                0.81453185               -2.10710353               -4.67054384               29.85910071               -7.55044261
              12.61100463                8.07559484               44.59994946                0.00010000                4.30744876                0.44678641               -2.18121293               -9.35020960               58.41845511               -4.50627107
              13.65434428                7.41890523               44.74464899                0.00010000                4.35213030               -0.34087412               -2.18589077               -9.81472753               58.38176150               -1.82835653
              14.69804724                6.75233584               44.88793503                0.00010000                4.31044116               -1.02032487               -2.11640997               -9.88819092               58.57899282                0.61681145
              15.74055310                6.08332881               45.03277145                0.00010000                4.05348763               -1.46808935               -1.94653903               -9.82134398               59.02626079                3.07669608
              16.77911699                5.41875956               45.18129853                0.03560322                3.37139658               -1.56172447               -1.62520730               -9.46555695               59.12998871                5.74094598
              17.80798103                4.76557818               45.32482881                0.18538995                1.74183663               -0.72643942               -0.70242443               -5.00520725               31.68656677                7.79570618
              18.81395372                4.20618277               44.92073062                0.41077194                0.55493071                0.18729395               -1.13269263               -0.26499786                2.24165457                2.02603683
              19.81907965                3.65354477               44.47322283                0.79753315                0.51259261                1.02309720               -2.47869559               -0.01761033                0.12472198               -3.68496867
              10.10284013               10.79647721               45.21147105                0.83224278                0.09605380               -0.19945882                0.50145399               -0.05555687                0.07368344                2.87924360
              11.10380067               10.26016838               44.74935637                0.29475516                0.32510607                0.37873840               -1.12771301                0.03774828                0.84320772               -2.48932021
              12.10934225                9.72381544               44.30254796                0.00010000                3.07301422                0.87718948               -2.56538664               -5.17108969               34.36098207               -7.19558479
              13.16526095                9.08026500               44.51020880                0.00010000                5.50868652                0.15653770               -2.50856581               -9.76168785               66.90387387               -3.82331200
              14.21951598                8.41490078               44.70996166                0.00010000                5.22392136               -0.78664966               -2.39290109               -9.36611959               66.52227418               -1.43912806
              15.26973938                7.74201281               44.90524058                0.00010000                4.53198095               -1.02917949               -2.21423815               -9.03608875               66.64640473                0.53990342
              16.31015560                7.06921606               45.10263500                0.00010000                3.60096638               -1.10683509               -1.94391244               -9.10275604               67.35056250                2.59679328
              17.34175871                6.40345483               45.30751666                0.04139105                2.49747266               -1.25984874               -1.52005893               -9.04922603               67.41511536                5.20911947
              18.36010505                5.75917065               45.50254612                0.19338266                1.07143729               -0.54148404               -0.16627753               -4.92647664               35.74870600                7.46121561
              19.36318745                5.20783176               45.07049719                0.42164369                0.36467697                0.12880319               -0.73370862               -0.24485403                2.29567748                2.11427747
              20.36739859                4.66278895               44.59467366                0.80402896                0.42111405                0.83120752               -2.20488429               -0.02343368                0.15964918               -3.62371382
              10.63570899               11.79494323               45.11196671                0.82324344                0.19125702               -0.10798832                0.24044270               -0.05549356               -0.02684131                2.49661668
              11.63762156               11.26448534               44.62235134                0.28323690                0.44839523                0.48405972               -1.51359957               -0.01707601                1.25359929               -2.23900423
              12.64467689               10.73281514               44.15821090                0.00010000                4.35319899                0.86154842               -2.99378487               -5.95436835               39.37383468               -5.34724583
              13.72468554               10.07872560               44.43026208                0.00010000                8.02985922               -1.72097253               -2.77996751               -7.86913673               75.37407918               -2.27687459
              14.80527407                9.40317224               44.68039388                0.00010000                6.91623219               -1.50595561               -2.55203005               -6.44752130               74.12173655               -0.81432795
              15.86301018                8.73175225               44.92115234                0.00010000                4.58909455               -1.00143294               -2.27913709               -5.67016140               74.10078061                0.32516769
              16.89705597                8.06119210               45.16505099                0.00010000                2.25838515               -0.41889423               -1.93265904               -6.10905298               75.28438655                1.54339606
              17.90817788                7.39356258               45.42416299                0.04734420                0.40092991                0.09625270               -1.48599616               -6.66197976               75.80081045                3.38494558
              18.90507456                6.75474850               45.67401006                0.20155424               -0.13697708               -0.21432999                0.36702619               -4.71245436               40.35550597                5.34171151
              19.90543834                6.20875883               45.22173111                0.43254959                0.18110198                0.05057812               -0.31051448               -0.29177164                2.67473430                1.99734903
              20.90869660                5.67016892               44.71659958                0.81047890                0.32582631                0.65642084               -1.91526141               -0.04017817                0.08285280               -2.98944109
              11.16264604               12.79431744               45.00497004                0.90866954                0.29412005               -0.06257902               -0.04961733                0.24691864                1.14873573                2.11583934
              12.16558724               12.26984957               44.50088746                0.63796337                0.66842922                0.53642312               -1.87126672                0.13301707                3.56641427               -1.94049913
              13.17601463               11.74104641               44.04496936                0.48334456                8.59669350                0.82312722               -3.28712798               -8.06642750               45.19445172               -3.79359586
              14.33752111               11.04584555               44.37176966                0.44719334               13.07621366               -3.28800495               -2.95522209               -6.52967927               82.76964678               -1.28953660
              15.43753890               10.38478167               44.65878317                0.43738444                8.03975859               -1.83905729               -2.64848220               -2.96658712               80.56096815               -0.47103798
              16.49831629                9.72198415               44.93449962                0.44709206                4.43126533               -0.97680986               -2.30671379               -2.66656386               80.48821361                0.15672182
              17.52616421                9.06083818               45.21385893                0.47563762                0.83232131               -0.03539277               -1.89776918               -2.91938938               81.95966004                0.83321180
              18.51496271                8.40537988               45.51321783                0.52575171               -3.77522456                1.18172975               -1.43275503               -4.61922346               83.01474366                1.98351230
              19.45065972                7.75488405               45.80832105                0.60352361               -3.65155557                0.01355450                0.71904181               -5.26831249               46.19219244                3.60295153
              20.44193160                7.20884333               45.36823784                0.71981958               -0.34424333                0.00844937                0.10530330               -0.29900812                5.45037832                1.80381318
              21.44377485                6.67591737               44.84955421                0.90732224                0.18432493                0.57484439               -1.56233545                0.21522860                1.56314843               -2.37990674
               5.88690786                2.97225467               47.04253500                1.00000000               -0.73954956               -0.80973681                2.71402721               -0.15963012               -1.95742527                2.21437359
               6.87951237                2.36661347               46.77228982                0.82135008               -0.73437765               -0.50981832                1.98087059               -0.13853095               -2.59792830               -1.17086173
               7.87222031                1.75810552               46.48956295                0.59725579               -1.01068388               -0.26879180                1.15903258               -0.55900493               -2.41879894               -1.10872476
               8.85929869                1.13402388               46.22327829                0.49555739               -1.42616831               -0.10365000                0.39590307               -0.69861237               -0.35781923               -0.27539914
               9.84369694                0.48152409               45.98207366                0.44791830               -1.32872813                0.13519040               -0.41385746               -0.60502617                1.91122544               -0.21945736
              10.83272413               -0.20127806               45.76119939                0.44681228               -0.48599946                0.36529214               -1.26616741               -0.34546387                3.03926749               -0.00567736
              11.83397695               -0.90034504               45.54269779                0.49085971                0.63370109                0.59010922               -2.09416853               -0.31560746                2.23279324                0.19615614
              12.84539815               -1.59618759               45.30631645                0.58222662                1.31475063                0.80452869               -2.85099489               -0.39151414                0.25102351                0.33396259
              13.86027197               -2.27947276               45.04859576                0.72738055                1.47704780                0.99702314               -3.57177137               -0.34463504               -1.69162675                0.48857151
              14.87493910               -2.95172796               44.77294083                0.93727057                1.46389686                1.19130921               -4.31311848               -0.20879460               -2.18465195                1.07497107
              15.88954990               -3.61901427               44.50415595                1.00000000                1.46107995                1.47434588               -5.08070292               -0.21368370               -1.76107777               -1.70406695
               6.49095276                3.96415730               46.93114216                0.96232835               -0.57511307               -0.79679384                2.36819434               -0.06078351                0.49130178                2.67632774
               7.48520163                3.36151528               46.65625240                0.50425061               -0.40138555               -0.42764120                1.62703188               -0.10797588                1.58197004               -1.97685540
               8.48292505                2.75541760               46.40346995                0.10084600                0.27008234               -0.04133314                1.02912609               -0.92653774                3.91228652               -4.46307993
               9.49060328                2.13298738               46.17508666                0.00010000                1.11863008               -0.47380741                0.35720482               -2.06576923                6.00629053               -3.00228359
              10.50529765                1.48287600               45.96400663                0.00010000                1.48003882               -0.81054531               -0.34461088               -3.25101033                7.95368361               -1.01387260
              11.52020406                0.80237486               45.77469348                0.00010000                1.14889945               -0.39208710               -1.11216671               -3.97003898                9.16484749                0.04158743
              12.52827564                0.10555605               45.58792119                0.00010000                0.54214060                0.22615304               -1.86407443               -3.69446217                8.43204550                1.04784666
              13.53104687               -0.58814230               45.38337541                0.08609502                0.31600800                0.45566484               -2.54165639               -2.46824869                6.56537515                2.91425010
              14.53459580               -1.26950253               45.15827194                0.30197115                0.57875215                0.62397284               -3.18863651               -0.96432276                4.91350024                4.26895690
              15.54262191               -1.93981487               44.91969818                0.62306244                1.00517856                1.02759802               -3.83141341               -0.29315370                2.94019488                2.43006892
              16.55469937               -2.60427081               44.65417024                0.94297214                1.20774637                1.48431579               -4.53403280               -0.18536854                1.65304647               -2.32732761
               7.09097623                4.95631879               46.82943219                0.87725802               -0.48836771               -0.75882421                2.11795215               -0.08413352                0.36441593                3.12391141
               8.08609255                4.35806064               46.52431834                0.35738457               -0.43793854               -0.25417785                1.17418926               -0.11891649                1.90797555               -2.87356367
               9.08221746                3.75727886               46.25036848                0.00363722                0.22161803                0.39827662                0.47132032               -1.84322125                8.24238014               -9.38123613
              10.09052491                3.12454773               46.07219379                0.00010000                1.35359021               -0.83578484                0.04992583               -4.40068455               14.84858072               -5.35962423
              11.10928926                2.46531318               45.92966666                0.00010000                2.00591921               -1.41607098               -0.73489058               -6.12760874               16.71071561               -2.20436139
              12.13064329                1.79088020               45.78853223                0.00010000                2.06578061               -1.12247196               -1.36221737               -6.96255506               16.90650421                0.04656466
              13.15060487                1.10417802               45.64941800                0.00010000                2.02242311               -0.49446320               -1.94293453               -6.82152979               17.09817276                2.25766116
              14.17109176                0.41292571               45.51115010                0.00672434                2.10266037               -0.24571200               -2.50225440               -5.22391981               15.67251999                5.36139963
              15.19265808               -0.26699331               45.34245969                0.14450363                1.63762753               -0.91137241               -2.57033214               -2.41531766               10.21828670                9.94935155
              16.20384431               -0.93117600               45.09226293                0.35775176                1.10481673                0.36901684               -3.19624612               -0.75053517                3.60393383                4.09427583
              17.21475441               -1.58932795               44.79018098                0.76703438                1.09101071                1.80689735               -4.06468571               -0.56546844                1.05876287               -2.79179348
               7.68578639                5.94898082               46.72754884                0.86458387               -0.39231524               -0.68511326                1.84908427               -0.05874712                0.05568047                3.04482872
               8.68186324                5.35643173               46.39052879                0.33964645               -0.31064279               -0.11391565                0.77939848                0.01390855                0.64530224               -2.86518157
               9.67957354                4.76338313               46.06549316                0.00010000                0.63460100                0.60277940               -0.20192372               -2.54307762               13.13097824               -9.91301626
              10.69455526                4.11627169               45.97814088                0.00010000                1.84197409               -0.51944314               -0.62718203               -5.31844627               24.88914325               -5.34635764
              11.71641302                3.45455458               45.88795186                0.00010000                2.37664320               -0.90048998               -1.11057446               -6.29451667               25.03854481               -2.60742467
              12.74208812                2.77992542               45.80293005                0.00010000                2.66932588               -1.05590553               -1.60063441               -6.94064929               25.46690551                0.09043604
              13.76979953                2.09566678               45.72018718                0.00010000                2.78258366               -0.98188084               -2.02804316               -6.95275152               25.65670082                2.79661865
              14.79773980                1.40694346               45.63760168                0.01052868                3.02958122               -0.95136522               -2.34343927               -6.68315426               26.28623540                5.66967808
              15.83039116                0.71227002               45.56559642                0.14680444                2.61030281               -1.89395774               -2.61481668               -3.63619046               15.80076765               10.49953716
              16.84994585                0.06756547               45.27164498                0.35319362                1.46513748               -0.06256798               -2.74335585               -0.42493042                2.43048509                3.77363179
              17.85969391               -0.56813286               44.92957954                0.76135746                0.97480568                2.00968844               -3.71482176               -0.09362281                0.08602112               -2.72642887
               8.27489946                6.94261653               46.62469214                0.85578654               -0.29310602               -0.58903302                1.58687228               -0.05752261                0.05816725                3.01177567
               9.27196840                6.35578233               46.25896026                0.32808476               -0.16917601               -0.01697570                0.38964343                0.06065707                0.45679681               -2.72206715
              10.27151594                5.76933444               45.90133644                0.00010000                1.05080691                0.61344975               -0.72605417               -3.18562258               17.40547150               -8.57064586
              11.29298454                5.11415887               45.87438546                0.00010000                2.41146240               -0.06695797               -1.11728826               -6.53786190               33.88835324               -5.65238107
              12.31974519                4.44730339               45.84563801                0.00010000                2.88667789               -0.61042234               -1.48697645               -7.13992951               33.89669537               -2.62927628
              13.35071810                3.76976209               45.81790756                0.00010000                3.23933058               -0.99693839               -1.82472542               -7.54223557               34.14657704                0.16047953
              14.38453180                3.08454040               45.79283376                0.00010000                3.50536685               -1.22021616               -2.09893594               -7.63172885               34.59821270                2.94796160
              15.42082544                2.39389840               45.77248071                0.01551968                3.73902288               -1.41297236               -2.28793465               -7.68506980               35.34356187                5.94895144
              16.45931226                1.69512754               45.76048591                0.15409579                2.74615716               -1.51096753               -2.37106650               -4.23381776               20.36021748                8.73973809
              17.47574858                1.06757264               45.43812391                0.36329911                1.24831787                0.09053298               -2.38276267               -0.44977512                2.50664994                2.82309207
              18.48427862                0.45086582               45.06612981                0.76735613                0.85300385                1.75811487               -3.43862438               -0.01934204                0.08397184               -3.14692991
               8.85830433                7.93720016               46.52246525                0.84708010               -0.19458698               -0.49381040                1.32419017               -0.05691667                0.05776922                3.04627940
               9.85635846                7.35609221               46.12812600                0.31665086               -0.04098958                0.08082522               -0.00134969                0.07486635                0.51630142               -2.65676405
              10.85748454                6.77565213               45.74303578                0.00010000                1.47353078                0.67062839               -1.22235569               -3.74951260               21.76393518               -8.17754688
              11.88582908                6.11493253               45.77336655                0.00010000                3.02633357                0.18057076               -1.54597356               -7.65212240               42.56459016               -5.37197638
              12.91801121                5.44234613               45.80301723                0.00010000                3.40886590               -0.41500211               -1.81432905               -8.17890690               42.63841248               -2.53919746
              13.95400640                4.75998665               45.83340344                0.00010000                3.75087132               -0.97121828               -2.02440873               -8.49994819               42.89050943                0.25312316
              14.99302864                4.07126246               45.86641711                0.00010000                3.97224327               -1.37834767               -2.15628344               -8.57910471               43.34863331                3.02510679
              16.03345126                3.37868401               45.90405324                0.02069346                3.95059646               -1.52604361               -2.17925606               -8.70368305               43.99084011                5.77025216
              17.07204057                2.68205067               45.94774066                0.16152180                2.58804043               -1.15531268               -2.00135829               -4.83096618               24.77930639                8.26239952
              18.08521207                2.06937613               45.59825050                0.37360218                1.03400729                0.21794741               -2.03215224               -0.43303930                2.65596920                2.34514182
              19.09272071                1.46702944               45.19657851                0.77359498                0.75086434                1.49895071               -3.18890499               -0.01346702                0.10687043               -3.61509471
               9.43597702                8.93274032               46.42058290                0.83842570               -0.09632590               -0.39821918                1.06024427               -0.05652835                0.06031955                3.05333196
              10.43501376                8.35739883               45.99784038                0.30538447                0.08541801                0.18230586               -0.39352817                0.07619686                0.62413245               -2.61051087
              11.43768538                7.78274701               45.58639695                0.00010000                1.91171672                0.75532777               -1.71146191               -4.25057686               26.18126904               -8.02025964
              12.47324809                7.11777029               45.67442083                0.00010000                3.67137748                0.37182138               -1.94217060               -8.65953267               51.20670846               -5.12602407
              13.51111293                6.43900334               45.76165357                0.00010000                3.92773554               -0.28968816               -2.10392942               -9.20416383               51.29466094               -2.34258535
              14.55180280                5.75033772               45.84940141                0.00010000                4.15697115               -0.96504398               -2.19146436               -9.46269718               51.55759060                0.35566634
              15.59425235                5.05697345               45.93966302                0.00010000                4.20803824               -1.45013211               -2.18257149               -9.45053127               52.01974415                3.04095434
              16.63596357                4.36337753               46.03427470                0.02592692                3.88742355               -1.53149911               -2.03517073               -9.36390081               52.54185373                5.74466310
              17.67200082                3.67202128               46.13244097                0.16907089                2.30727294               -0.89372780               -1.56186722               -5.08290793               29.07787233                8.12202401
              18.68210903                3.07193159               45.75443855                0.38399044                0.83509210                0.25753291               -1.67453503               -0.37093835                2.73835450                2.09997679
              19.68870266                2.48084483               45.32303794                0.77983610                0.65936359                1.27843430               -2.94450227               -0.01113594                0.12989362               -3.86901318
              10.00785673                9.92923577               46.31875799                0.82975428                0.00189722               -0.30290384                0.79479687               -0.05641823                0.06181377                3.02829160
              11.00787571                9.35973833               45.86781060                0.29408807                0.21224080                0.28708871               -0.78672940                0.06779864                0.75995099               -2.58503573
              12.01210155                8.79075868               45.43079382                0.00010000                2.42531929                0.84303516               -2.18990679               -4.71843545               30.66651738               -7.87857305
              13.05638209                8.12236895               45.57750021                0.00010000                4.46294758                0.47348994               -2.31202998               -9.44499888               59.86745034               -4.79378651
              14.10136050                7.43655237               45.72196694                0.00010000                4.52001283               -0.31449759               -2.35823215               -9.89087256               59.86543248               -2.06805695
              15.14678235                6.74068577               45.86580033                0.00010000                4.48088496               -0.98651051               -2.32501810               -9.93330746               60.11427234                0.42894446
              16.19097820                6.04225982               46.01223797                0.00010000                4.21715294               -1.42003591               -2.18378090               -9.84728361               60.65849666                2.94600768
              17.23112541                5.34805403               46.16394920                0.03132846                3.54250761               -1.50238185               -1.87979047               -9.53848105               61.09550722                5.68193340
              18.26182835                4.66417611               46.31619652                0.17668480                1.89221743               -0.69464878               -1.06591579               -5.10435061               33.31292161                8.08041227
              19.26896976                4.07452679               45.90864233                0.39442984                0.64215779                0.23843791               -1.29932590               -0.30849304                2.76950837                2.03653862
              20.27467151                3.49259812               45.44745104                0.78610518                0.57017528                1.07998673               -2.69222309               -0.01312294                0.14998711               -3.92532663
              10.57384354               10.92668224               46.21660788                0.82107740                0.10032822               -0.20846917                0.52689195               -0.05681003                0.07626362                3.00228904
              11.57484682               10.36314061               45.73782341                0.28289515                0.34212530                0.39525211               -1.18048920                0.04173965                0.95032806               -2.61467673
              12.58068604                9.79960771               45.27643314                0.00010000                3.18538061                0.90418051               -2.65854305               -5.23903097               35.32099905               -7.50156093
              13.63855443                9.12724009               45.48444257                0.00010000                5.71463064                0.16144630               -2.64740230               -9.87096553               68.59819057               -4.05648617
              14.69497866                8.43271339               45.68517877                0.00010000                5.44373844               -0.78707784               -2.57182487               -9.43460774               68.23725386               -1.61483380
              15.74742920                7.73060751               45.88212442                0.00010000                4.74798824               -1.01877810               -2.42440769               -9.05891165               68.40302803                0.41268285
              16.78993842                7.02857273               46.08218366                0.00010000                3.79242263               -1.07899780               -2.17117624               -9.09600895               69.20811995                2.50785249
              17.82327765                6.33332989               46.29139152                0.03694274                2.67513156               -1.20648430               -1.74321090               -9.09699712               69.76609266                5.13304144
              18.84344105                5.65812831               46.49930768                0.18445820                1.21197521               -0.49398627               -0.52406125               -5.02998672               37.64436015                7.78190863
              19.84751716                5.07670035               46.06240180                0.40489630                0.44282407                0.18040749               -0.90030331               -0.28354548                2.81964132                2.16133505
              20.85229753                4.50244457               45.57162575                0.79236061                0.47803761                0.89288260               -2.42135560               -0.01967259                0.18805717               -3.83900456
              11.13380380               11.92506639               46.11446537                0.81236750                0.19812255               -0.11526627                0.25992906               -0.05691673               -0.03014752                2.60473903
              12.13578503               11.36764337               45.60690149                0.27178924                0.47088262                0.50441999               -1.57825147               -0.02404950                1.39919309               -2.35052271
              13.14322145               10.80884229               45.12778294                0.00010000                4.50360391                0.87086773               -3.09073386               -6.04101817               40.51579415               -5.57017119
              14.22585711               10.12559788               45.40175823                0.00010000                8.30397346               -1.76112189               -2.92326998               -7.96810043               77.31850757               -2.41965713
              15.30930092                9.42081081               45.65400802                0.00010000                7.19438370               -1.53559995               -2.73285637               -6.49377937               76.04311857               -0.90795388
              16.36974478                8.72031021               45.89740216                0.00010000                4.85173573               -1.01728942               -2.48615618               -5.67422077               76.04640579                0.26281180
              17.40633564                8.02067986               46.14478622                0.00010000                2.49425532               -0.42160370               -2.14530079               -6.07913509               77.30703540                1.50018508
              18.41962989                7.32392434               46.40858549                0.04276550                0.57612653                0.11335325               -1.66661212               -6.66837483               78.53330745                3.31249193
              19.41785817                6.65429639               46.67617810                0.19239187               -0.03236477               -0.11862873                0.02337899               -4.76891199               42.57346338                5.58944930
              20.41898259                6.07813494               46.21790902                0.41540637                0.24657257                0.09940353               -0.46890901               -0.33943092                3.20718114                2.06744466
              21.42278962                5.51045577               45.69646644                0.79860094                0.38070292                0.71914760               -2.12788819               -0.03907728                0.10849907               -3.15234706
              11.68755124               12.92437692               46.00453422                0.90333721                0.30386879               -0.06894725               -0.03721725                0.25995274                1.19643943                2.20875754
              12.69058992               12.37322901               45.48181212                0.63229978                0.71799672                0.55856362               -1.94617688                0.11289748                3.83189787               -2.03597249
              13.70191117               11.81702507               45.01159733                0.48224510                8.83169912                0.81827759               -3.38497291               -8.19159621               46.55864166               -3.95403066
              14.86722391               11.09201765               45.34150768                0.44717542               13.42397831               -3.35802323               -3.09917263               -6.61450359               84.89332640               -1.35115706
              15.97039074               10.40200139               45.63143527                0.43749689                8.34259119               -1.88094164               -2.82743755               -2.97881480               82.62866549               -0.50506848
              17.03407573                9.71026172               45.91048877                0.44683474                4.71754246               -1.00484894               -2.50922769               -2.65994168               82.57383099                0.13989433
              18.06474159                9.02014065               46.19398262                0.47466121                1.11089505               -0.05392082               -2.10132285               -2.89264313               84.10716095                0.82583430
              19.05629363                8.33559696               46.49828118                0.52339374               -3.54446835                1.16726166               -1.58822406               -4.55287135               86.00300873                1.93398260
              19.99385222                7.65575573               46.81406207                0.59888607               -3.58622396                0.14593470                0.38666276               -5.24602197               48.74653073                3.78841920
              20.98456915                7.07868842               46.36864877                0.71115234               -0.34889533                0.05534811               -0.03696720               -0.38775456                6.11861181                1.88148248
              21.98687431                6.51682752               45.83301531                0.90129072                0.23051603                0.63717443               -1.76108351                0.22237944                1.65834517               -2.49956241
               6.14098783                3.10779769               48.07002027                1.00000000               -0.75611587               -0.83243875                2.78220886               -0.16809699               -2.00895042                2.27343383
               7.13342667                2.47229339               47.79228986                0.81040680               -0.75161046               -0.52034741                2.01800475               -0.14907495               -2.69295597               -1.25331085
               8.12595562                1.83382680               47.50118187                0.59286238               -1.02577242               -0.27322090                1.16607924               -0.56198652               -2.52760068               -1.09362930
               9.11291123                1.17958423               47.22712300                0.49422222               -1.43098915               -0.09528846                0.37385220               -0.69010236               -0.45608346               -0.28984365
              10.09733584                0.49701425               46.97767439                0.44774262               -1.32893827                0.15514014               -0.46724119               -0.59416975                1.77677270               -0.22674848
              11.08633246               -0.21561847               46.74813077                0.44657950               -0.50200479                0.39616270               -1.35087053               -0.34028538                2.90391879               -0.01038577
              12.08729574               -0.94475778               46.52117915                0.48944146                0.60893497                0.62957592               -2.21483189               -0.30242536                2.14912106                0.19529681
              13.09851116               -1.67143583               46.27703322                0.57819489                1.31516957                0.85071110               -3.01175217               -0.37543234                0.22113514                0.33696856
              14.11359914               -2.38621850               46.01189293                0.71899863                1.51843789                1.05346168               -3.77573732               -0.33836986               -1.71342732                0.48043899
              15.12887992               -3.09014472               45.72860392                0.92217490                1.53528907                1.25750364               -4.56008204               -0.21370844               -2.22772423                1.07384065
              16.14430492               -3.78893630               45.45192473                1.00000000                1.54250001                1.55234236               -5.36998138               -0.22997117               -1.81431506               -1.73110481
               6.77481116                4.09947330               47.95517452                0.94701516               -0.58897860               -0.82178882                2.43641187               -0.06549501                0.56358391                2.78411480
               7.76892137                3.46708992               47.67271385                0.48580291               -0.40604072               -0.43696892                1.66357199               -0.11892769                1.72907173               -2.10998206
               8.76669034                2.83109459               47.41382948                0.09448136                0.27475529               -0.03287585                1.04395835               -0.94990621                4.09534127               -4.66875998
               9.77441648                2.17863134               47.17861167                0.00010000                1.11525750               -0.50058076                0.34861738               -2.07310323                6.12982094               -3.16557338
              10.78899549                1.49856565               46.96041317                0.00010000                1.46995725               -0.80425599               -0.37500728               -3.24261477                8.01944186               -1.26434052
              11.80381562                0.78834316               46.76332684                0.00010000                1.15923396               -0.39783634               -1.16334909               -3.95199753                9.19831455               -0.18188068
              12.81218017                0.06153798               46.56891229                0.00010000                0.58357862                0.20934104               -1.94237927               -3.69121270                8.50856458                0.87389402
              13.81548719               -0.66292872               46.35742834                0.08022348                0.36948563                0.46487043               -2.65297256               -2.49759087                6.69842597                2.76490657
              14.81956988               -1.37568388               46.12566055                0.28950368                0.63072700                0.65532939               -3.33944793               -0.97588905                5.06949243                4.38118354
              15.82810173               -2.07756969               45.88044117                0.59980008                1.06134479                1.07753019               -4.02413713               -0.30533286                3.07313755                2.51075217
              16.84079678               -2.77341287               45.60768698                0.92680338                1.26950461                1.55740917               -4.76552416               -0.20402278                1.75913044               -2.39097827
               7.40444469                5.09136191               47.85096751                0.86401845               -0.50178594               -0.78374387                2.18890432               -0.08536680                0.36186078                3.26786931
               8.39942683                4.46355402               47.53620151                0.34276539               -0.45143077               -0.26382374                1.20190620               -0.12092293                2.02991100               -3.03044850
               9.39541608                3.83316928               47.25507096                0.00010000                0.22756328                0.41914326                0.47041050               -1.91228165                8.62087484               -9.86537401
              10.40397810                3.16957261               47.07241084                0.00010000                1.36778272               -0.83829189               -0.00770977               -4.45986524               15.17460533               -5.84224063
              11.42277173                2.48092913               46.92199806                0.00010000                2.01710413               -1.42118669               -0.80066407               -6.13015800               16.92773969               -2.68950591
              12.44432018                1.77642480               46.77446749                0.00010000                2.09858177               -1.14998827               -1.45486848               -6.98169773               17.21017413               -0.39435233
              13.46474337                1.05942904               46.62941112                0.00010000                2.07305090               -0.54054860               -2.06511800               -6.83713280               17.43269279                1.89481868
              14.48578120                0.33786158               46.48543441                0.00311210                2.19894777               -0.28218612               -2.64988910               -5.26097699               16.28525797                5.10042399
              15.50872232               -0.37311191               46.31628143                0.13664958                1.73605276               -0.89159839               -2.67360240               -2.48994494               10.78836455                9.79566517
              16.52050225               -1.06859412               46.05966321                0.34233322                1.15942565                0.38038134               -3.32690886               -0.78072157                3.75586569                4.14918557
              17.53191084               -1.75778811               45.74867025                0.75599913                1.14085806                1.86302460               -4.24019149               -0.58270378                1.08726788               -2.96430530
               8.02871961                6.08379842               47.74634435                0.85192061               -0.40240676               -0.70534499                1.91214596               -0.06053574                0.05669757                3.17910859
               9.02469554                5.46181345               47.39837877                0.32587404               -0.31467493               -0.12267492                0.79219347                0.02271900                0.69208955               -2.99360455
              10.02242611                4.83947745               47.06332845                0.00010000                0.63818892                0.61878660               -0.22976358               -2.57577724               13.50322060              -10.38021191
              11.03745932                4.16186550               46.97155254                0.00010000                1.85570144               -0.46914423               -0.69124996               -5.38685542               25.49110397               -5.91325208
              12.05954014                3.47014192               46.87636427                0.00010000                2.41112167               -0.88856645               -1.20995328               -6.33111067               25.58825819               -3.08031676
              13.08568176                2.76534339               46.78628932                0.00010000                2.72302993               -1.05254579               -1.73352815               -6.97820964               26.02598786               -0.33500002
              14.11400074                2.05072701               46.69910634                0.00010000                2.85634230               -0.98332361               -2.19827582               -6.99854953               26.28890667                2.43702666
              15.14280860                1.33142756               46.61321117                0.00675093                3.11129710               -0.95767293               -2.55026952               -6.71175263               26.97640370                5.41584298
              16.17622668                0.60648415               46.53815003                0.13902656                2.71774532               -1.85259081               -2.89827124               -3.73785813               16.61295070               10.16560536
              17.19716351               -0.06996206               46.24357975                0.33839321                1.56520053               -0.05709352               -2.87804371               -0.48984127                2.90790283                3.68463899
              18.20753069               -0.73615238               45.89157027                0.75094786                1.03671849                2.04790021               -3.89496953               -0.09042757                0.09743781               -3.00013018
               8.64720393                7.07725501               47.64082174                0.84338722               -0.30017488               -0.60547561                1.64157272               -0.05880529                0.05988720                3.14743129
               9.64420218                6.46110052               47.26283578                0.31464616               -0.16777296               -0.01996276                0.38648615                0.07295107                0.50227454               -2.84969039
              10.64384847                5.84554501               46.89384699                0.00010000                1.06871716                0.62766037               -0.77191150               -3.20995949               17.85821593               -8.94845899
              11.66557653                5.16018973               46.86278766                0.00010000                2.44115795               -0.02380985               -1.20345021               -6.59440341               34.68844376               -6.09530870
              12.69267163                4.46315780               46.83015248                0.00010000                2.92971860               -0.57298236               -1.61427051               -7.18372657               34.69523431               -3.06906220
              13.72417090                3.75537389               46.79884973                0.00010000                3.30082887               -0.96235333               -1.99528432               -7.58666415               34.96447542               -0.23414524
              14.75868821                3.03976257               46.77082932                0.00010000                3.58090506               -1.18324216               -2.31646736               -7.67526517               35.46269428                2.61710984
              15.79578900                2.31870812               46.74834213                0.01166401                3.83332842               -1.36342955               -2.56272279               -7.70955859               36.27406552                5.69456429
              16.83535478                1.58983628               46.73516104                0.14613801                2.87764820               -1.46218841               -2.72896021               -4.30821711               21.41983705                8.67428522
              17.85334196                0.93026401               46.41359000                0.34811560                1.35640746                0.12484089               -2.53724837               -0.53097262                3.10255453                2.69993307
              18.86248293                0.28316989               46.03080937                0.75674996                0.91409630                1.79465153               -3.63947512               -0.01834823                0.10504058               -3.46247361
               9.25985249                8.07168891               47.53593464                0.83497229               -0.19879283               -0.50795142                1.37186172               -0.05790466                0.05967020                3.18037882
              10.25786457                7.46141419               47.12802613                0.30367031               -0.03573905                0.08395272               -0.01861292                0.08792363                0.57416035               -2.78597141
              11.25913771                6.85203066               46.73049726                0.00010000                1.50469501                0.69082800               -1.28419044               -3.76955140               22.32856289               -8.53761844
              12.28795847                6.16138931               46.75738473                0.00010000                3.07718690                0.22426985               -1.65242570               -7.70741712               43.57316120               -5.76090071
              13.32068145                5.45868227               46.78413561                0.00010000                3.46926195               -0.36204764               -1.96748721               -8.22502242               43.66773841               -2.92195234
              14.35734370                4.74609632               46.81220317                0.00010000                3.82398767               -0.91190701               -2.22677625               -8.53609359               43.95149380               -0.09211383
              15.39716120                4.02706216               46.84366918                0.00010000                4.06000083               -1.30932466               -2.41240925               -8.60488862               44.46823980                2.74493377
              16.43854372                3.30415897               46.88082836                0.01663367                4.06726224               -1.45107509               -2.49634600               -8.71162152               45.22965032                5.59940684
              17.47850645                2.57724038               46.92588374                0.15336149                2.73333598               -1.10761085               -2.40971920               -4.89764930               26.06208287                8.33537552
              18.49321044                1.93253476               46.57713564                0.35808012                1.14227595                0.27147926               -2.20643344               -0.51087892                3.30136024                2.24339048
              19.50135197                1.29974065               46.16366696                0.76270785                0.81415271                1.54521613               -3.41095412               -0.00986191                0.13226045               -3.93512177
               9.86659528                9.06709598               47.43138147                0.82664532               -0.09763729               -0.41078284                1.10113343               -0.05758973                0.06239221                3.18551269
              10.86561891                8.46277957               46.99375634                0.29273100                0.09435240                0.19063182               -0.42402351                0.08845156                0.70000197               -2.74074591
              11.86848233                7.85936157               46.56891302                0.00010000                1.95788344                0.78165148               -1.78414329               -4.27030611               26.87445374               -8.36860174
              12.90477658                7.16467512               46.65439326                0.00010000                3.74909197                0.41540321               -2.06591564               -8.71113359               52.43894820               -5.47576837
              13.94346417                6.45591685               46.73977918                0.00010000                4.01462787               -0.23316868               -2.27767586               -9.24340088               52.55721468               -2.66945085
              14.98506913                5.73713575               46.82642682                0.00010000                4.25318137               -0.89523002               -2.41715329               -9.48114089               52.86361118                0.07211802
              16.02852779                5.01357607               46.91655552                0.00010000                4.31546073               -1.36669198               -2.46245553               -9.45180831               53.40547618                2.82608008
              17.07137835                4.28968662               47.01242559                0.02176660                4.02491033               -1.44387810               -2.37134227               -9.36835789               54.11992437                5.63922125
              18.10902600                3.56768406               47.11485124                0.16060184                2.46228869               -0.84603328               -2.00254999               -5.14765681               30.57923846                8.29574951
              19.12062412                2.93569360               46.73682750                0.36811671                0.94239525                0.32077693               -1.86456165               -0.43654593                3.40377700                2.03421219
              20.12787391                2.31407421               46.29249207                0.76874188                0.72497846                1.33548911               -3.18375002               -0.00643857                0.15862112               -4.17483661
              10.46733352               10.06347325               47.32687082                0.81831487                0.00344867               -0.31401876                0.82895137               -0.05768909                0.06377576                3.15791574
              11.46736801                9.46522683               46.85973221                0.28180873                0.22512581                0.30021899               -0.83012106                0.07767492                0.85973024               -2.71536769
              12.47183604                8.86766369               46.40848224                0.00010000                2.49062549                0.87167658               -2.27435251               -4.74343549               31.50312289               -8.21700979
              13.51718052                8.16969737               46.55370886                0.00010000                4.57583868                0.51010660               -2.44805273               -9.49711161               61.33659615               -5.10056446
              14.56335281                7.45401889               46.69748435                0.00010000                4.64405707               -0.26769111               -2.54604572               -9.91953020               61.36683740               -2.33375073
              15.61006166                6.72819172               46.84143467                0.00010000                4.61106778               -0.92355558               -2.56387201               -9.92823271               61.66508554                0.21311232
              16.65557417                5.99972832               46.98909583                0.00010000                4.35034597               -1.33756106               -2.47172862               -9.81936079               62.30819425                2.79298084
              17.69706858                5.27528140               47.14370272                0.02701752                3.69860839               -1.41036286               -2.21180107               -9.54152082               63.03710406                5.61676424
              18.72954633                4.56031972               47.30351049                0.16797288                2.05103947               -0.64284099               -1.52177465               -5.16875661               35.04414928                8.33803569
              19.73808937                3.93895030               46.89474410                0.37820693                0.74578133                0.30490900               -1.49839679               -0.36155971                3.43872945                2.01381692
              20.74446196                3.32645043               46.41937837                0.77480228                0.63725933                1.14596259               -2.94235634               -0.00808995                0.18140147               -4.20378228
              11.06193435               11.06081561               47.22200889                0.80989162                0.10476172               -0.21807859                0.55429340               -0.05815150                0.07900955                3.13066545
              12.06298197               10.46878395               46.72574659                0.27110310                0.36043601                0.41296728               -1.23656878                0.04496677                1.07817588               -2.74621626
              13.06914307                9.87679510               46.24937710                0.00010000                3.27485841                0.92919193               -2.74875863               -5.28033500               36.31809701               -7.81537149
              14.12847914                9.17487726               46.45726075                0.00010000                5.87180694                0.17849874               -2.79133476               -9.92909942               70.31921515               -4.30302822
              15.18657921                8.45056302               46.65852516                0.00010000                5.61579566               -0.76311166               -2.76680258               -9.45364600               69.97565290               -1.80788422
              16.24079505                7.71866463               46.85675243                0.00010000                4.92358432               -0.97737944               -2.66694546               -9.03198707               70.18487361                0.26905967
              17.28505090                6.98682485               47.05921148                0.00010000                3.95807422               -1.01657391               -2.45291626               -9.03730498               71.09996781                2.41171939
              18.31995654                6.26147936               47.27265244                0.03245608                2.84655400               -1.11793240               -2.04969918               -9.08070203               72.09357595                5.07427061
              19.34198198                5.55482724               47.49206490                0.17556001                1.36528401               -0.42683080               -0.97899280               -5.10068070               39.63141042                8.09287824
              20.34726222                4.94179178               47.05249112                0.38827256                0.53649299                0.24552291               -1.10051205               -0.33147562                3.48367626                2.18713502
              21.35271184                4.33699346               46.54624655                0.78081936                0.54496221                0.96409932               -2.67508388               -0.01534176                0.22321273               -4.08216128
              11.65023380               12.05911168               47.11716529                0.80144556                0.20540445               -0.12303520                0.28076907               -0.05831772               -0.03335497                2.71783371
              12.65228785               11.47348617               46.59078631                0.26025091                0.49511143                0.52624484               -1.64715762               -0.03420169                1.57361143               -2.46751874
              13.66013603               10.88624753               46.09639622                0.00010000                4.62713795                0.87709581               -3.18490758               -6.09349947               41.70534656               -5.79521647
              14.74483061               10.17326735               46.37179668                0.00010000                8.51782402               -1.77768744               -3.06990500               -8.02101514               79.29536131               -2.57082342
              15.83049251                9.43875666               46.62573676                0.00010000                7.41647410               -1.53686140               -2.92879064               -6.50356516               77.99450695               -1.01011205
              16.89316009                8.70864413               46.87142921                0.00010000                5.07604144               -1.00279057               -2.72533270               -5.64546562               78.02700272                0.19306166
              17.93201334                7.97939684               47.12214497                0.00010000                2.71460311               -0.39313902               -2.41309898               -6.01286320               79.38557143                1.45663704
              18.94745215                7.25292276               47.39083074                0.03818683                0.76034818                0.15943954               -1.93116837               -6.63134199               81.24408143                3.26489782
              19.94722031                6.55178310               47.67447764                0.18321646                0.09207389                0.00286312               -0.41825879               -4.79106172               44.86829338                5.83597862
              20.94929363                5.94386075               47.21235293                0.39843954                0.32657210                0.16008502               -0.66106946               -0.39811524                3.87854609                2.12838762
              21.95375175                5.34573242               46.67404182                0.78680690                0.44581176                0.79174538               -2.37688620               -0.03799205                0.14065612               -3.33175002
              12.23201902               13.05835490               47.00422569                0.89797587                0.31430719               -0.07567782               -0.02425731                0.27391576                1.24665909                2.30613460
              13.23516209               12.47930885               46.46196392                0.62669965                0.77364454                0.58226762               -2.02639833                0.08652981                4.13596261               -2.13610457
              14.24749191               11.89433702               45.97726990                0.48114440                9.01938057                0.80894911               -3.48048136               -8.26367948               47.98706826               -4.11963033
              15.41554970               11.13932351               46.30978621                0.44712689               13.68196056               -3.39438388               -3.24381758               -6.65365184               87.05447981               -1.41483226
              16.52113112               10.41982580               46.60223442                0.43757320                8.58479272               -1.89308652               -3.01870037               -2.97187360               84.73186606               -0.54144369
              17.58724556                9.69860882               46.88431506                0.44661879                4.96919460               -1.00353116               -2.74064008               -2.63463968               84.69904211                0.12195966
              18.62051501                8.97896207               47.17183248                0.47365123                1.38489408               -0.04347723               -2.35687880               -2.84686668               86.32176952                0.82221657
              19.61494344                8.26466815               47.48145335                0.52107723               -3.26461329                1.17453941               -1.82374936               -4.45475012               88.97075932                1.90909750
              20.55522275                7.55488450               47.81605431                0.59421576               -3.47964204                0.31013980               -0.04248991               -5.18348977               51.38052916                3.97911514
              21.54535060                6.94499348               47.36749850                0.70252388               -0.35070379                0.11327213               -0.21139553               -0.49710986                6.93159219                1.95737880
              22.54820867                6.35282837               46.81433254                0.89531964                0.28580739                0.70959546               -1.99399835                0.22918187                1.76206638               -2.62811015
               6.40218968                3.24741484               49.09817918                1.00000000               -0.76980286               -0.85224938                2.84463974               -0.17594965               -2.05723735                2.33646257
               7.39449165                2.58069926               48.81264991                0.79951197               -0.76772650               -0.52952645                2.05247205               -0.16021244               -2.78624799               -1.33243469
               8.38683515                1.91093769               48.51288454                0.58850220               -1.04035778               -0.27843853                1.17804382               -0.56258828               -2.63845721               -1.07581981
               9.37368450                1.22524967               48.23075533                0.49280877               -1.43052618               -0.08615915                0.35276661               -0.67815435               -0.55943398               -0.30471515
              10.35822463                0.51151157               47.97272884                0.44754004               -1.31933754                0.17539422               -0.52345113               -0.58170945                1.63692489               -0.23434858
              11.34729774               -0.23187791               47.73418197                0.44642793               -0.50838461                0.42784429               -1.44262815               -0.33350089                2.76409858               -0.01477857
              12.34805693               -0.99190540               47.49840115                0.48792366                0.59046640                0.67073555               -2.34594407               -0.28917846                2.06073146                0.19378948
              13.35910707               -1.75023847               47.24608140                0.57412203                1.31878896                0.89931108               -3.18530566               -0.35868639                0.18655743                0.33972889
              14.37443271               -2.49739924               46.97308101                0.71063314                1.56228738                1.11318685               -3.99313414               -0.33034783               -1.73958407                0.47246314
              15.39035282               -3.23392565               46.68173918                0.90719047                1.60946412                1.32665324               -4.81880344               -0.21753959               -2.27361828                1.07157920
              16.40662200               -3.96516086               46.39675633                1.00000000                1.62691751                1.63249697               -5.66906543               -0.24668350               -1.86933011               -1.75841027
               7.06714577                4.23889235               48.97987040                0.93178976               -0.60176710               -0.84542500                2.50236016               -0.07104724                0.64038379                2.89892067
               8.06112810                3.57540399               48.68952384                0.46727323               -0.41058567               -0.44562486                1.69793525               -0.13216829                1.88446468               -2.24529616
               9.05893406                2.90815331               48.42434911                0.08811383                0.27439568               -0.02326409                1.06226518               -0.97127197                4.29084978               -4.88336528
              10.06661601                2.22438808               48.18205900                0.00010000                1.10186316               -0.52438074                0.34124950               -2.07411933                6.26421713               -3.36194524
              11.08097132                1.51326551               47.95650649                0.00010000                1.45276021               -0.79698035               -0.40731078               -3.22123846                8.10031818               -1.54582682
              12.09567122                0.77240053               47.75142649                0.00010000                1.16870544               -0.40457091               -1.22067228               -3.91637894                9.24663119               -0.44468540
              13.10434543                0.01480196               47.54907360                0.00010000                0.62979540                0.18928735               -2.02970708               -3.67055116                8.59575682                0.65376846
              14.10826713               -0.74124536               47.33031596                0.07425401                0.43136955                0.46949170               -2.77490694               -2.51248971                6.83734796                2.56959715
              15.11297282               -1.48626737               47.09148298                0.27709026                0.68955552                0.69148768               -3.50006418               -0.98249505                5.22738434                4.48855287
              16.12205824               -2.22065912               46.83921543                0.57665026                1.12087770                1.12973918               -4.22400849               -0.31742694                3.20859651                2.59392213
              17.13539038               -2.94883589               46.55885975                0.91075518                1.33321380                1.63317591               -5.00238951               -0.22449231                1.86877994               -2.45616024
               7.72774545                5.23050634               48.87321028                0.85091072               -0.51581287               -0.80917929                2.26207423               -0.08667175                0.35785353                3.41845518
               8.72258733                4.57178676               48.54835646                0.32816364               -0.46599168               -0.27393138                1.22959287               -0.12205491                2.15636868               -3.19789079
               9.71842562                3.91047241               48.25977669                0.00010000                0.22512908                0.44247752                0.47165674               -1.97472921                8.99766844              -10.37756419
              10.72708991                3.21476206               48.07203960                0.00010000                1.36808910               -0.83791270               -0.06795048               -4.50874779               15.50885184               -6.36588166
              11.74578740                2.49557196               47.91365337                0.00010000                2.01719060               -1.42358448               -0.87095845               -6.11306538               17.17123351               -3.23434735
              12.76743372                1.76003067               47.75943486                0.00010000                2.12522013               -1.17786781               -1.55608110               -6.97485090               17.53089275               -0.91153238
              13.78829181                1.01188035               47.60811564                0.00010000                2.12464414               -0.59064208               -2.20089627               -6.82844640               17.78649466                1.44081035
              14.80992660                0.25915136               47.45815232                0.00010000                2.29523795               -0.32010213               -2.81666201               -5.27463924               16.95806933                4.73666798
              15.83419656               -0.48356948               47.28898764                0.12884135                1.83231022               -0.85150574               -2.78844425               -2.55867256               11.41795538                9.51371438
              16.84657281               -1.21133086               47.02572476                0.32702000                1.21445703                0.39952895               -3.46215351               -0.81512121                3.91985115                4.17433240
              17.85848571               -1.93249735               46.70537715                0.74519894                1.19128983                1.92806546               -4.41978535               -0.60308522                1.11521078               -3.17384675
               8.38285151                6.22270877               48.76579176                0.83930200               -0.41305761               -0.72657428                1.97917544               -0.06215684                0.05754716                3.31637648
               9.37872093                5.56992536               48.40637266                0.31196566               -0.31936670               -0.13228017                0.80636768                0.03477039                0.74335881               -3.13506609
              10.37646418                4.91700286               48.06089789                0.00010000                0.63102882                0.63620160               -0.25679916               -2.59963875               13.88625292              -10.87561598
              11.39134151                4.20762983               47.96431588                0.00010000                1.84886111               -0.41707768               -0.75691534               -5.44255120               26.10700980               -6.50791722
              12.41344140                3.48479382               47.86375280                0.00010000                2.42621519               -0.87105767               -1.31551773               -6.34931251               26.15326971               -3.60842235
              13.43986581                2.74884318               47.76825949                0.00010000                2.76072075               -1.04326706               -1.87872880               -6.99538294               26.59895874               -0.83410330
              14.46865581                2.00298911               47.67622166                0.00010000                2.91791793               -0.97802979               -2.38914294               -7.02445508               26.93295404                1.98488274
              15.49822417                1.25235259               47.58659629                0.00301776                3.18128908               -0.94894267               -2.78822392               -6.71190866               27.65682055                5.04439449
              16.53228160                0.49670252               47.50763100                0.13125795                2.82297513               -1.77754888               -3.22656256               -3.83782806               17.51756415                9.63897937
              17.55468368               -0.21266854               47.21408411                0.32367692                1.66900189               -0.03268617               -3.02960740               -0.56992811                3.49459682                3.52560047
              18.56566163               -0.91027459               46.85168015                0.74062334                1.09779574                2.10084966               -4.09210704               -0.08785531                0.11156132               -3.34950982
               9.03206912                7.21597486               48.65752360                0.83105849               -0.30804829               -0.62303866                1.70094326               -0.06020815                0.06191896                3.28763539
              10.02898864                6.56914115               48.26668998                0.30122578               -0.16703689               -0.02365731                0.38431229                0.08898502                0.55563175               -2.98877836
              11.02872838                5.92319645               47.88589821                0.00010000                1.07296420                0.64154331               -0.81789986               -3.22438145               18.32774598               -9.34684573
              12.05044792                5.20642050               47.85031645                0.00010000                2.44297091                0.02395430               -1.29189142               -6.63665942               35.50404901               -6.57296949
              13.07758780                4.47815081               47.81335260                0.00010000                2.94414222               -0.52567161               -1.74977200               -7.20745140               35.50543896               -3.55948253
              14.10933077                3.73916533               47.77800187                0.00010000                3.33527420               -0.91379450               -2.18287041               -7.60970874               35.78882711               -0.69751739
              15.14429329                2.99231975               47.74650441                0.00010000                3.63221300               -1.12770858               -2.56338729               -7.69401947               36.32382527                2.19968432
              16.18197503                2.24017251               47.72122625                0.00777765                3.90839244               -1.28819520               -2.88468067               -7.69173363               37.17958721                5.33274340
              17.22246114                1.48087954               47.70590671                0.13815812                3.00881597               -1.38172659               -3.15762149               -4.37318744               22.59950491                8.49171039
              18.24215135                0.78801541               47.38737895                0.33305599                1.47397799                0.18374857               -2.71916591               -0.62937594                3.84076300                2.50481641
              19.25194070                0.10951965               46.99334031                0.74620410                0.97893484                1.84594400               -3.87011868               -0.01749431                0.13174308               -3.85578581
               9.67531476                8.21024799               48.54990248                0.82295610               -0.20357078               -0.52302301                1.42340590               -0.05927748                0.06170552                3.32007755
              10.67327905                7.56945222               48.12775374                0.29058649               -0.03087784                0.08683415               -0.03617488                0.10396724                0.64398392               -2.92392750
              11.67469720                6.92983373               47.71735197                0.00010000                1.51874555                0.70967773               -1.34435589               -3.77670749               22.91427686               -8.91267852
              12.70365396                6.20810891               47.74031803                0.00010000                3.09251715                0.27551443               -1.76219272               -7.74201794               44.59705862               -6.18144807
              13.73654754                5.47428039               47.76366749                0.00010000                3.49243680               -0.29426133               -2.13129995               -8.24528858               44.70623452               -3.35079267
              14.77350270                4.73056729               47.78886791                0.00010000                3.86103524               -0.83083731               -2.45146088               -8.54387634               45.01346508               -0.49755877
              15.81376825                3.98043494               47.81816892                0.00010000                4.11635088               -1.21256755               -2.70766370               -8.59543898               45.57768963                2.39212198
              16.85582971                3.22658869               47.85412632                0.01263373                4.16033470               -1.34424587               -2.87614116               -8.66378251               46.43665897                5.34973777
              17.89697494                2.46906798               47.89954628                0.14509123                2.88131677               -1.02850100               -2.90699101               -4.94298563               27.47878790                8.31955355
              18.91345605                1.79100643               47.55412183                0.34263118                1.26641671                0.34959775               -2.41491953               -0.60156520                4.10684719                2.07863457
              19.92230328                1.12664429               47.12835943                0.75202040                0.88472272                1.60585222               -3.67130064               -0.00595134                0.16446348               -4.32305956
              10.31247512                9.20551440               48.44260557                0.81488754               -0.09928725               -0.42406591                1.14514233               -0.05892097                0.06460472                3.32346315
              11.31148225                8.57087784               47.98935991                0.28005395                0.10312090                0.19942568               -0.45607422                0.10277194                0.79278643               -2.87817575
              12.31453754                7.93739000               47.55071408                0.00010000                1.98393261                0.80603405               -1.85708917               -4.27284437               27.59426743               -8.73249681
              13.35116090                7.21193079               47.63310252                0.00010000                3.78430580                0.46906284               -2.19312124               -8.73332368               53.68632345               -5.85112285
              14.39022366                6.47226558               47.71610005                0.00010000                4.05688923               -0.15745103               -2.46441400               -9.24791530               53.82839525               -3.03509587
              15.43229869                5.72254858               47.80105835                0.00010000                4.30697234               -0.79724361               -2.67039383               -9.46136478               54.16912076               -0.25996924
              16.47636310                4.96806840               47.89041391                0.00010000                4.38838246               -1.24857336               -2.79083019               -9.40776073               54.78141734                2.55751122
              17.52006634                4.21328759               47.98684785                0.01757597                4.14102879               -1.32131147               -2.78475522               -9.30678845               55.65983007                5.48389693
              18.55918368                3.46030952               48.09238997                0.15214461                2.62386986               -0.76724085               -2.54562687               -5.17926032               32.21866551                8.40387361
              19.57254373                2.79500737               47.71714732                0.35233133                1.06811342                0.40665360               -2.09269268               -0.51262043                4.24128403                1.91657694
              20.58054595                2.14163669               47.25936294                0.75780185                0.80022144                1.40618513               -3.46608950               -0.00068092                0.19509859               -4.53632253
              10.94340946               10.20176667               48.33533702                0.80684676                0.00494271               -0.32566632                0.86562914               -0.05893413                0.06607461                3.29349752
              11.94345889                9.57344073               47.85120817                0.26967865                0.23889496                0.31421719               -0.87610773                0.08738031                0.97889837               -2.85226872
              12.94818736                8.94595441               47.38530677                0.00010000                2.53265089                0.89981504               -2.35652256               -4.74771412               32.37247686               -8.56295359
              13.99411191                8.21749017               47.52853916                0.00010000                4.63920424                0.55804531               -2.58761825               -9.50966320               62.82511288               -5.42768756
              15.04097144                7.47113137               47.67104603                0.00010000                4.71803380               -0.19811397               -2.74842597               -9.90456848               62.87822530               -2.62917874
              16.08847258                6.71462241               47.81452289                0.00010000                4.69512920               -0.82772135               -2.83465616               -9.87631115               63.21845704               -0.03788007
              17.13487403                5.95546348               47.96280339                0.00010000                4.44901229               -1.21552143               -2.81620180               -9.73926488               63.95496742                2.60629581
              18.17745283                5.20016246               48.11971318                0.02269226                3.83979651               -1.28001515               -2.63393341               -9.47554448               64.93650012                5.53134641
              19.21166996                4.45372317               48.28576103                0.15928540                2.22118205               -0.56453988               -2.08886678               -5.19880245               36.90831982                8.55352370
              20.22187647                3.79913951               47.87867439                0.36207354                0.86805248                0.39134281               -1.73814593               -0.42449374                4.28532423                1.95178227
              21.22903101                3.15476800               47.38860392                0.76360503                0.71545403                1.22505992               -3.23786825               -0.00190172                0.22127496               -4.52565804
              11.56794833               11.19900107               48.22769375                0.79874781                0.10937966               -0.22802091                0.58363305               -0.05962886                0.08199246                3.26520583
              12.56904212               10.57716218               47.71309203                0.25914454                0.37927471                0.43174656               -1.29617442                0.04763326                1.23509382               -2.88428140
              13.57553382                9.95538630               47.22145797                0.00010000                3.33742773                0.95453806               -2.83330517               -5.29699154               37.35680811               -8.13105655
              14.63579068                9.22309170               47.42861587                0.00010000                5.97331103                0.20828925               -2.93786677               -9.93855523               72.06140619               -4.56384356
              15.69500004                8.46830330               47.62984272                0.00010000                5.73248392               -0.71160278               -2.97670776               -9.42552257               71.72879567               -2.02102248
              16.75044036                7.70599416               47.82878551                0.00010000                5.05188589               -0.90068040               -2.94403437               -8.95706476               71.97623530                0.10327223
              17.79603776                6.94375797               48.03312533                0.00010000                4.09276992               -0.91359357               -2.79707252               -8.92676829               73.00308626                2.29977219
              18.83229575                6.18768729               48.25039753                0.02798686                3.00964129               -0.98705334               -2.45430222               -9.00066171               74.37543328                5.02228414
              19.85623058                5.44901872               48.47972783                0.16657404                1.53566372               -0.33483111               -1.55505290               -5.14105851               41.74109624                8.38439183
              20.86300903                4.80283422               48.04039156                0.37178335                0.65101729                0.32779016               -1.34275424               -0.38839814                4.32672105                2.18701519
              21.86925093                4.16613789               47.51812407                0.76939804                0.62419018                1.04833918               -2.97525139               -0.00993579                0.26704381               -4.35590019
              12.18589467               12.19720626               48.12008075                0.79054990                0.21316591               -0.13111341                0.30299935               -0.06007766               -0.03682674                2.83645127
              13.18802632               11.58207566               47.57395833                0.24890662                0.52116737                0.54947547               -1.72072533               -0.04691180                1.78361501               -2.59030563
              14.19631801               10.96504517               47.06408479                0.00010000                4.71987373                0.87494069               -3.27266148               -6.10616397               42.94913414               -6.02509050
              15.28242380               10.22165595               47.34036013                0.00010000                8.66202601               -1.76748754               -3.21644441               -8.02937737               81.30066921               -2.72815320
              16.36955853                9.45689931               47.59543221                0.00010000                7.57264081               -1.50630517               -3.13839886               -6.47739913               79.96606624               -1.12280422
              17.43387662                8.69660881               47.84289551                0.00010000                5.25435002               -0.95324737               -2.99895637               -5.58447757               80.02569013                0.11252624
              18.47464553                7.93719160               48.09652424                0.00010000                2.91511140               -0.32739962               -2.74501319               -5.90932396               81.49484729                1.40862536
              19.49217884                7.18042139               48.36996212                0.03357873                0.95281593                0.24232060               -2.29922639               -6.54869134               83.91121974                3.23501727
              20.49370185                6.44702655               48.66781293                0.17405709                0.24052465                0.15829926               -0.98330271               -4.77695077               47.27278813                6.07735262
              21.49698934                5.80569531               48.20468763                0.38159479                0.42615533                0.23553137               -0.89560258               -0.46890142                4.72764947                2.17688675
              22.50222496                5.17573478               47.64892871                0.77513139                0.52356219                0.87729906               -2.67091855               -0.03622153                0.18168695               -3.52732301
              12.79700796               13.19637880               48.00404907                0.89265381                0.32570135               -0.08274512               -0.01092668                0.28861813                1.29939812                2.40838076
              13.80026497               12.58815169               47.44128416                0.62111205                0.84111445                0.60760291               -2.11236835                0.04918043                4.48452670               -2.24121979
              14.81383025               11.97288511               46.94198770                0.48003705                9.15420059                0.78399461               -3.56327471               -8.26926358               49.48188099               -4.28903060
              15.98334899               11.18774195               47.27663132                0.44707570               13.83344780               -3.39140068               -3.38609630               -6.64287716               89.25322677               -1.47991892
              17.09049921               10.43817720               47.57106126                0.43765048                8.75547632               -1.87221139               -3.21994975               -2.94656960               86.86127736               -0.58176394
              18.15845851                9.68692921               47.85567597                0.44635926                5.17697430               -0.96795962               -3.00260126               -2.59017127               86.84786883                0.10077507
              19.19403869                8.93720998               48.14684504                0.47265142                1.65142368                0.00183754               -2.67272911               -2.78045978               88.57717088                0.82024731
              20.19148699                8.19253370               48.46180620                0.51870014               -2.93105188                1.21123043               -2.16212320               -4.32044943               91.89706243                1.90419274
              21.13541765                7.45218471               48.81321227                0.58953235               -3.32821106                0.51581608               -0.59325101               -5.07786222               54.12343716                4.17189598
              22.12492276                6.80754485               48.36442086                0.69397526               -0.34850485                0.18495408               -0.42723474               -0.63169895                7.92662324                2.02903687
              23.12844756                6.18368387               47.79313534                0.88942168                0.35247920                0.79490900               -2.26999120                0.23616190                1.87604669               -2.76340726
               6.67090162                3.39114450               50.12691306                0.99502096               -0.79052640               -0.87238868                2.92431475               -0.18373426               -2.10252618                2.42495587
               7.66299635                2.69189683               49.83333930                0.78860943               -0.79102783               -0.54193864                2.09821674               -0.17460295               -2.87986023               -1.40538779
               8.65508106                1.98938125               49.52474274                0.58402653               -1.05590526               -0.28461171                1.19490471               -0.56160135               -2.75432569               -1.05897971
               9.64187825                1.27088257               49.23417833                0.49131980               -1.42166837               -0.07744062                0.33150576               -0.66394413               -0.67212948               -0.31969475
              10.62664769                0.52477197               48.96720537                0.44740878               -1.29680667                0.19526003               -0.58345352               -0.56561553                1.49019158               -0.24146594
              11.61594211               -0.25040308               48.71927821                0.44615493               -0.50183737                0.45996423               -1.54207792               -0.32604120                2.61814009               -0.01921790
              12.61661095               -1.04222689               48.47426027                0.48640234                0.58101662                0.71257495               -2.48761658               -0.27587503                1.96558528                0.19193511
              13.62756245               -1.83311037               48.21332710                0.57005128                1.32693642                0.95026748               -3.37129906               -0.34108198                0.14498176                0.34237347
              14.64314967               -2.61357317               47.93203024                0.70230478                1.60848964                1.17537191               -4.22292134               -0.32092082               -1.77101094                0.46510391
              15.65973224               -3.38366564               47.63222786                0.89220159                1.68671790                1.39888220               -5.09071217               -0.22044407               -2.32293874                1.06795966
              16.67688403               -4.14831136               47.33854342                1.00000000                1.71517920                1.71544573               -5.98153326               -0.26460141               -1.92662004               -1.78785144
               7.36831194                4.38242061               50.00522172                0.91642353               -0.61799903               -0.86674245                2.58172335               -0.07392714                0.72350543                3.03304667
               8.36213195                3.68647745               49.70667256                0.44893175               -0.41698806               -0.45747243                1.73896866               -0.14470166                2.05095883               -2.38180363
               9.35997218                2.98653513               49.43507479                0.08161117                0.27057482               -0.01560148                1.08340311               -0.98820168                4.49827351               -5.11113590
              10.36754344                2.27010817               49.18543666                0.00010000                1.08310943               -0.54422359                0.33326843               -2.07051792                6.40844289               -3.59393828
              11.38163437                1.52672457               48.95226695                0.00010000                1.43188440               -0.78880506               -0.44368506               -3.18790807                8.19475952               -1.85927926
              12.39618113                0.75419656               48.73891339                0.00010000                1.17857372               -0.41178797               -1.28573234               -3.86460248                9.30889918               -0.74769879
              13.40520584               -0.03510114               48.52831815                0.00010000                0.68218187                0.16620358               -2.12538931               -3.63297013                8.69503792                0.38483991
              14.40982477               -0.82360770               48.30193021                0.06835777                0.50061297                0.47124922               -2.90603632               -2.51050923                6.98336794                2.32256276
              15.41521810               -1.60181945               48.05565927                0.26472103                0.75360615                0.72937672               -3.66754152               -0.98548988                5.38910557                4.58964780
              16.42489689               -2.36967682               47.79596100                0.55376803                1.18328193                1.18447469               -4.42957805               -0.32799579                3.34777618                2.67797773
              17.43888374               -3.13115690               47.50763919                0.89484368                1.39868452                1.71129551               -5.24472994               -0.24669679                1.98293716               -2.52623474
               8.06130940                5.37380965               49.89620900                0.83780177               -0.53216021               -0.83039887                2.34048377               -0.08638503                0.35331859                3.58069108
               9.05598780                4.68274739               49.56079336                0.31352278               -0.48115470               -0.28494215                1.25829177               -0.12078912                2.29181695               -3.37437171
              10.05168631                3.98906922               49.26450409                0.00010000                0.21453245                0.46542399                0.47205137               -2.02567557                9.37381523              -10.92022564
              11.06027845                3.25999810               49.07105183                0.00010000                1.35574160               -0.83389295               -0.13118476               -4.54360907               15.85386831               -6.93380786
              12.07880114                2.50899587               48.90457890                0.00010000                2.00986637               -1.42251644               -0.94649247               -6.08046912               17.44212228               -3.84042987
              13.10047577                1.74136116               48.74334587                0.00010000                2.14773306               -1.20511236               -1.66619139               -6.94438765               17.86787309               -1.50786199
              14.12175580                0.96109719               48.58539320                0.00010000                2.17974014               -0.64314895               -2.35028358               -6.79646803               18.15627310                0.88855916
              15.14407058                0.17631461               48.42910117                0.00010000                2.38765982               -0.35753929               -3.00012532               -5.26859589               17.69337536                4.25844692
              16.16950900               -0.59898564               48.26051255                0.12102609                1.92195976               -0.79179362               -2.91015409               -2.62093560               12.11155870                9.07679106
              17.18250977               -1.35997614               47.99042014                0.31187778                1.27006348                0.42862882               -3.59597508               -0.84952071                4.09764148                4.15711108
              18.19491027               -2.11408545               47.66027454                0.73447906                1.24004928                2.00255826               -4.59884434               -0.62662600                1.14245810               -3.43350109
               8.74870876                6.36581263               49.78592786                0.82670460               -0.42521695               -0.74563232                2.05044706               -0.06339546                0.05921588                3.45864632
               9.74445659                5.68077860               49.41450612                0.29821977               -0.32504078               -0.14017569                0.81952758                0.04916942                0.80142662               -3.28836285
              10.74220795                4.99584361               49.05819246                0.00010000                0.61440078                0.65423957               -0.28423254               -2.61288406               14.28435463              -11.40208765
              11.75674461                4.25343031               48.95641423                0.00010000                1.82269889               -0.36349582               -0.82468811               -5.48223493               26.73796088               -7.12943882
              12.77866193                3.49827424               48.85005392                0.00010000                2.42237278               -0.84712087               -1.42739646               -6.35210729               26.73275430               -4.19294598
              13.80519207                2.73009431               48.74871474                0.00010000                2.78305494               -1.02730222               -2.03629872               -6.99592540               27.18359275               -1.41144728
              14.83432302                1.95203588               48.65132348                0.00010000                2.96718042               -0.96440956               -2.60037402               -7.03341296               27.58455231                1.43127847
              15.86453567                1.16924152               48.55744669                0.00010000                3.23835600               -0.92408281               -3.05612500               -6.68916696               28.32155162                4.53900379
              16.89909014                0.38234468               48.47361878                0.12350872                2.92353080               -1.66295800               -3.59662849               -3.93312857               18.52627871                8.88107617
              17.92300629               -0.36110424               48.18298760                0.30902130                1.77398404                0.01493776               -3.19848469               -0.66182792                4.20425854                3.27875341
              18.93456983               -1.09110574               47.80972812                0.73039731                1.15635356                2.17301722               -4.30886915               -0.08590960                0.12976666               -3.79543439
               9.43010955                7.35889700               49.67484060                0.81882568               -0.31693406               -0.64020700                1.76420677               -0.06154673                0.06408872                3.43326488
              10.42694021                6.67994387               49.27052202                0.28789691               -0.16663140               -0.02564468                0.38143519                0.10475821                0.61892645               -3.13843272
              11.42677692                6.00215401               48.87748899                0.00010000                1.06314538                0.65588016               -0.86376576               -3.22823399               18.81667761               -9.76500938
              12.44820312                5.25272819               48.83694983                0.00010000                2.41590336                0.07719859               -1.38230142               -6.66305223               36.33570274               -7.08529429
              13.47509499                4.49205345               48.79515704                0.00010000                2.92962558               -0.46776424               -1.89309021               -7.21593688               36.32554665               -4.10268801
              14.50679563                3.72081511               48.75519232                0.00010000                3.34226740               -0.85028180               -2.38720771               -7.61624748               36.61551120               -1.23540855
              15.54194034                2.94180899               48.71956158                0.00010000                3.65914101               -1.05203903               -2.83962348               -7.69242937               37.17350655                1.68435478
              16.57997845                2.15783296               48.69064852                0.00382999                3.96259233               -1.18546975               -3.25382492               -7.63449619               38.04722490                4.84364104
              17.62119218                1.36775520               48.67200861                0.13015626                3.13725893               -1.25982416               -3.65763147               -4.42569010               23.91526268                8.15769128
              18.64272363                0.64032261               48.35920668                0.31808279                1.60014415                0.27216578               -2.93265264               -0.74261823                4.74539892                2.22406621
              19.65319507               -0.07062510               47.95340699                0.73577585                1.04714397                1.91812814               -4.13667218               -0.01496059                0.16578690               -4.34380211
              10.10538409                8.35300849               49.56440276                0.81097505               -0.20893407               -0.53831464                1.47819818               -0.06082122                0.06415015                3.46559353
              11.10329475                7.68026571               49.12730264                0.27766167               -0.02625682                0.09088738               -0.05477049                0.11893162                0.72877753               -3.07039734
              12.10485895                7.00896121               48.70361015                0.00010000                1.51446860                0.73014134               -1.40302082               -3.77216416               23.52432875               -9.30289309
              13.13358412                6.25497428               48.72214088                0.00010000                3.06986527                0.33516795               -1.87386643               -7.75641492               45.63572406               -6.63319470
              14.16625626                5.48891896               48.74150961                0.00010000                3.47637274               -0.21085311               -2.30468901               -8.24521739               45.75058173               -3.82866139
              15.20311158                4.71308868               48.76317395                0.00010000                3.86001678               -0.72668631               -2.69800585               -8.52908963               46.06939827               -0.97018204
              16.24345660                3.93099510               48.78951591                0.00010000                4.13939825               -1.08585847               -3.04245752               -8.55651281               46.66507318                1.95363055
              17.28589954                3.14553212               48.82330553                0.00856575                4.23150471               -1.20276301               -3.32102690               -8.56132357               47.59211388                5.00047257
              18.32808669                2.35714819               48.86774392                0.13688927                3.03173455               -0.91042107               -3.50122746               -4.96426930               29.04986356                8.18812143
              19.34653423                1.64433908               48.52883725                0.32728154                1.40396769                0.45749826               -2.66437155               -0.70690775                5.10707073                1.84028511
              20.35616604                0.94725683               48.09024095                0.74130234                0.96318105                1.68641908               -3.97857956               -0.00074617                0.20583620               -4.79205713
              10.77437869                9.34813071               49.45428432                0.80318863               -0.10125704               -0.43767379                1.19212144               -0.06047862                0.06711176                3.46794756
              11.77336612                8.68176162               48.98463486                0.26748704                0.11231894                0.20918078               -0.49001089                0.11537999                0.90423028               -3.02294304
              12.77662507                8.01675684               48.53177124                0.00010000                1.98754768                0.83497567               -1.92793270               -4.26172171               28.34410551               -9.10436695
              13.81311707                7.25943154               48.61053083                0.00010000                3.77255877                0.53279913               -2.32159875               -8.72805232               54.94954276               -6.25344839
              14.85207624                6.48783639               48.69049090                0.00010000                4.05103094               -0.06131518               -2.66238501               -9.22364153               55.10232723               -3.44258983
              15.89413769                5.70628139               48.77301894                0.00010000                4.31451955               -0.66908585               -2.95074889               -9.40913551               55.46370856               -0.64832874
              16.93836663                4.92009182               48.86073891                0.00010000                4.42305982               -1.09261433               -3.16928974               -9.32385292               56.13020245                2.22162951
              17.98259889                4.13377770               48.95673049                0.01337969                4.23666048               -1.15867362               -3.28098583               -9.18018190               57.13988478                5.25758268
              19.02309984                3.34954678               49.06393870                0.14369466                2.79389745               -0.65479268               -3.20629174               -5.18201481               34.02154108                8.42814607
              20.03847684                2.64947258               48.69497365                0.33663493                1.21223980                0.52013145               -2.36791634               -0.60123858                5.28990672                1.73931319
              21.04734464                1.96310328               48.22317028                0.74693904                0.88678033                1.49596563               -3.80207806                0.00618870                0.24161160               -4.96261524
              11.43691270               10.34425502               49.34418340                0.79545988                0.00635227               -0.33773603                0.90472859               -0.06062160                0.06835616                3.43579401
              12.43697622                9.68444933               48.84221006                0.25732501                0.25209479                0.32932724               -0.92481575                0.09796097                1.12548851               -2.99579991
              13.44195459                9.02566073               48.36135179                0.00010000                2.54836497                0.93195587               -2.43288664               -4.73443684               33.28018914               -8.91424352
              14.48794352                8.26563026               48.50195649                0.00010000                4.64894955                0.61739344               -2.72771191               -9.48813148               64.32886382               -5.77542443
              15.53493359                7.48769266               48.64251583                0.00010000                4.73649567               -0.10399984               -2.96304440               -9.85070273               64.39223127               -2.95747977
              16.58267343                6.69970696               48.78474154                0.00010000                4.72748214               -0.69619638               -3.13716728               -9.78251945               64.75998579               -0.33167664
              17.62948323                5.90914282               48.93277179                0.00010000                4.50837564               -1.04961897               -3.22055269               -9.61071745               65.57595839                2.37289488
              18.67284095                5.12235865               49.09102406                0.01835219                3.96341431               -1.10508017               -3.15497931               -9.34133296               66.77035706                5.40715916
              19.70875151                4.34405234               49.26173316                0.15059574                2.40560093               -0.45418027               -2.78917899               -5.19534544               38.93718879                8.71021949
              20.72095297                3.65474170               48.85998119                0.34600192                1.01384497                0.50231334               -2.02856619               -0.49763207                5.35192396                1.84465681
              21.72902841                2.97717614               48.35462100                0.75245907                0.80754484                1.32236932               -3.59088149                0.00559586                0.27223842               -4.89643796
              12.09277764               11.34137599               49.23368155                0.78755758                0.11419881               -0.23848136                0.61493328               -0.06131210                0.08529722                3.40653418
              13.09391963               10.68834816               48.69982310                0.24731769                0.39888777                0.45193051               -1.35960799                0.04999292                1.42755211               -3.02877926
              14.10075539               10.03539595               48.19271100                0.00010000                3.37014439                0.97776300               -2.91298618               -5.29032108               38.44530646               -8.45167669
              15.16132251                9.27177941               48.39850342                0.00010000                6.01150485                0.25292844               -3.08208365               -9.90432526               73.82210103               -4.83755991
              16.22098549                8.48575640               48.59899100                0.00010000                5.78573134               -0.63053115               -3.19883876               -9.35385395               73.48659888               -2.25718208
              17.27703714                7.69235746               48.79787174                0.00010000                5.12575520               -0.78513798               -3.25578871               -8.83742647               73.75930350               -0.09108509
              18.32350060                6.89909945               49.00327003                0.00010000                4.19127827               -0.76465878               -3.20840312               -8.76604627               74.88986629                2.16124193
              19.36086271                6.11167609               49.22356640                0.02350397                3.16546427               -0.80721046               -2.97168240               -8.85446758               76.58517494                4.96179021
              20.38680988                5.34046318               49.46096384                0.15764952                1.72688439               -0.21033136               -2.27447864               -5.14791005               44.00997419                8.64292831
              21.39540039                4.65951884               49.02563604                0.35538443                0.78889035                0.43137415               -1.63752610               -0.45673216                5.39627787                2.15671746
              22.40258769                3.98955066               48.48674152                0.75806135                0.71872933                1.14992718               -3.33407854               -0.00307259                0.32192939               -4.66309057
              12.74174211               12.33948539               49.12322528                0.77974595                0.22140071               -0.13950521                0.32654747               -0.06178700               -0.04045934                2.96094769
              13.74395611               11.69348794               48.55637180                0.23736964                0.54874083                0.57423218               -1.79902971               -0.06375182                2.03926326               -2.71880155
              14.75271692               11.04521599               48.03094299                0.00010000                4.77702305                0.86773136               -3.34652712               -6.08860692               44.25624419               -6.25089321
              15.83949657               10.27068883               48.30746779                0.00010000                8.72807681               -1.72983393               -3.35842716               -7.99578971               83.33071747               -2.89343450
              16.92727846                9.47508203               48.56296878                0.00010000                7.65426400               -1.44119943               -3.35826938               -6.41790488               81.94689140               -1.24749552
              17.99258185                8.68400420               48.81145008                0.00010000                5.37826054               -0.86470278               -3.30715947               -5.49251916               82.02264209                0.01729318
              19.03484367                7.89384964               49.06724471                0.00010000                3.09030049               -0.21870122               -3.14709258               -5.76810777               83.60302237                1.34969126
              20.05438786                7.10621444               49.34484622                0.02897435                1.15534471                0.36938851               -2.78793553               -6.41745895               86.50487487                3.21256593
              21.05795056                6.33984571               49.65481159                0.16494896                0.41714850                0.35302791               -1.70075885               -4.72891537               49.82205813                6.30651871
              22.06273083                5.66336919               49.19444088                0.36480201                0.54763775                0.32944566               -1.18321496               -0.55557172                5.80333380                2.21058334
              23.06890332                5.00017468               48.62062345                0.76359260                0.61724847                0.97981515               -3.02284716               -0.03380320                0.23482713               -3.74024144
              13.38353681               13.33858588               49.00400716                0.88728646                0.33771865               -0.08995058                0.00278432                0.30416227                1.35464229                2.51534770
              14.38691399               12.69983281               48.41971656                0.61545974                0.91227774                0.63448707               -2.20383518                0.00402280                4.89604342               -2.35112805
              15.40178236               12.05275058               47.90600440                0.47892385                9.23133415                0.75345937               -3.63023840               -8.22595984               51.06002242               -4.45111824
              16.57154068               11.23718273               48.24206428                0.44695582               13.87648322               -3.35060971               -3.52004643               -6.58649864               91.48234153               -1.54955156
              17.67931203               10.45693241               48.53783542                0.43771564                8.84392374               -1.81496265               -3.42709535               -2.90260987               89.00904682               -0.62707403
              18.74841915                9.67506340               48.82426304                0.44613892                5.33080873               -0.89407956               -3.29437689               -2.52661970               89.00071266                0.07362328
              19.78592820                8.89472542               49.11837789                0.47167479                1.90491538                0.08757796               -3.05471950               -2.69152407               90.83953640                0.81594060
              20.78651746                8.11906386               49.43821089                0.51631549               -2.54256864                1.28494227               -2.61962661               -4.14712496               94.74846484                1.91341334
              21.73507683                7.34752373               49.80418929                0.58487799               -3.12787345                0.76780229               -1.29656334               -4.93517909               57.00318201                4.36137926
              22.72395999                6.66610776               49.35895380                0.68546853               -0.33880969                0.27385684               -0.69527706               -0.79592291                9.15101680                2.09545963
              23.72830063                6.00914697               48.76893272                0.88355551                0.43406442                0.89722841               -2.60305036                0.24365252                2.00329842               -2.90579245
               6.94728669                3.53929665               51.15666547                0.98642146               -0.82219208               -0.90392961                3.04426723               -0.19441486               -2.16929803                2.53280954
               7.93906477                2.80592498               50.85461425                0.77767245               -0.81885454               -0.56111267                2.16788103               -0.18718741               -2.99098131               -1.48268289
               8.93090960                2.06909401               50.53678263                0.57965390               -1.06427442               -0.29247669                1.21429998               -0.55670999               -2.87994945               -1.04230254
               9.91777928                1.31633912               50.23738544                0.48988286               -1.39905085               -0.07033017                0.30934346               -0.64540338               -0.79203292               -0.33447562
              10.90292858                0.53655908               49.96105976                0.44713665               -1.25868164                0.21473150               -0.64825575               -0.54746810                1.33714975               -0.24814000
              11.89260565               -0.27153264               49.70334042                0.44589432               -0.48044167                0.49115384               -1.64947300               -0.31784208                2.46474530               -0.02384041
              12.89331975               -1.09618247               49.44864882                0.48493416                0.58155417                0.75482941               -2.63895465               -0.26226558                1.86153670                0.19021919
              13.90423673               -1.92059721               49.17865542                0.56597366                1.33959971                1.00290359               -3.56835851               -0.32297321                0.09476036                0.34487860
              14.92011174               -2.73535521               48.88862259                0.69400142                1.65720706                1.23984933               -4.46486057               -0.31053791               -1.80988012                0.45827514
              15.93738087               -3.54003275               48.57992494                0.87730938                1.76733624                1.47409029               -5.37682307               -0.22241365               -2.37815962                1.06385976
              16.95545847               -4.33910943               48.27712566                1.00000000                1.80775952                1.80177190               -6.30953616               -0.28423893               -1.98851205               -1.81968609
               7.67871421                4.53025735               51.03150486                0.90123964               -0.64199961               -0.89413086                2.68534061               -0.07652959                0.80458227                3.18170776
               8.67229421                3.80031385               50.72430322                0.43052916               -0.42893913               -0.47296078                1.79383150               -0.15121515                2.22493171               -2.52640465
               9.67013543                3.06616924               50.44601717                0.07524650                0.26492484               -0.00718918                1.10479414               -0.99720829                4.71807702               -5.35295015
              10.67759271                2.31563582               50.18872437                0.00010000                1.06271767               -0.56153960                0.32155257               -2.05748273                6.56436779               -3.86028025
              11.69138978                1.53870640               49.94763279                0.00010000                1.41026462               -0.77913425               -0.48641941               -3.14248436                8.30438462               -2.20372284
              12.70579800                0.73337890               49.72571185                0.00010000                1.19197998               -0.41976400               -1.35763914               -3.79846685                9.38919900               -1.09164892
              13.71522938               -0.08863417               49.50656581                0.00010000                0.73976836                0.14143368               -2.22826389               -3.58024296                8.80729493                0.06409557
              14.72059337               -0.91056817               49.27219524                0.06236301                0.57473779                0.47005099               -3.04348299               -2.49422577                7.13802592                2.01897647
              15.72672413               -1.72295672               49.01813215                0.25232663                0.82202380                0.76810178               -3.84031181               -0.98633275                5.55733808                4.68091953
              16.73703384               -2.52529185               48.75062387                0.53095286                1.24843092                1.24087565               -4.63991114               -0.33761099                3.49216508                2.76461812
              17.75169275               -3.32109171               48.45396516                0.87910112                1.46589083                1.79265622               -5.49261078               -0.27160551                2.10255832               -2.60209663
               8.40564309                5.52141403               50.92001995                0.82469558               -0.55145222               -0.85036304                2.42546812               -0.08657171                0.35049311                3.75239211
               9.40012857                4.79646576               50.57352230                0.29914388               -0.49998160               -0.29422023                1.28826479               -0.11365753                2.44000513               -3.56004377
              10.39564346                4.06895023               50.26921771                0.00010000                0.19819487                0.49034814                0.46988401               -2.06248489                9.75489245              -11.48840342
              11.40409247                3.30510833               50.06941590                0.00010000                1.33461748               -0.82463855               -0.19741733               -4.56636319               16.21279405               -7.54224933
              12.42233581                2.52097640               49.89472353                0.00010000                1.99422060               -1.41748222               -1.02701244               -6.03150264               17.74208428               -4.50703820
              13.44397688                1.72007208               49.72611103                0.00010000                2.16630764               -1.23055645               -1.78508137               -6.89300421               18.22097235               -2.18548144
              14.46566196                0.90664621               49.56110996                0.00010000                2.23489376               -0.69597621               -2.51171334               -6.74413721               18.54364180                0.23121276
              15.48867476                0.08880381               49.39814982                0.00010000                2.47233994               -0.39232534               -3.19678477               -5.24364230               18.49677197                3.65192896
              16.51510876               -0.71999317               49.23078456                0.11321393                2.00444443               -0.71076541               -3.04019755               -2.67384614               12.88395625                8.46508706
              17.52876365               -1.51521524               48.95380525                0.29678240                1.32586561                0.47059225               -3.72560184               -0.88187355                4.29781918                4.08362639
              18.54162608               -2.30325630               48.61340026                0.72386944                1.28624301                2.08879924               -4.77707345               -0.64994801                1.17169564               -3.76122332
               9.12687931                6.51325009               50.80680070                0.81420119               -0.43944428               -0.76243866                2.12639111               -0.06481649                0.06099215                3.60935137
              10.12248486                5.79442945               50.42276321                0.28445502               -0.33180739               -0.14448884                0.83183377                0.06581597                0.87043192               -3.44936831
              11.12024316                5.07597620               50.05521324                0.00010000                0.58772044                0.67641744               -0.31176134               -2.61478630               14.70173822              -11.94813510
              12.13423927                4.29914305               49.94782212                0.00010000                1.77764065               -0.30601803               -0.89455426               -5.51089969               27.38619292               -7.77547786
              13.15579597                3.51035675               49.83520487                0.00010000                2.40144181               -0.81675193               -1.54522430               -6.34274238               27.32748000               -4.83396408
              14.18226811                2.70876777               49.72753352                0.00010000                2.79094681               -1.00370667               -2.20559330               -6.98254381               27.77912134               -2.07054659
              15.21161491                1.89744630               49.62421418                0.00010000                3.00458964               -0.94158938               -2.83028759               -7.02685990               28.24171387                0.76762937
              16.24235990                1.08158532               49.52547379                0.00010000                3.28256769               -0.88086603               -3.35070926               -6.64102965               28.96581471                3.88069785
              17.27726626                0.26282798               49.43569843                0.11581079                3.01498012               -1.50492978               -4.00409986               -4.01829306               19.64988965                7.85504234
              18.30265950               -0.51588001               49.15011441                0.29440012                1.87548293                0.09311649               -3.38808237               -0.76232002                5.05283196                2.91802883
              19.31477592               -1.27931573               48.76550277                0.72026064                1.21164165                2.26935424               -4.55159830               -0.08208527                0.15378682               -4.36878722
               9.84198805                7.50616526               50.69280773                0.80656995               -0.32692741               -0.65669736                1.83106340               -0.06299179                0.06650747                3.58623388
              10.83871878                6.79357599               50.27431868                0.27462622               -0.16769583               -0.02490060                0.37729423                0.12378349                0.69566907               -3.29555117
              11.83863413                6.08247857               49.86862289                0.00010000                1.03875760                0.67587067               -0.90758473               -3.22428208               19.32960099              -10.19508452
              12.85949393                5.29898797               49.82267042                0.00010000                2.36110536                0.13604819               -1.47400268               -6.68037542               37.18529829               -7.63045424
              13.88585624                4.50464136               49.77549079                0.00010000                2.88712648               -0.39917229               -2.04328036               -7.21299439               37.15484637               -4.69921300
              14.91723646                3.69999795               49.73025772                0.00010000                3.32254902               -0.77153746               -2.60721167               -7.61053453               37.44164537               -1.85255324
              15.95230722                2.88781442               49.68971194                0.00010000                3.66180164               -0.95580415               -3.14349145               -7.67441198               38.00617162                1.06020148
              16.99047249                2.07118649               49.65614975                0.00010000                3.99505033               -1.05345725               -3.66711402               -7.54110530               38.86614052                4.20572324
              18.03220823                1.24990823               49.63275408                0.12210173                3.25942279               -1.09638241               -4.22294193               -4.46825827               25.38354921                7.63794491
              19.05566095                0.48664709               49.32872589                0.30323063                1.73237911                0.39625873               -3.18472405               -0.86682624                5.83948592                1.83921805
              20.06685581               -0.25786922               48.91060686                0.72547485                1.11948637                2.01777946               -4.44800544               -0.00979706                0.20950013               -4.94994858
              10.55079801                8.50011614               50.57946644                0.79892954               -0.21507965               -0.55362711                1.53661932               -0.06205922                0.06719845                3.61897591
              11.54864722                7.79393143               50.12665833                0.26464481               -0.02262392                0.09677858               -0.07502648                0.13693192                0.83280045               -3.22431135
              12.55034553                7.08949362               49.68929156                0.00010000                1.49108826                0.75412218               -1.45964492               -3.75889375               24.16346181               -9.70106370
              13.57846898                6.30186401               49.70284070                0.00010000                3.00902852                0.40291183               -1.98543948               -7.75910694               46.69001485               -7.11498420
              14.61052610                5.50237331               49.71757371                0.00010000                3.42076899               -0.11168993               -2.48587022               -8.23005705               46.79810450               -4.35662816
              15.64688436                4.69333702               49.73490780                0.00010000                3.82060134               -0.59917661               -2.96486894               -8.49773525               47.11348509               -1.51606856
              16.68693813                3.87833022               49.75731977                0.00010000                4.12798117               -0.92846559               -3.41541273               -8.49362307               47.71943679                1.41642538
              17.72944398                3.06051617               49.78770578                0.00449903                4.27511835               -1.02328845               -3.82931992               -8.41190682               48.68157349                4.52800784
              18.77244050                2.24090033               49.82952173                0.12860825                3.18282235               -0.75125151               -4.19460689               -4.96539473               30.80087537                7.90835344
              19.79310043                1.49204517               49.50083440                0.31209636                1.55860504                0.60013021               -2.96324685               -0.82055620                6.33266075                1.51581307
              20.80361260                0.76103986               49.04878784                0.73081544                1.05121678                1.79367759               -4.34324546                0.00592469                0.25855795               -5.35641294
              11.25311628                9.49509271               50.46644799                0.79150225               -0.10363427               -0.45154073                1.24212843               -0.06185280                0.06979088                3.62035005
              12.25207994                8.79551156               49.97955969                0.25489475                0.12036994                0.22025289               -0.52611800                0.13106784                1.04144721               -3.17449319
              13.25552368                8.09756102               49.51215543                0.00010000                1.96760809                0.86180796               -1.99233151               -4.23830900               29.13007947               -9.48366341
              14.29143210                7.30704621               49.58667054                0.00010000                3.71292047                0.60725403               -2.44840684               -8.70486494               56.22633089               -6.68031767
              15.32978209                6.50240756               49.66285235                0.00010000                3.99463709                0.05541787               -2.86885977               -9.17634348               56.37403817               -3.89382106
              16.37132484                5.68801442               49.74204337                0.00010000                4.27367604               -0.51004688               -3.25631607               -9.33152400               56.73741330               -1.10006441
              17.41525561                4.86924511               49.82702812                0.00010000                4.41697019               -0.89699791               -3.59717192               -9.20605729               57.43517290                1.80368283
              18.45966424                4.05072072               49.92122814                0.00922721                4.30578646               -0.95232219               -3.86143529               -8.99536420               58.53832764                4.93631191
              19.50137134                3.23488320               50.02826414                0.13517416                2.97230202               -0.49989536               -3.99494196               -5.15274604               36.02150757                8.33861805
              20.51911029                2.49864969               49.66978899                0.32102344                1.38067876                0.66625432               -2.70097960               -0.69760999                6.59174875                1.49343602
              21.52898491                1.77800433               49.18332138                0.73612547                0.98746282                1.61140671               -4.20456206                0.01464090                0.30126444               -5.46330819
              11.94872327               10.49108533               50.35343159                0.78398897                0.00769984               -0.35014191                0.94633423               -0.06213919                0.07126154                3.58584431
              12.94880027                9.79833649               49.83271186                0.24521594                0.26607174                0.34566455               -0.97653941                0.10641136                1.30542797               -3.14575971
              13.95404470                9.10672978               49.33664904                0.00010000                2.53624360                0.96002718               -2.50162600               -4.70457222               34.23358143               -9.26945892
              14.99952514                8.31400909               49.47398492                0.00010000                4.59931592                0.68914963               -2.86313735               -9.43637602               65.84660709               -6.14126647
              16.04603102                7.50348166               49.61178514                0.00010000                4.69455978                0.01495764               -3.18636695               -9.76456993               65.90036524               -3.32097524
              17.09341633                6.68313609               49.75177954                0.00010000                4.70398305               -0.52752526               -3.46931866               -9.65344211               66.27512876               -0.67584186
              18.14011068                5.86039026               49.89839234                0.00010000                4.52411352               -0.83676056               -3.68528220               -9.43907713               67.14791687                2.07812360
              19.18389860                5.04146973               50.05661359                0.01398344                4.06729604               -0.88098953               -3.78007996               -9.14233216               68.51023630                5.21940157
              20.22145660                4.23090242               50.22997745                0.14191648                2.60642469               -0.30421732               -3.64124764               -5.15551906               41.16908479                8.78801781
              21.23602710                3.50537026               49.83810307                0.33006280                1.18697675                0.64295941               -2.38178689               -0.57939029                6.68916524                1.68606490
              22.24519614                2.79326800               49.31678629                0.74147099                0.91690401                1.44346513               -4.01583903                0.01445591                0.33684828               -5.32208982
              12.63737117               11.48808988               50.23999242                0.77644967                0.11925480               -0.24928647                0.64826426               -0.06304470                0.08875915                3.55569395
              13.63856371               10.80242485               49.68589987                0.23543857                0.41942331                0.47348415               -1.42706835                0.04826476                1.66348527               -3.17985851
              14.64575963               10.11676156               49.16319825                0.00010000                3.36944885                1.00020613               -2.97871397               -5.26467229               39.59236631               -8.76742067
              15.70595269                9.32082920               49.36697420                0.00010000                5.98020321                0.31086510               -3.21867283               -9.82838116               75.59911868               -5.12346259
              16.76536370                8.50270671               49.56586594                0.00010000                5.76973560               -0.51883391               -3.42861701               -9.24411181               75.23793204               -2.51844643
              17.82134740                7.67746391               49.76366973                0.00010000                5.13883629               -0.62863587               -3.60006218               -8.67798136               75.51516939               -0.32092980
              18.86814042                6.85250989               49.96895727                0.00010000                4.24790193               -0.56563491               -3.68886869               -8.55819091               76.72954036                1.98335255
              19.90630544                6.03310093               50.19096389                0.01903032                3.31100049               -0.57207519               -3.61098809               -8.64500927               78.69175846                4.87275308
              20.93436043                5.22879885               50.43423825                0.14872059                1.94257298               -0.04854759               -3.16147603               -5.12501488               46.47504638                8.85065218
              21.94515690                4.51150888               50.00764103                0.33914514                0.95590568                0.56094761               -1.99694962               -0.53540823                6.74541455                2.09199652
              22.95347855                3.80687363               49.45144250                0.74682546                0.83216445                1.27353792               -3.76534394                0.00448617                0.39055875               -5.00571982
              13.31879243               12.48609960               50.12661170                0.76890178                0.23014463               -0.14839390                0.35131352               -0.06379986               -0.04426227                3.09196235
              14.32109388               11.80780618               49.53797774                0.22595043                0.57772385                0.60073891               -1.88220117               -0.08704062                2.35531192               -2.85280175
              15.33034691               11.12673390               48.99715425                0.00010000                4.79592444                0.84891849               -3.40086496               -6.03282212               45.63917157               -6.47236863
              16.41701236               10.32022640               49.27319158                0.00010000                8.70835824               -1.66356317               -3.48838265               -7.92084030               85.37985949               -3.06475195
              17.50451407                9.49310499               49.52826682                0.00010000                7.65205808               -1.34021397               -3.58309177               -6.32726680               83.92534649               -1.38588924
              18.57005353                8.67056337               49.77675232                0.00010000                5.43978886               -0.73440736               -3.64755021               -5.37222683               83.99593242               -0.09704608
              19.61330985                7.84907756               50.03358239                0.00010000                3.23279672               -0.06237361               -3.62235211               -5.58969966               85.67401928                1.27154377
              20.63470946                7.03002823               50.31420341                0.02426253                1.36192530                0.54858481               -3.40928266               -6.24033242               88.98910573                3.18694436
              21.64054835                6.22993147               50.63379775                0.15573543                0.62673466                0.59290197               -2.60152176               -4.65305383               52.56141369                6.51167754
              22.64724415                5.51658921               50.18102333                0.34814826                0.70040010                0.44596525               -1.53644676               -0.65749706                7.16508457                2.22733824
              23.65455636                4.81873876               49.58847177                0.75212960                0.73122027                1.10379251               -3.44734762               -0.03118745                0.30250997               -3.97079418
              13.99268201               13.48512200               50.00410476                0.88196115                0.35065851               -0.09776008                0.01703897                0.32072144                1.41320604                2.62768638
              14.99618860               12.81443963               49.39720745                0.60990267                1.00004774                0.66334509               -2.30151445               -0.05963086                5.38030437               -2.46537977
              16.01268297               12.13373993               48.86938293                0.47778239                9.24880996                0.70060313               -3.67521147               -8.11047821               52.73920601               -4.61973543
              17.18116480               11.28755794               49.20623040                0.44683116               13.78992090               -3.26684605               -3.63698430               -6.47663142               93.74534683               -1.62052741
              18.28848139               10.47590243               49.50251935                0.43781380                8.83827462               -1.72025531               -3.63402183               -2.84237684               91.16411820               -0.67964230
              19.35793029                9.66277577               49.78978843                0.44589130                5.42000922               -0.77876031               -3.61271073               -2.44432402               91.13665823                0.03736008
              20.39688157                8.85126242               50.08575065                0.47062890                2.13572981                0.21848601               -3.50510259               -2.57798467               93.07107798                0.80373891
              21.40064489                8.04407263               50.40941366                0.51396734               -2.10715984                1.40443990               -3.20770071               -3.93673374               97.48435750                1.92897913
              22.35473838                7.24065689               50.78728100                0.58025719               -2.87226076                1.07254249               -2.18655712               -4.76321989               60.06982429                4.54429558
              23.34319967                6.52042819               50.35051532                0.67705205               -0.30913379                0.38389789               -1.02910692               -0.98981857               10.66540429                2.15620404
              24.34855570                5.82894948               49.74107434                0.87777434                0.53560271                1.02107281               -3.00829316                0.25206412                2.14492274               -3.05524226
               7.23161811                3.69212190               52.18779841                0.97784536               -0.85585414               -0.94216201                3.18087441               -0.20679008               -2.25441000                2.63609304
               8.22305957                2.92286523               51.87669692                0.76681999               -0.84536179               -0.58239283                2.24936433               -0.19691915               -3.11571465               -1.56750893
               9.21471087                2.15006611               51.54902874                0.57514320               -1.06495554               -0.30250650                1.23766357               -0.54733246               -3.01321725               -1.02252183
              10.20176046                1.36151520               51.24036520                0.48842427               -1.36375780               -0.06431017                0.28647024               -0.62467558               -0.91583191               -0.34977310
              11.18743572                0.54666313               50.95424025                0.44698199               -1.20562456                0.23232246               -0.71714630               -0.52701117                1.17708734               -0.25456347
              12.17764796               -0.29562275               50.68628875                0.44569391               -0.44545211                0.52157167               -1.76329892               -0.30756899                2.30234994               -0.02771334
              13.17852667               -1.15425649               50.42148117                0.48339405                0.59179617                0.79761190               -2.79917919               -0.24931605                1.74690836                0.18836053
              14.18948389               -2.01329243               50.14195993                0.56192597                1.35779394                1.05698656               -3.77640270               -0.30500942                0.03397458                0.34756124
              15.20568255               -2.86342680               49.84273303                0.68570755                1.70910429                1.30637622               -4.71920920               -0.29932687               -1.85771842                0.45198312
              16.22366597               -3.70378631               49.52469139                0.86251413                1.85148989                1.55215390               -5.67720868               -0.22374171               -2.44029646                1.05941157
              17.24271235               -4.53838407               49.21235270                1.00000000                1.90463769                1.89106340               -6.65294223               -0.30577735               -2.05625528               -1.85547526
               7.99880688                4.68270028               52.05892853                0.88611843               -0.66886063               -0.92801264                2.79985775               -0.08107419                0.88158080                3.33123152
               8.99211827                3.91704130               51.74254919                0.41225595               -0.44471580               -0.48893579                1.85669615               -0.15643310                2.40486618               -2.68081628
               9.98991256                3.14704105               51.45717067                0.06888001                0.25484593                0.00194888                1.12680331               -0.99947632                4.95313167               -5.60372597
              10.99721519                2.36087210               51.19186771                0.00010000                1.04110109               -0.57299177                0.30626994               -2.03933137                6.73830229               -4.15736798
              12.01073458                1.54898636               50.94253856                0.00010000                1.39084475               -0.76900526               -0.53418540               -3.08835806                8.43416714               -2.57714682
              13.02503208                0.70959296               50.71176061                0.00010000                1.20668837               -0.42736927               -1.43503735               -3.72029533                9.48811098               -1.47712468
              14.03486835               -0.14628037               50.48375287                0.00010000                0.79934325                0.11647808               -2.33647754               -3.51261724                8.93521965               -0.31249649
              15.04101895               -1.00272256               50.24106055                0.05648817                0.65339368                0.46835342               -3.18580441               -2.46175683                7.30506170                1.65230980
              16.04793622               -1.85036304               49.97885303                0.23995163                0.89441212                0.80883132               -4.01711600               -0.98460383                5.73486857                4.75634060
              17.05890719               -2.68826477               49.70316278                0.50827210                1.31580576                1.29960749               -4.85370114               -0.34629573                3.64402971                2.85243480
              18.07425234               -3.51947344               49.39778697                0.86346361                1.53451477                1.87682694               -5.74506014               -0.29877605                2.22874381               -2.68941625
               8.76131458                5.67356165               51.94471836                0.81175623               -0.57244397               -0.87442005                2.51847995               -0.08767738                0.34817480                3.93033656
               9.75559014                4.91308652               51.58655866                0.28473727               -0.52120170               -0.30232268                1.32099513               -0.10610663                2.60172167               -3.75501552
              10.75089055                4.15010509               51.27390177                0.00010000                0.17191883                0.52173427                0.46809023               -2.08799522               10.14761243              -12.07975138
              11.75902852                3.35005537               51.06710348                0.00010000                1.30285736               -0.81029349               -0.26374095               -4.57802059               16.58875336               -8.18536107
              12.77694769                2.53128303               50.88403865                0.00010000                1.97401327               -1.40793313               -1.11236346               -5.97299806               18.07301468               -5.23218644
              13.79850878                1.69582986               50.70764424                0.00010000                2.18210802               -1.25281338               -1.91200120               -6.82384289               18.59228634               -2.94685267
              14.82058985                0.84807307               50.53515893                0.00010000                2.29113182               -0.74665689               -2.68377942               -6.67032693               18.95070190               -0.53912737
              15.84433142               -0.00392536               50.36516547                0.00010000                2.54714143               -0.42109509               -3.40442979               -5.19872381               19.37395202                2.90447763
              16.87153268               -0.84725017               50.19970860                0.10536769                2.07595189               -0.60804791               -3.18082614               -2.71788557               13.74896243                7.65751022
              17.88585046               -1.67779416               49.91590811                0.28191206                1.38107405                0.53002331               -3.85128091               -0.91229805                4.53033634                3.93535064
              18.89915416               -2.50084753               49.56473307                0.71342772                1.33037067                2.18926767               -4.95538291               -0.67451195                1.20339222               -4.18278500
               9.51800360                6.66521188               51.82845568                0.80167319               -0.45508962               -0.78028549                2.20716792               -0.06654215                0.06288601                3.77045402
              10.51345270                5.91099485               51.43114280                0.27078687               -0.34098960               -0.14743930                0.84487251                0.08560695                0.95316405               -3.61531381
              11.51118380                5.15747573               51.05195724                0.00010000                0.55120697                0.70344560               -0.33890609               -2.61009813               15.14367398              -12.51210906
              12.52447684                4.34466623               50.93852314                0.00010000                1.71581627               -0.24774269               -0.96484253               -5.53176875               28.05506676               -8.44246612
              13.54550013                3.52082769               50.81914943                0.00010000                2.36441701               -0.77913374               -1.66810507               -6.32363061               27.93833004               -5.53090423
              14.57176518                2.68453670               50.70460288                0.00010000                2.78584514               -0.97200470               -2.38583673               -6.95712982               28.38575081               -2.81441342
              15.60121703                1.83878649               50.59471773                0.00010000                3.03012701               -0.90828195               -3.07722789               -7.00496396               28.90515213               -0.01506228
              16.63236772                0.98885554               50.49043251                0.00010000                3.31151397               -0.81796059               -3.66706210               -6.56913932               29.59143541                3.05129610
              17.66744731                0.13747600               50.39353678                0.10801273                3.09454343               -1.30295135               -4.44294378               -4.08827468               20.90126149                6.52897490
              18.69425859               -0.67766430               50.11522595                0.28003603                1.97107677                0.20905691               -3.60028660               -0.86769914                6.05008546                2.41271684
              19.70686885               -1.47568808               49.71869616                0.71022750                1.26102587                2.39691924               -4.82247832               -0.07892983                0.18432933               -5.10209760
              10.26841780                7.65795594               51.71146187                0.79442274               -0.33793691               -0.67320657                1.90186806               -0.06478608                0.06917713                3.74904030
              11.26503843                6.91013773               51.27806791                0.26121704               -0.17002990               -0.02281873                0.37261729                0.14455028                0.79090645               -3.45823160
              12.26501720                6.16417400               50.85933730                0.00010000                1.00013749                0.69658372               -0.94678622               -3.21376026               19.87270956              -10.64020573
              13.28504118                5.34510052               50.80746977                0.00010000                2.27937086                0.20041221               -1.56532393               -6.69241107               38.05391119               -8.20469394
              14.31060462                4.51570035               50.75429144                0.00010000                2.81831034               -0.32014282               -2.19904011               -7.20298103               37.99285171               -5.34855032
              15.34140739                3.67638977               50.70304809                0.00010000                3.27835580               -0.67775190               -2.84164689               -7.59614388               38.26537668               -2.55285084
              16.37617173                2.82990743               50.65669175                0.00010000                3.64258673               -0.83895277               -3.47251293               -7.64220100               38.81845985                0.31598460
              17.41425912                1.97971543               50.61730624                0.00010000                4.00576469               -0.89208194               -4.11886969               -7.41276513               39.63173280                3.39668285
              18.45628703                1.12669080               50.58754977                0.11415441                3.37007198               -0.88354010               -4.84157678               -4.49000943               27.01575536                6.88682444
              19.48166056                0.32638698               50.29551220                0.28840419                1.86680496                0.56282696               -3.48414040               -0.99685983                7.13798443                1.32882154
              20.49362313               -0.45290915               49.86444688                0.71522455                1.19625665                2.15510682               -4.81447771               -0.00153860                0.26636005               -5.69838860
              11.01234429                8.65174775               51.59513515                0.78705705               -0.22186481               -0.56916875                1.59848226               -0.06426159                0.06983954                3.78163498
              12.01012564                7.91053848               51.12580211                0.25177879               -0.01992397                0.10402459               -0.09681129                0.15544275                0.96021097               -3.38403808
              13.01194581                7.17140741               50.67441725                0.00010000                1.44883107                0.77760440               -1.51204314               -3.73826966               24.83890908              -10.11063114
              14.03910227                6.34867448               50.68243209                0.00010000                2.91027213                0.47902312               -2.09389155               -7.75384917               47.76082763               -7.62269031
              15.07015126                5.51442484               50.69179220                0.00010000                3.32664761                0.00240952               -2.67279118               -8.20566282               47.84606968               -4.93462294
              16.10563522                4.67098166               50.70387657                0.00010000                3.74480471               -0.44907062               -3.25004698               -8.45572955               48.14060981               -2.14023117
              17.14504735                3.82200744               50.72120765                0.00010000                4.08469162               -0.74072617               -3.82355529               -8.41270848               48.73282954                0.76731863
              18.18732905                2.97101390               50.74671913                0.00042474                4.29641107               -0.80596529               -4.39638514               -8.21659687               49.68662215                3.90630948
              19.23097557                2.11980520               50.78385178                0.12041653                3.32961432               -0.54136881               -4.97778026               -4.93697752               32.74840647                7.43305528
              20.25392134                1.33359224               50.46957231                0.29699978                1.72273783                0.78428247               -3.32536639               -0.93985680                7.81550322                1.08963128
              21.26543033                0.56741405               50.00337604                0.72030654                1.15089907                1.93739067               -4.78100847                0.01628333                0.32711330               -6.03555371
              11.74955112                9.64657257               51.47912689                0.77978567               -0.10634857               -0.46601351                1.29514889               -0.06377954                0.07262471                3.78186307
              12.74848763                8.91221822               50.97411250                0.24238184                0.12823457                0.23277362               -0.56439515                0.14476044                1.21110964               -3.33225268
              13.75211581                8.17972609               50.49192461                0.00010000                1.92295675                0.89106624               -2.04646398               -4.20649462               29.96019768               -9.86653414
              14.78694676                7.35468098               50.56156269                0.00010000                3.60341871                0.69133984               -2.56936475               -8.66701254               57.51602371               -7.12840631
              15.82418418                6.51574854               50.63311370                0.00010000                3.88817153                0.19173627               -3.08062423               -9.11388067               57.63803009               -4.38918738
              16.86471020                5.66740836               50.70789262                0.00010000                4.18505719               -0.32089504               -3.58426846               -9.23610206               57.98107435               -1.62140248
              17.90788532                4.81509291               50.78879548                0.00010000                4.37096119               -0.66156517               -4.07141844               -9.06260315               58.68109436                1.28893419
              18.95212942                3.96359612               50.87950178                0.00489683                4.35419069               -0.70014840               -4.52363641               -8.75489870               59.82899284                4.49168525
              19.99496914                3.11586342               50.98403986                0.12677985                3.15625771               -0.29833121               -4.90845955               -5.09276674               38.23966827                8.09572663
              21.01525457                2.34207263               50.64095406                0.30558184                1.56680107                0.85093616               -3.10576755               -0.80093308                8.18869658                1.16758442
              22.02630516                1.58583867               50.13907904                0.72550542                1.10505868                1.75995834               -4.68993688                0.02503452                0.37823602               -6.05068953
              12.47977739               10.64242748               51.36311008                0.77262749                0.00899432               -0.36314055                0.99066450               -0.06401338                0.07416943                3.74503869
              13.47986733                9.91519395               50.82267927                0.23307662                0.27878890                0.36334452               -1.03145841                0.11485621                1.52898523               -3.30207345
              14.48535317                9.18922873               50.31131927                0.00010000                2.49361157                0.99081229               -2.55412554               -4.66400434               35.24174834               -9.61821917
              15.52973956                8.36250127               50.44469375                0.00010000                4.48965500                0.77112584               -2.98886866               -9.36393692               67.37517788               -6.52282937
              16.57514627                7.51825956               50.57878849                0.00010000                4.59146232                0.15786227               -3.41374204               -9.65365484               67.39424068               -3.72040825
              17.62156881                6.66456376               50.71535517                0.00010000                4.62306266               -0.32211329               -3.82752616               -9.49722110               67.74963440               -1.07742886
              18.66760752                5.80877613               50.85906615                0.00010000                4.49458778               -0.57582339               -4.20775148               -9.23204513               68.64752098                1.70611269
              19.71146056                4.95701093               51.01542246                0.00965537                4.15181059               -0.60273969               -4.51004149               -8.88250410               70.12393595                4.94125123
              20.75064373                4.11383858               51.18890820                0.13322412                2.82334342               -0.11037532               -4.65223626               -5.08677237               43.63591681                8.75292511
              21.76792743                3.35061096               50.81234545                0.31425274                1.38776069                0.81829408               -2.81231467               -0.66877441                8.34913528                1.46949165
              22.77839894                2.60261322               50.27430422                0.73058801                1.04715118                1.59560582               -4.52916110                0.02476484                0.41886039               -5.80759337
              13.20273791               11.63930975               51.24664683                0.76532296                0.12455928               -0.26075903                0.68354885               -0.06509424                0.09223321                3.71347187
              14.20398350               10.91948511               50.67128173                0.22369209                0.43952419                0.49651871               -1.49840673                0.04425286                1.95864071               -3.33715778
              15.21152839               10.19954233               50.13313672                0.00010000                3.33268452                1.01776002               -3.02190725               -5.22241364               40.81004884               -9.07106098
              16.27063719                9.37010349               50.33412996                0.00010000                5.87601032                0.38181620               -3.34026886               -9.71974585               77.38655670               -5.41822140
              17.32904860                8.51890579               50.53041866                0.00010000                5.68060039               -0.37743631               -3.66009807               -9.10295072               76.97172792               -2.80596050
              18.38424920                7.66096609               50.72587049                0.00010000                5.08743244               -0.43095870               -3.97261743               -8.48566117               77.22422887               -0.59302539
              19.43079725                6.80357644               50.92949265                0.00010000                4.25838457               -0.31445001               -4.23687140               -8.30796598               78.49041486                1.75120508
              20.46941689                5.95154133               51.15134664                0.01453052                3.44182059               -0.27536896               -4.37550217               -8.37132342               80.65631308                4.73005808
              21.49963366                5.11365592               51.39773432                0.13977507                2.18437746                0.15989669               -4.23667515               -5.06938131               49.18401712                8.98296555
              22.51310444                4.35843851               50.98569704                0.32297061                1.15811371                0.72153546               -2.43654124               -0.62370295                8.43770579                1.98895792
              23.52279594                3.61775078               50.41143464                0.73574038                0.96914932                1.42568700               -4.28685267                0.01411192                0.47788745               -5.38554079
              13.91812478               12.63721230               51.13025155                0.75799986                0.23950231               -0.15781253                0.37752721               -0.06591651               -0.04771896                3.23064163
              14.92051981               11.92512432               50.51872778                0.21449176                0.60808629                0.62903365               -1.97067664               -0.11849841                2.74794006               -2.99300678
              15.93028651               11.20958393               49.96292569                0.00010000                4.77306918                0.81780829               -3.42479839               -5.94857902               47.11394043               -6.68032002
              17.01598119               10.37013760               50.23770014                0.00010000                8.59690727               -1.57044661               -3.59741707               -7.80995488               87.44395970               -3.23983480
              18.10222466                9.51071084               50.49130694                0.00010000                7.56018687               -1.20356491               -3.80570881               -6.21026291               85.88820404               -1.53885661
              19.16718493                8.65594458               50.73849908                0.00010000                5.43241512               -0.56138531               -4.01527377               -5.22759436               85.92239600               -0.23498565
              20.21087296                7.80248713               50.99479767                0.00010000                3.33848462                0.14436176               -4.16974474               -5.37568784               87.66830936                1.16427567
              21.23395462                6.95150355               51.27666056                0.01961585                1.57429819                0.78408086               -4.17079959               -6.00966287               91.31485825                3.13990143
              22.24235892                6.11703651               51.60278115                0.14659763                0.87019428                0.88936108               -3.70753957               -4.53619412               55.53933933                6.67670588
              23.25135851                5.36504167               51.16371194                0.33165198                0.88488581                0.59046756               -1.97098057               -0.77696248                8.88335882                2.22407212
              24.26005664                4.63112696               50.55167650                0.74085500                0.86981315                1.25431029               -3.96169573               -0.02721513                0.38882928               -4.21915135
              14.62559553               13.63615350               51.00434794                0.87661752                0.36463703               -0.10587957                0.03174608                0.33830308                1.47535609                2.74700594
              15.62924190               12.93206579               50.37368627                0.60429754                1.09740026                0.69414632               -2.40608715               -0.14054062                5.96344974               -2.58586680
              16.64754354               12.21589850               49.83250017                0.47668206                9.20346434                0.63145691               -3.68183256               -7.94285838               54.53385045               -4.77468526
              17.81331119               11.33869456               50.16932460                0.44677259               13.57464093               -3.14430353               -3.72830313               -6.32020066               96.03479534               -1.69565257
              18.91903636               10.49483449               50.46515498                0.43787852                8.73049132               -1.58763474               -3.83257688               -2.76663886               93.31661783               -0.74039235
              19.98792102                9.64973838               50.75200882                0.44566972                5.43440839               -0.62061999               -3.95196973               -2.34493177               93.23343748               -0.01160476
              21.02772452                8.80646368               51.04827584                0.46961526                2.33766205                0.39765442               -4.02193800               -2.44061518               95.23029637                0.77686094
              22.03467426                7.96722295               51.37405687                0.51159279               -1.61764323                1.57193963               -3.93525808               -3.67906333              100.04767662                1.93891633
              22.99537166                7.13144314               51.76045815                0.57562814               -2.55997571                1.44066270               -3.28246434               -4.54748044               63.35862162                4.70480984
              23.98347474                6.37024786               51.33837167                0.66875321               -0.26453053                0.52061936               -1.44466747               -1.21868383               12.53963632                2.20879915
              24.99008105                5.64283699               50.70876685                0.87207199                0.66063060                1.17100285               -3.50185243                0.26135374                2.30361228               -3.20999445
               7.52440147                3.84975825               53.22028296                0.96940533               -0.88813279               -0.97962274                3.31472086               -0.21849499               -2.34303270                2.73642402
               8.51552014                3.04287026               52.89960153                0.75591043               -0.87122513               -0.60344754                2.33173748               -0.20700124               -3.24478580               -1.65599610
               9.50697697                2.23235971               52.56153590                0.57079558               -1.06345058               -0.31380217                1.26520479               -0.53632403               -3.15143448               -1.00011561
              10.49425113                1.40633864               52.24311485                0.48700753               -1.32150931               -0.05884590                0.26364352               -0.60045289               -1.04388066               -0.36407068
              11.48054678                0.55487119               51.94671684                0.44675045               -1.14197028                0.24938747               -0.78875132               -0.50511910                1.00995416               -0.26066395
              12.47141172               -0.32303062               51.66807444                0.44539813               -0.39800235                0.55115464               -1.88343136               -0.29807406                2.12951247               -0.03232207
              13.47258673               -1.21695866               51.39266524                0.48203804                0.61263191                0.83968002               -2.96744773               -0.23611889                1.61899891                0.18659991
              14.48366436               -2.11184721               51.10312737                0.55791286                1.38195894                1.11196928               -3.99380337               -0.28683635               -0.03893395                0.35033705
              15.50022591               -2.99855555               50.79423840                0.67740740                1.76454588                1.37500796               -4.98636644               -0.28766848               -1.91641326                0.44648284
              16.51895528               -3.87578730               50.46638077                0.84790426                1.93924222                1.63274291               -5.99184616               -0.22407474               -2.51132448                1.05494615
              17.53901076               -4.74708749               50.14406682                0.99293677                2.00554766                1.98270752               -7.01147119               -0.32916964               -2.13060873               -1.89707195
               8.32910452                4.83996203               53.08750202                0.87102472               -0.69551168               -0.96323215                2.91484552               -0.08639835                0.96094689                3.48210740
               9.32214940                4.03683578               52.76143714                0.39417622               -0.46124909               -0.50492072                1.92164917               -0.16404407                2.59313464               -2.84373140
              10.31987953                3.22922169               52.46855324                0.06245648                0.24207314                0.01044591                1.15156510               -1.00058382                5.20411700               -5.86112811
              11.32699086                2.40575018               52.19484977                0.00010000                1.01503443               -0.57964828                0.29027136               -2.01885470                6.93144917               -4.48105926
              12.34018022                1.55736507               51.93694908                0.00010000                1.36775237               -0.75746962               -0.58388938               -3.02803464                8.58633861               -2.97947176
              13.35434591                0.68248092               51.69701110                0.00010000                1.22268077               -0.43383047               -1.51651962               -3.63181619                9.60976813               -1.90675919
              14.36463384               -0.20856186               51.45983626                0.00010000                0.86242671                0.09287327               -2.44820726               -3.43202034                9.08148428               -0.74936245
              15.37159444               -1.10072752               51.20847915                0.05056032                0.73427162                0.46843055               -3.33063016               -2.41519220                7.48667720                1.21721229
              16.37931927               -1.98480547               50.93778983                0.22761388                0.96930289                0.85144139               -4.19684235               -0.98064420                5.92500628                4.80697547
              17.39098050               -2.85945987               50.65354985                0.48588856                1.38499891                1.36079484               -5.06930712               -0.35321616                3.80483469                2.93992529
              18.40701925               -3.72726041               50.33906395                0.84813351                1.60387472                1.96331471               -5.99979532               -0.32839244                2.36215844               -2.79210454
               9.12892599                5.83049361               52.97038955                0.79880855               -0.59463966               -0.90231831                2.61875618               -0.08926260                0.34456688                4.11503194
              10.12297959                5.03277184               52.59994220                0.27054138               -0.54375509               -0.31109307                1.35739631               -0.10138933                2.77619406               -3.96073092
              11.11805089                4.23256863               52.27857952                0.00010000                0.13755333                0.55384018                0.46783089               -2.10847057               10.55066738              -12.68717442
              12.12573066                3.39474568               52.06414109                0.00010000                1.26022297               -0.79113743               -0.32616364               -4.58446413               16.98548716               -8.86404989
              13.14325535                2.53972180               51.87247626                0.00010000                1.94858325               -1.39395941               -1.20153198               -5.90751459               18.43475003               -6.01533548
              14.16470233                1.66829277               51.68787101                0.00010000                2.19497092               -1.27026341               -2.04614341               -6.73770360               18.98279368               -3.79600262
              15.18715477                0.78489881               51.50743438                0.00010000                2.34509011               -0.79129528               -2.86614627               -6.57584431               19.38072912               -1.43100546
              16.21160413               -0.10247860               51.33006122                0.00010000                2.60953053               -0.44010028               -3.62219310               -5.13252093               20.32705538                2.00328622
              17.23934538               -0.98152672               51.16716804                0.09755382                2.13708852               -0.48141175               -3.33740261               -2.74570119               14.71920079                6.63309764
              18.25434590               -1.84857140               50.87677964                0.26709854                1.43493072                0.61150535               -3.96936321               -0.93865663                4.80622024                3.69116919
              19.26804399               -2.70782119               50.51429260                0.70312201                1.36980935                2.30944602               -5.12907310               -0.69983656                1.23737603               -4.72178347
               9.92276280                6.82191566               52.85094406                0.78925335               -0.47162082               -0.80135081                2.29324696               -0.06849793                0.06493999                3.94135767
              10.91804659                6.03061392               52.43966066                0.25720776               -0.35132551               -0.15099004                0.85994556                0.10323575                1.05103381               -3.78753998
              11.91573629                5.24029850               52.04843512                0.00010000                0.50509102                0.73229076               -0.36109896               -2.60254584               15.61414991              -13.09035749
              12.92814841                4.38992743               51.92852527                0.00010000                1.63732759               -0.18802643               -1.03392578               -5.54626327               28.74515890               -9.12965150
              13.94848284                3.52948588               51.80184277                0.00010000                2.31332094               -0.73471090               -1.79512786               -6.29860854               28.56395051               -6.28325446
              14.97441483                2.65707565               51.67981678                0.00010000                2.77027386               -0.93127642               -2.57688008               -6.92161457               29.00280417               -3.64666872
              16.00388832                1.77561224               51.56266962                0.00010000                3.04773605               -0.86273119               -3.34051793               -6.96708389               29.57694750               -0.92540929
              17.03536955                0.89047048               51.45213254                0.00010000                3.33048640               -0.73439391               -4.00338618               -6.47004738               30.20175478                2.03379861
              18.07049805                0.00556630               51.34683955                0.10019162                3.15661441               -1.05717769               -4.89303342               -4.13641207               22.29331065                4.87318067
              19.09850184               -0.84722976               51.07810868                0.26571803                2.05120261                0.37242818               -3.84434657               -0.97300800                7.20582983                1.72543461
              20.11152210               -1.68107149               50.66905320                0.70031211                1.30202590                2.56521590               -5.12942807               -0.07069039                0.22667403               -6.04070346
              10.71015951                7.81446660               52.73084509                0.78215921               -0.34980377               -0.69159207                1.97716739               -0.06655093                0.07218207                3.92267045
              11.70666147                7.02975204               52.28177103                0.24799863               -0.17365264               -0.02039201                0.36832162                0.16352978                0.90961457               -3.62672831
              12.70668646                6.24721445               51.84968717                0.00010000                0.94782694                0.71975943               -0.98078443               -3.20047259               20.45020282              -11.09274298
              13.72561801                5.39098515               51.79136394                0.00010000                2.17242499                0.26949256               -1.65339213               -6.70123499               38.94047302               -8.80497460
              14.75013496                4.52502758               51.73150999                0.00010000                2.72628324               -0.23136477               -2.35938247               -7.18988698               38.83727867               -6.05026429
              15.78014368                3.64966724               51.67342478                0.00010000                3.21416544               -0.56938932               -3.08994010               -7.57585627               39.08434547               -3.33990695
              16.81441827                2.76764418               51.62026168                0.00010000                3.60527211               -0.70196852               -3.82503328               -7.59849379               39.60975149               -0.55812140
              17.85224912                1.88283352               51.57377236                0.00010000                3.99495530               -0.70118267               -4.60147186               -7.25758537               40.34536971                2.39244189
              18.89431737                0.99732973               51.53592254                0.10619419                3.46372025               -0.62474745               -5.49991619               -4.49494781               28.81950257                5.87090966
              19.92152353                0.15887716               51.25904308                0.27380547                1.99981343                0.78128496               -3.84405696               -1.12311036                8.64577027                0.66094554
              20.93431364               -0.65651687               50.81431731                0.70509972                1.27901169                2.33840619               -5.24992159                0.01186170                0.34105251               -6.62593208
              11.49086089                8.80808382               52.61143609                0.77523126               -0.22915516               -0.58557782                1.66378236               -0.06587172                0.07287938                3.95488033
              12.48856933                8.03020608               52.12472210                0.23894765               -0.01835768                0.11186491               -0.11937410                0.17264010                1.11751262               -3.54940236
              13.49049373                7.25469368               51.65905070                0.00010000                1.38706217                0.80569331               -1.55141299               -3.71489082               25.55666037              -10.52134725
              14.51631058                6.39531729               51.66096287                0.00010000                2.77546397                0.56156361               -2.19664102               -7.74448168               48.84764334               -8.15303185
              15.54600301                5.52485858               51.66411789                0.00010000                3.19852634                0.12999704               -2.86342900               -8.17758075               48.89029722               -5.56161595
              16.58028110                4.64568787               51.66990686                0.00010000                3.63745737               -0.27797326               -3.55203616               -8.40824209               49.14610283               -2.84666372
              17.61875216                3.76157287               51.68084866                0.00010000                4.01255984               -0.52394445               -4.26358927               -8.31954877               49.69876291               -0.00577525
              18.66053230                2.87644682               51.69977808                0.00010000                4.29016448               -0.54912089               -5.01323230               -7.98754610               50.60102148                3.10832780
              19.70455545                1.99307135               51.72996612                0.11220002                3.46769655               -0.27942090               -5.83560591               -4.88279151               34.89707790                6.71484386
              20.72988623                1.16839594               51.43432708                0.28199576                1.89959784                1.01755413               -3.76818024               -1.05266009                9.56595861                0.54310271
              21.74254741                0.36569663               50.95316767                0.71002751                1.26611736                2.12896157               -5.31023025                0.02937080                0.41611554               -6.85115161
              12.26459755                9.80275504               52.49235097                0.76831663               -0.10931434               -0.48088312                1.35094324               -0.06619972                0.07547410                3.95340327
              13.26350441                9.03198934               51.96827179                0.22988086                0.13399416                0.24598542               -0.60452437                0.15873631                1.42407394               -3.49545920
              14.26727744                8.26332831               51.47122615                0.00010000                1.85295349                0.92297994               -2.08416803               -4.17007316               30.84318661              -10.24261293
              15.30056348                7.40221642               51.53528325                0.00010000                3.44676623                0.78339774               -2.67975068               -8.62259481               58.81584144               -7.59439179
              16.33621276                6.52762752               51.60123987                0.00010000                3.73505368                0.34549767               -3.29431210               -9.04286231               58.88830326               -4.92742176
              17.37526455                5.64410777               51.67035800                0.00010000                4.05277877               -0.10391152               -3.93171132               -9.13059843               59.18616423               -2.21711821
              18.41726834                4.75716529               51.74559975                0.00010000                4.28675809               -0.38787645               -4.58761416               -8.90075068               59.85468509                0.66308574
              19.46099972                3.87185110               51.83075541                0.00076256                4.37220451               -0.39984621               -5.25799662               -8.47105088               60.99452028                3.89441019
              20.50471243                2.99174131               51.93009495                0.11833899                3.34226605               -0.04024406               -5.93970955               -4.99631797               40.69605598                7.64734304
              21.52784504                2.17922825               51.60767364                0.29023964                1.77936194                1.08105819               -3.60261345               -0.89756995               10.10935514                0.75083567
              22.54029967                1.38606236               51.08952264                0.71491116                1.24546294                1.95319473               -5.28056904                0.03883064                0.47782845               -6.73721682
              13.03106829               10.79846616               52.37324488                0.76134084                0.01024981               -0.37685971                1.03730913               -0.06661292                0.07684092                3.91368843
              14.03117079               10.03512579               51.81208269                0.22094659                0.28984513                0.38219187               -1.08894518                0.12146790                1.81039222               -3.46407444
              15.03686519                9.27315328               51.28556653                0.00010000                2.41943435                1.02028009               -2.58300655               -4.61528022               36.31943047               -9.96064776
              16.07955947                8.41098524               51.41420754                0.00010000                4.31946117                0.86209781               -3.09792368               -9.27731738               68.91088146               -6.91411062
              17.12325441                7.53176854               51.54351030                0.00010000                4.42859461                0.32207648               -3.64010485               -9.52653226               68.86497182               -4.15492019
              18.16813137                6.64360964               51.67522902                0.00010000                4.48697008               -0.08241391               -4.20740928               -9.32298814               69.16994381               -1.54204559
              19.21299382                5.75381534               51.81423731                0.00010000                4.42019523               -0.26814078               -4.78268750               -8.99777504               70.05306809                1.24098018
              20.25653527                4.86844990               51.96641276                0.00525450                4.21290663               -0.26935596               -5.33666537               -8.56792733               71.57983460                4.54140208
              21.29725195                3.99226647               52.13693272                0.12460554                3.05392569                0.14219529               -5.82148088               -4.97274272               46.36224319                8.55409778
              22.31761378                3.19001710               51.78185678                0.29862684                1.62019231                1.03466507               -3.33914438               -0.75701420               10.37912140                1.18620926
              23.32965579                2.40476053               51.22620306                0.71987505                1.20420104                1.78640944               -5.15188203                0.03741412                0.52392237               -6.36111223
              13.78994603               11.79521785               52.25366340                0.75432173                0.13006114               -0.27274165                0.72088592               -0.06760160                0.09603258                3.88064517
              14.79124664               11.03963318               51.65593174                0.21197763                0.45831755                0.52078579               -1.57347170                0.03619085                2.32963374               -3.50097264
              15.79911238               10.28373392               51.10276010                0.00010000                3.25776187                1.03053809               -3.03348916               -5.16933190               42.11667442               -9.35769121
              16.85640188                9.41945838               51.30016882                0.00010000                5.69726693                0.46249106               -3.43728863               -9.58570132               79.17991240               -5.71663680
              17.91305772                8.53406905               51.49266398                0.00010000                5.51780561               -0.20885006               -3.88648618               -8.93870413               78.67560096               -3.11915514
              18.96675799                7.64245949               51.68421738                0.00010000                4.97074276               -0.19421551               -4.36769491               -8.26936091               78.86741610               -0.91308080
              20.01247258                6.75180248               51.88421984                0.00010000                4.22160237               -0.01177250               -4.84653865               -8.02373867               80.14079947                1.44921921
              21.05119004                5.86646398               52.10345384                0.00999789                3.56088968                0.08330620               -5.26134255               -8.03646982               82.43386824                4.50353926
              22.08369037                4.99458521               52.34950475                0.13093234                2.45103257                0.42376450               -5.50215702               -4.97553112               52.16665313                8.99863630
              23.10021069                4.19992155               51.95891021                0.30698365                1.39353631                0.91894627               -2.97504480               -0.71962312               10.53469364                1.84212421
              24.11156110                3.42179055               51.36570544                0.72480702                1.13504047                1.61314951               -4.91949529                0.02430185                0.58836744               -5.80539665
              14.54088559               12.79301132               52.13416225                0.74731165                0.24929436               -0.16742544                0.40527407               -0.06865937               -0.05191239                3.37719024
              15.54337853               12.04554151               51.49856421                0.20307860                0.63838829                0.65860692               -2.06389091               -0.15942804                3.24268305               -3.13959879
              16.55365335               11.29376405               50.92865828                0.00010000                4.70658889                0.76816761               -3.40458014               -5.83485893               48.70236720               -6.86934973
              17.63751031               10.42023506               51.20124324                0.00010000                8.39129296               -1.45312032               -3.67432712               -7.66842472               89.51403278               -3.41627689
              18.72147921                9.52759154               51.45215264                0.00010000                7.37502056               -1.03352737               -4.01782122               -6.07189689               87.82206314               -1.70616541
              19.78501072                8.63972533               51.69644684                0.00010000                5.35176695               -0.34676559               -4.40348396               -5.06457300               87.77905230               -0.40046655
              20.82851455                7.75357989               51.95018750                0.00010000                3.40062083                0.40204064               -4.78321565               -5.13212148               89.54452760                1.01756050
              21.85302314                6.87011602               52.23078742                0.01500094                1.78846053                1.07971756               -5.07026349               -5.73060271               93.42646782                3.04828577
              22.86428376                6.00074176               52.55964696                0.13754671                1.14964253                1.24069462               -5.03097863               -4.39071759               58.78730299                6.77791946
              23.87601599                5.20839603               52.14160372                0.31530470                1.10600343                0.76815863               -2.50561008               -0.91226189               11.02666607                2.19841822
              24.88640383                4.43702352               51.50923786                0.72967689                1.03878431                1.43891668               -4.58719196               -0.02342720                0.49887648               -4.48353321
              15.28351248               13.79186934               52.00473968                0.87132870                0.37928793               -0.11419879                0.04699773                0.35628738                1.54005540                2.87241335
              16.28730536               13.05280532               51.34908571                0.59872968                1.21045828                0.72638116               -2.51600439               -0.24592054                6.67075498               -2.71200112
              17.30772165               12.29909727               50.79574628                0.47552540                9.09502675                0.53332227               -3.63933901               -7.71363806               56.47857496               -4.92435902
              18.46920590               11.39039597               51.13166433                0.44661880               13.22039356               -2.98390919               -3.78063613               -6.11537959               98.34725373               -1.77245885
              19.57212952               10.51339850               51.42586782                0.43798973                8.51361431               -1.41930308               -4.01402965               -2.67855889               95.45502257               -0.81071713
              20.63947818                9.63552418               51.71074903                0.44542688                5.36549667               -0.42011443               -4.30467746               -2.23101463               95.26991647               -0.07654309
              21.67943945                8.75984329               52.00531189                0.46857159                2.49689669                0.62634047               -4.59853779               -2.28080244               97.27321343                0.72794673
              22.68941612                7.88805834               52.33070850                0.50920217               -1.09217193                1.79423133               -4.79889515               -3.38291147              102.37753216                1.92926940
              23.65759601                7.01939911               52.72163172                0.57097721               -2.18662123                1.86573500               -4.60012974               -4.30745579               66.88133046                4.82294834
              24.64568369                6.21528472               52.32162197                0.66042143               -0.18792219                0.68886923               -1.95987390               -1.47474104               14.83949261                2.25197870
              25.65383757                5.45056888               51.67103729                0.86639487                0.81538780                1.35453616               -4.10590038                0.27178983                2.48501430               -3.36613495
               7.82612031                4.01241226               54.25409282                0.96088283               -0.92094019               -1.01764279                3.44844871               -0.23029064               -2.43516098                2.84046792
               8.81691091                3.16607409               53.92333167                0.74512984               -0.89757221               -0.62480842                2.41503293               -0.21727371               -3.37999724               -1.74879144
               9.80816886                2.31602912               53.57433284                0.56633607               -1.06045004               -0.32542544                1.29435045               -0.52416692               -3.29626015               -0.97582860
              10.79570191                1.45076395               53.24563807                0.48545117               -1.27468271               -0.05392647                0.24081337               -0.57754433               -1.17830081               -0.37818339
              11.78267521                0.56098538               52.93846523                0.44659125               -1.07060452                0.26521287               -0.86308223               -0.48284175                0.83330789               -0.26610888
              12.77428982               -0.35414252               52.64862012                0.44521168               -0.34107441                0.58037274               -2.00856995               -0.28755120                1.94525265               -0.03632176
              13.77585372               -1.28486654               52.36213222                0.48048245                0.64211136                0.88297842               -3.14384891               -0.22470955                1.47872734                0.18445068
              14.78713204               -2.21698924               52.06208386                0.55389414                1.41235831                1.16770770               -4.22116290               -0.26998492               -0.12673290                0.35248633
              15.80410089               -3.14160000               51.74300570                0.66924187                1.82395140                1.44468370               -5.26443817               -0.27533932               -1.98846131                0.44193873
              16.82361107               -4.05702555               51.40485447                0.83325609                2.03135948                1.71604180               -6.32122748               -0.22411953               -2.59154804                1.05090716
              17.84472808               -4.96631978               51.07212327                0.98311730                2.11170068                2.07784669               -7.38777082               -0.35550058               -2.21255255               -1.94630532
               8.67015557                5.00223584               54.11722544                0.85594850               -0.72258313               -0.99960099                3.03124160               -0.09196662                1.04587632                3.63872794
               9.66292974                4.15982601               53.78098217                0.37608667               -0.47866516               -0.52128581                1.98849172               -0.17239098                2.79164148               -3.01672606
              10.66058227                3.31277487               53.48020197                0.05604023                0.22592975                0.02253017                1.17943552               -1.00325930                5.46917770               -6.12847108
              11.66744834                2.45022468               53.19767314                0.00010000                0.98588784               -0.58325358                0.27629432               -1.99988730                7.14265066               -4.83001736
              12.68030003                1.56363750               52.93086078                0.00010000                1.34459629               -0.74513730               -0.63363665               -2.96629577                8.76229872               -3.41245066
              13.69434026                0.65166121               52.68143022                0.00010000                1.23649817               -0.43766757               -1.59907149               -3.53787699                9.75622607               -2.38331169
              14.70502999               -0.27603676               52.43478873                0.00010000                0.92293309                0.07430729               -2.56325607               -3.34064356                9.25083332               -1.25268728
              15.71279892               -1.20531217               52.17444794                0.04462554                0.81678290                0.47381070               -3.47780929               -2.35547933                7.68631502                0.70472870
              16.72136565               -2.12715316               51.89491619                0.21543007                1.04654209                0.89810298               -4.37756767               -0.97277845                6.12981650                4.81938634
              17.73372977               -3.03986513               51.60177664                0.46374248                1.45508279                1.42479726               -5.28642896               -0.35744614                3.97858735                3.02636829
              18.75046730               -3.94554131               51.27779107                0.83281466                1.67375376                2.05236646               -6.25771932               -0.36023461                2.50664628               -2.91535088
               9.50910063                5.99242024               53.99709348                0.78608720               -0.61765727               -0.93261715                2.72350700               -0.09150523                0.33907793                4.30760395
              10.50292406                5.15564838               53.61370659                0.25646304               -0.56978112               -0.32053950                1.39646378               -0.09439689                2.96282071               -4.17882470
              11.49770501                4.31647972               53.28325839                0.00010000                0.09587335                0.58930322                0.47138472               -2.12647892               10.96752438              -13.31103219
              12.50484152                3.43909887               53.06058021                0.00010000                1.21038812               -0.76871686               -0.38405476               -4.59365324               17.40139326               -9.57678590
              13.52191277                2.54608263               52.86000801                0.00010000                1.91825065               -1.37543179               -1.29322761               -5.84035728               18.82344029               -6.85979793
              14.54320654                1.63710413               52.66672137                0.00010000                2.20507288               -1.28058284               -2.18783550               -6.64044401               19.39134761               -4.73933995
              15.56601423                0.71661960               52.47783600                0.00010000                2.39661634               -0.82561219               -3.05900425               -6.46034650               19.83382733               -2.45580838
              16.59113886               -0.20751303               52.29272161                0.00010000                2.65920281               -0.44337312               -3.85116737               -5.04117928               21.35324854                0.93192930
              17.61919828               -1.12363794               52.13296055                0.08983079                2.18557173               -0.33308611               -3.51580998               -2.75224163               15.80457386                5.38321630
              18.63485030               -2.02852960               51.83652084                0.25256399                1.48387336                0.72230369               -4.07670009               -0.96013705                5.14217395                3.31699684
              19.64887575               -2.92527245               51.46215161                0.69292423                1.40254520                2.45072287               -5.29573780               -0.72198580                1.27629950               -5.41511333
              10.34186920                6.98358349               53.87432062                0.77696998               -0.48868781               -0.82514608                2.38369071               -0.07138016                0.06696471                4.12102262
              11.33698232                6.15341522               53.44834171                0.24375364               -0.36335035               -0.15533273                0.87703641                0.12210147                1.16829827               -3.96787591
              12.33460219                5.32456093               53.04473526                0.00010000                0.44950223                0.76119183               -0.37566460               -2.59207698               16.11234349              -13.67304448
              13.34597237                4.43485034               52.91784463                0.00010000                1.54427162               -0.12677281               -1.10034033               -5.56228854               29.45221701               -9.83841803
              14.36548763                3.53612887               52.78324687                0.00010000                2.25110193               -0.68313421               -1.92618187               -6.27121044               29.20053098               -7.09252753
              15.39099441                2.62604955               52.65306527                0.00010000                2.74762965               -0.88012883               -2.77972378               -6.87709003               29.62691588               -4.57269490
              16.42044022                1.70745100               52.52790737                0.00010000                3.06192391               -0.80268197               -3.62136398               -6.91121110               30.25559021               -1.97328709
              17.45223288                0.78582037               52.41036479                0.00010000                3.34485845               -0.62841162               -4.35984191               -6.34495464               30.81014350                0.81544165
              18.48733739               -0.13381489               52.29567612                0.09253463                3.19643253               -0.76898182               -5.33367322               -4.15156774               23.81210308                2.86846075
              19.51616153               -1.02541906               52.03833902                0.25148640                2.10879465                0.59585508               -4.13374620               -1.06905333                8.50105932                0.80781660
              20.52951328               -1.89652686               51.61610760                0.69048846                1.33517467                2.78650987               -5.48551303               -0.05978092                0.28544363               -7.23928431
              11.16800957                7.97591732               53.75100522                0.77019852               -0.36209251               -0.71220075                2.05634888               -0.06952719                0.07480785                4.10673868
              12.16438865                7.15254172               53.28543434                0.23486618               -0.17906151               -0.01827751                0.36464672                0.18326038                1.05521073               -3.80184666
              13.16442834                6.33170356               52.83972161                0.00010000                0.88195843                0.74402743               -1.00283250               -3.18711247               21.06713833              -11.54493020
              14.18202782                5.43656342               52.77440193                0.00010000                2.04305057                0.34220966               -1.73579678               -6.71340211               39.84331317               -9.42921351
              15.20528935                4.53241994               52.70710379                0.00010000                2.61573941               -0.13331133               -2.52386932               -7.17681384               39.68200135               -6.80433115
              16.23434260                3.61950155               52.64124929                0.00010000                3.13649160               -0.44671917               -3.35300518               -7.55109437               39.89352855               -4.21761962
              17.26801919                2.70056597               52.58019108                0.00010000                3.55815257               -0.54485647               -4.20147884               -7.54358219               40.37950906               -1.57163353
              18.30550566                1.77991874               52.52527680                0.00010000                3.96935848               -0.48114810               -5.11069225               -7.07922036               41.01263275                1.17883933
              19.34740636                0.86098242               52.47755145                0.09816628                3.53377727               -0.31277183               -6.17530600               -4.47502487               30.78653844                4.54115335
              20.37618120               -0.01661250               52.21863106                0.25920587                2.12446867                1.06213965               -4.28794077               -1.23236235               10.35312260               -0.19608359
              21.38989573               -0.86954225               51.75944845                0.69507858                1.37145274                2.58562744               -5.77649009                0.03493322                0.44014979               -7.77270638
              11.98722986                8.96933948               53.62841079                0.76337149               -0.23685645               -0.60427411                1.73263850               -0.06851114                0.07571868                4.13891108
              12.98486129                8.15304967               53.12341462                0.22609941               -0.01958035                0.12033625               -0.14223111                0.19036432                1.31641734               -3.72100583
              13.98683825                7.33944148               52.64338899                0.00010000                1.30633250                0.83272176               -1.57206010               -3.69076972               26.32559119              -10.93067836
              15.01098794                6.44169454               52.63849927                0.00010000                2.60874834                0.64925264               -2.28941344               -7.73783912               49.94389675               -8.70106801
              16.03901322                5.53346264               52.63452362                0.00010000                3.04192782                0.26938750               -3.05644139               -8.14966147               49.92402986               -6.23603228
              17.07182650                4.61711517               52.63283585                0.00010000                3.50690877               -0.08788609               -3.87063159               -8.35888871               50.12278770               -3.63848663
              18.10915139                3.69655387               52.63593587                0.00010000                3.92027609               -0.27999928               -4.73424605               -8.21776638               50.61412766               -0.91304647
              19.15023202                2.77619741               52.64645449                0.00010000                4.26083694               -0.25345462               -5.67078092               -7.73026115               51.42115419                2.11096280
              20.19436813                1.85992968               52.66713966                0.10401853                3.59034721                0.04306321               -6.74863116               -4.79040018               37.25231829                5.70452069
              21.22203896                0.99582374               52.39420871                0.26709471                2.08516593                1.30860734               -4.31781061               -1.14556010               11.58775891               -0.14959204
              22.23607145                0.15518569               51.89717144                0.69982542                1.40324845                2.38005961               -5.95627702                0.04959599                0.53332532               -7.83488971
              12.79921897                9.96383184               53.50614575                0.75673035               -0.11250352               -0.49753265                1.41008915               -0.06790303                0.07897030                4.13591176
              13.79809393                9.15494845               52.96202201                0.21747129                0.13745564                0.26014188               -0.64631284                0.17091951                1.69284238               -3.66483296
              14.80196808                8.34835800               52.45024125                0.00010000                1.75779702                0.95201704               -2.09727205               -4.13106518               31.79237324              -10.61394682
              15.83324987                7.44954847               52.50796768                0.00010000                3.24537071                0.88194733               -2.77387576               -8.57624114               60.12090952               -8.07018716
              16.86687549                6.53780769               52.56722746                0.00010000                3.54118646                0.51372028               -3.50692678               -8.96968149               60.11564075               -5.50611718
              17.90407360                5.61774383               52.62925840                0.00010000                3.88530618                0.13741460               -4.29670309               -9.02137701               60.34268254               -2.89017825
              18.94458162                4.69496598               52.69704319                0.00010000                4.17255118               -0.07891135               -5.14203290               -8.72802186               60.94727415               -0.08571869
              19.98752463                3.77484964               52.77434185                0.00010000                4.36952030               -0.05284359               -6.05314735               -8.14962349               62.01799318                3.11602286
              21.03197202                2.86184369               52.86524567                0.10993088                3.52446792                0.27905263               -7.06548588               -4.86067758               43.39649553                6.94411200
              22.05801398                2.00955964               52.56890179                0.27510958                2.00958548                1.36374214               -4.21787932               -0.97920963               12.37209346                0.22718860
              23.07216373                1.17805894               52.03346766                0.70455597                1.41497498                2.20112394               -6.00034998                0.05559767                0.60530760               -7.54205579
              13.60363858               10.95938883               53.38385627                0.75008545                0.01149455               -0.39132755                1.08667093               -0.06848653                0.08040558                4.09336347
              14.60375353               10.15825251               52.80090036                0.20891941                0.29891710                0.40178480               -1.14912052                0.12392668                2.16738902               -3.63245126
              15.60961692                9.35848182               52.25965914                0.00010000                2.31299474                1.04693814               -2.57805388               -4.56311523               37.48066995              -10.28329806
              16.65001342                8.45933348               52.38273527                0.00010000                4.09036523                0.95932945               -3.18234409               -9.18315416               70.44703702               -7.30844410
              17.69142423                7.54373705               52.50598639                0.00010000                4.21136261                0.50363228               -3.86037458               -9.39167299               70.30069796               -4.62148831
              18.73424067                6.61986346               52.63120698                0.00010000                4.30304567                0.18714104               -4.60489974               -9.13966720               70.52219289               -2.07306398
              19.77748514                5.69497564               52.76341240                0.00010000                4.30605851                0.08223300               -5.40409383               -8.74638808               71.34781657                0.66943829
              20.82036184                4.77514054               52.90868915                0.00090475                4.24797191                0.11939041               -6.24601202               -8.20900943               72.85089109                3.98677321
              21.86244458                3.86551073               53.07247859                0.11589689                3.29388384                0.45353606               -7.13149780               -4.82518121               49.37478002                8.14953751
              22.88623952                3.02309858               52.74556256                0.28314961                1.88701177                1.29872046               -3.98851455               -0.83594603               12.81558096                0.82926968
              23.90018481                2.19920817               52.17126658                0.70926153                1.39452941                2.02745610               -5.90815607                0.05141333                0.65818376               -6.98876099
              14.40012187               11.95600529               53.26106455                0.74334564                0.13575973               -0.28545021                0.76056000               -0.06991280                0.10004558                4.05820060
              15.40147947               11.16298414               52.63981230                0.20034920                0.47514627                0.54629346               -1.65228678                0.02076907                2.80119348               -3.67144643
              16.40962480               10.36929676               52.07246694                0.00010000                3.14260464                1.03644681               -2.99451245               -5.11055933               43.53209120               -9.61407243
              17.46433156                9.46873506               52.26538419                0.00010000                5.44436304                0.54915332               -3.50009716               -9.43311783               80.96987277               -6.01172657
              18.51851206                8.54788034               52.45268894                0.00010000                5.28550494               -0.01766773               -4.10064329               -8.76051579               80.33493554               -3.45551579
              19.57004166                7.62148665               52.63851660                0.00010000                4.79323604                0.07700718               -4.77916360               -8.03896271               80.42651131               -1.28462216
              20.61437678                6.69661064               52.83256188                0.00010000                4.13838437                0.33853256               -5.50966603               -7.71557046               81.65335754                1.06393579
              21.65280935                5.77723745               53.04611979                0.00543650                3.65667888                0.50370360               -6.25346242               -7.65167791               83.98718206                4.16159667
              22.68751036                4.87091441               53.28769118                0.12210686                2.73941360                0.74786027               -6.95007422               -4.84296455               55.45377423                8.85513875
              23.70759762                4.03553405               52.92619615                0.29110503                1.67312278                1.15998491               -3.63788390               -0.81224674               13.08701298                1.64745804
              24.72097281                3.21860806               52.31304474                0.71396084                1.33751917                1.84581415               -5.68939706                0.03645470                0.72976943               -6.26803824
              15.18828262               12.95367982               53.13835703                0.73656584                0.25948221               -0.17791911                0.43479839               -0.07100932               -0.05559427                3.53207225
              16.19087744               12.16917838               52.47744996                0.19182064                0.66861020                0.68993068               -2.16174554               -0.21490676                3.86939742               -3.29206006
              17.20165482               11.37921076               51.89483409                0.00010000                4.59450227                0.69692764               -3.32113042               -5.69751049               50.42885244               -7.02841609
              18.28276748               10.47031655               52.16421360                0.00010000                8.09037504               -1.31659280               -3.70652112               -7.50119494               91.57933944               -3.58852866
              19.36346232                9.54338369               52.41095052                0.00010000                7.09818183               -0.83452716               -4.21101563               -5.91864494               89.71049850               -1.88649149
              20.42473112                8.62140360               52.65042940                0.00010000                5.19803048               -0.09417570               -4.80454502               -4.89018953               89.54468978               -0.59587369
              21.46742293                7.70174629               52.89913335                0.00010000                3.41466986                0.70815915               -5.45282824               -4.86682250               91.26693998                0.82157639
              22.49302452                6.78521461               53.17525529                0.01035169                1.99328783                1.43643621               -6.09418691               -5.40913155               95.27128318                2.89299276
              23.50728869                5.88046794               53.50216158                0.12842473                1.46382080                1.65090913               -6.57403393               -4.21709427               62.34985606                6.78328556
              24.52230093                5.04629828               53.11359974                0.29908270                1.37386040                0.98584433               -3.16411744               -1.05410384               13.66447618                2.14880300
              25.53476589                4.23612445               52.45993266                0.71861855                1.24649616                1.66536836               -5.35047151               -0.01848809                0.63966288               -4.76687518
              15.96770458               13.95244691               53.00528789                0.86609413                0.39458226               -0.12329140                0.06350687                0.37578120                1.60919071                3.00459800
              16.97165040               13.17678276               52.32336618                0.59323879                1.34159189                0.76043814               -2.63161973               -0.38328355                7.53832774               -2.84315291
              17.99453641               12.38323531               51.75971339                0.47434771                8.92421650                0.40245551               -3.52058359               -7.43081813               58.59420917               -5.05323984
              19.15013473               11.44240320               52.09371188                0.44651587               12.72578467               -2.79133462               -3.78120347               -5.86555109              100.67101239               -1.85067686
              20.24905211               10.53118980               52.38487439                0.43799303                8.18702703               -1.21938952               -4.16966943               -2.58102456               97.56514093               -0.89071342
              21.31387527                9.61960314               52.66591527                0.44519343                5.20886087               -0.18004658               -4.66303868               -2.10638366               97.22723340               -0.16010050
              22.35322933                8.71077382               52.95630509                0.46761034                2.60149035                0.90275289               -5.22452329               -2.10120846               99.16462636                0.64970500
              23.36590508                7.80596618               53.27807897                0.50686496               -0.55722606                2.07515688               -5.78494098               -3.05400557              104.41331368                1.88290305
              24.34208480                6.90393259               53.66845555                0.56635942               -1.75230255                2.34646550               -6.14862785               -4.05615004               70.69583616                4.88199730
              25.33085903                6.05525094               53.29917419                0.65224885               -0.05670545                0.89526639               -2.59737812               -1.74504882               17.64164503                2.28688490
              26.34095070                5.25191543               52.62664885                0.86083384                1.00916693                1.57909729               -4.84625220                0.28492882                2.69449545               -3.52682753
               8.13722057                4.18030238               55.28925193                0.95243280               -0.95403811               -1.05664478                3.58388105               -0.24209323               -2.53313486                2.94879613
               9.12768018                3.29259342               54.94790219                0.73437215               -0.92376046               -0.64670782                2.49989908               -0.22732356               -3.52304392               -1.84613164
              10.11874536                2.40110487               54.58742291                0.56195076               -1.05637300               -0.33781532                1.32400790               -0.51175256               -3.44972540               -0.95011690
              11.10655272                1.49470484               54.24793112                0.48392350               -1.22572340               -0.04971413                0.21763215               -0.55411303               -1.32175528               -0.39163268
              12.09423089                0.56475792               53.92945519                0.44635347               -0.99514703                0.28153564               -0.94017772               -0.46028179                0.64666314               -0.27104932
              13.08664978               -0.38937725               53.62790304                0.44499484               -0.27666747                0.60906933               -2.13775438               -0.27775985                1.74674638               -0.04048300
              14.08869754               -1.35858267               53.32978826                0.47903400                0.68032178                0.92632774               -3.32736968               -0.21389521                1.32190240                0.18226174
              15.10025622               -2.32952564               53.01870411                0.54983513                1.44942708                1.22549487               -4.45853427               -0.25404692               -0.22829647                0.35513389
              16.11768608               -3.29353774               52.68894964                0.66096887                1.88752663                1.51651555               -5.55460819               -0.26431026               -2.07527600                0.43783166
              17.13800675               -4.24861349               52.33995622                0.81892308                2.12680109                1.80146159               -6.66395268               -0.22351021               -2.68660857                1.04827457
              18.16022210               -5.19734918               51.99631140                0.97328006                2.22153506                2.17534132               -7.77846717               -0.38344686               -2.30710440               -2.00265955
               9.02250859                5.16973593               55.14812685                0.84099379               -0.75028872               -1.03759307                3.14993437               -0.09791947                1.13596280                3.80239184
              10.01500570                4.28612634               54.80120697                0.35814081               -0.49682340               -0.53788032                2.05718092               -0.18091446                3.00073894               -3.20026798
              11.01257212                3.39772672               54.49214195                0.04975999                0.20896858                0.03549164                1.20971418               -1.00681213                5.74947283               -6.40536005
              12.01918507                2.49420770               54.20037566                0.00010000                0.95484990               -0.58331867                0.26540170               -1.98486311                7.37212842               -5.20568291
              13.03166912                1.56757327               53.92427634                0.00010000                1.31787022               -0.73090871               -0.68291276               -2.90710771                8.96115964               -3.87915458
              14.04554248                0.61671344               53.66502967                0.00010000                1.24818320               -0.43759188               -1.68149874               -3.44205813                9.92595269               -2.91340828
              15.05663278               -0.34931939               53.40857114                0.00010000                0.98254051                0.06233331               -2.67960302               -3.24253002                9.44327426               -1.82915789
              16.06519329               -1.31727069               53.13892296                0.03872115                0.89770613                0.48843911               -3.62773725               -2.28824285                7.90966647                0.10807210
              17.07458690               -2.27837258               52.85023848                0.20324131                1.12420418                0.94577072               -4.56070466               -0.96883210                6.35420896                4.77661745
              18.08767737               -3.23059888               52.54782127                0.44164922                1.52682088                1.49098217               -5.50483819               -0.36158105                4.16522019                3.11289153
              19.10512332               -4.17559577               52.21390957                0.81775901                1.74459513                2.14545943               -6.51741761               -0.39537166                2.66127546               -3.06043468
               9.90248135                6.15955051               55.02485969                0.77338555               -0.64102420               -0.96557731                2.83111600               -0.09390319                0.33236174                4.50879480
              10.89607110                5.28183581               54.62787147                0.24224180               -0.59767955               -0.32988472                1.43756875               -0.08717937                3.16488392               -4.41025744
              11.89052775                4.40181471               54.28800721                0.00010000                0.04689024                0.63238335                0.47981230               -2.14446135               11.40216065              -13.95565166
              12.89700891                3.48303847               54.05645999                0.00010000                1.15276195               -0.74351751               -0.43675616               -4.60894505               17.83309195              -10.32578456
              13.91358299                2.55013974               53.84661170                0.00010000                1.88461869               -1.35168622               -1.38757344               -5.77819301               19.23336756               -7.77078186
              14.93470128                1.60187091               53.64411430                0.00010000                2.21240394               -1.28098020               -2.33817559               -6.53627814               19.81414360               -5.78794630
              15.95783107                0.64266400               53.44625429                0.00010000                2.44216374               -0.84445990               -3.26481924               -6.32799690               20.30906645               -3.62737868
              16.98354456               -0.31975686               53.25303787                0.00010000                2.69032754               -0.42525955               -4.09299703               -4.93379689               22.44738136               -0.32619032
              18.01163762               -1.27462232               53.09685184                0.08214708                2.22268785               -0.16414056               -3.73118945               -2.74290119               17.02444524                3.90810103
              19.02799831               -2.21879385               52.79524563                0.23805074                1.53354134                0.87076142               -4.17916257               -0.97017453                5.56166038                2.78014967
              20.04230845               -3.15443999               52.40837785                0.68287054                1.43101361                2.62208732               -5.46271225               -0.73608915                1.32449217               -6.30258683
              10.77605992                7.15042438               54.89861788                0.76468328               -0.50620008               -0.85196591                2.47808265               -0.07376958                0.06964533                4.30964198
              11.77099792                6.27952865               54.45720139                0.23031425               -0.37898427               -0.15968107                0.89562978                0.14640984                1.30869962               -4.15784134
              12.76848024                5.41037439               54.04092182                0.00010000                0.38416060                0.79237038               -0.37892000               -2.58287076               16.64535204              -14.27158628
              13.77868113                4.47933735               53.90651846                0.00010000                1.43962890               -0.06461148               -1.16211946               -5.58708232               30.17232393              -10.56771191
              14.79727282                3.54053955               53.76331913                0.00010000                2.18057608               -0.62377653               -2.06187790               -6.24494383               29.84015415               -7.96226708
              15.82229266                2.59109384               53.62422231                0.00010000                2.72138987               -0.81633203               -2.99674003               -6.82612321               30.25044405               -5.60012103
              16.85170061                1.63379141               53.49024234                0.00010000                3.07555090               -0.72404942               -3.92346057               -6.83599294               30.93697937               -3.17121770
              17.88380367                0.67422412               53.36493571                0.00010000                3.35326291               -0.49612688               -4.73784875               -6.19249787               31.43165380               -0.61997134
              18.91876587               -0.28165539               53.24016609                0.08473987                3.21439363               -0.43442135               -5.76951693               -4.11757523               25.45164887                0.51975073
              19.94809155               -1.21318365               52.99543376                0.23743546                2.14639762                0.89398275               -4.48527626               -1.14039816                9.91482862               -0.40640730
              20.96169382               -2.12315402               52.55934294                0.68082595                1.36022773                3.07025753               -5.90492565               -0.03836700                0.36781539               -8.76565500
              11.64279742                8.14251120               54.77197207                0.75817734               -0.37481242               -0.73514392                2.13929927               -0.07151628                0.07792056                4.30180806
              12.63904930                7.27864219               54.28906396                0.22190943               -0.18678918               -0.01651775                0.36182273                0.20362419                1.23877570               -3.98519865
              13.63906164                6.41766211               53.82963052                0.00010000                0.80264021                0.75930465               -1.00410467               -3.17276385               21.72858101              -11.99843656
              14.65510210                5.48174624               53.75664801                0.00010000                1.89329972                0.41964120               -1.81013917               -6.73125780               40.75108923              -10.07355718
              15.67692763                4.53766421               53.68103261                0.00010000                2.49124266               -0.02626416               -2.69273615               -7.16638785               40.51651107               -7.61158624
              16.70492695                3.58554427               53.60636468                0.00010000                3.05266520               -0.30924063               -3.63332740               -7.52246210               40.68268247               -5.19117880
              17.73798093                2.62818301               53.53623211                0.00010000                3.51072276               -0.36657932               -4.60511995               -7.47541025               41.12253474               -2.73482604
              18.77514141                1.67032060               53.47155852                0.00010000                3.93564748               -0.23115432               -5.64693275               -6.87729216               41.64437260               -0.26030483
              19.81669388                0.71668925               53.41241642                0.09030802                3.57737842                0.05614683               -6.84991470               -4.40765362               32.88414911                2.86059464
              20.84668898               -0.20091419               53.17328427                0.24488138                2.23939857                1.41585085               -4.84156314               -1.31029997               12.22032649               -1.28900336
              21.86148185               -1.09303484               52.69878751                0.68522456                1.47928788                2.90668258               -6.41425859                0.06766692                0.56959863               -9.18898509
              12.50236760                9.13572150               54.64608886                0.75169806               -0.24481136               -0.62416960                1.80500540               -0.07096964                0.07913259                4.33482803
              13.49991949                8.27919829               54.12187748                0.21354828               -0.02233446                0.12823744               -0.16556501                0.20277232                1.56821523               -3.89986053
              14.50192091                7.42556048               53.62760949                0.00010000                1.20671950                0.85585576               -1.56662558               -3.66752596               27.15293815              -11.32791097
              15.52405388                6.48773018               53.61517460                0.00010000                2.41130571                0.74152153               -2.36773807               -7.73264264               51.04053798               -9.26249648
              16.55014703                5.54001427               53.60298906                0.00010000                2.86353671                0.41890975               -3.25098263               -8.12569587               50.93378223               -6.95618259
              17.58132461                4.58490903               53.59249423                0.00010000                3.36345233                0.11944012               -4.20736695               -8.30894585               51.05838760               -4.51861251
              18.61741607                3.62645983               53.58616374                0.00010000                3.82134902               -0.01043117               -5.23676954               -8.10792802               51.47094469               -1.96367452
              19.65775159                2.66960103               53.58636246                0.00010000                4.22157613                0.08081475               -6.36693610               -7.44882954               52.14779751                0.89396369
              20.70184760                1.71946754               53.59499350                0.09584432                3.69290211                0.42976865               -7.68230095               -4.65395729               39.77685536                4.35317723
              21.73160964                0.81513337               53.34797086                0.25246236                2.27204294                1.66661782               -5.00464897               -1.20559849               13.84547277               -1.01275303
              22.74728846               -0.06502037               52.83404213                0.68973485                1.56788198                2.70804667               -6.74232272                0.07423721                0.68339515               -9.01195319
              13.35442445               10.13002780               54.52055276                0.74533467               -0.11586802               -0.51534365                1.47241624               -0.07105617                0.08181919                4.33044166
              14.35326577                9.28120694               53.95534553                0.20504835                0.13773943                0.27440923               -0.68944533                0.17738150                2.03552142               -3.84138493
              15.35717923                8.43477923               53.42928071                0.00010000                1.63648475                0.98505779               -2.07320496               -4.09537522               32.81999983              -10.96388555
              16.38599546                7.49657667               53.47980573                0.00010000                3.00278143                0.98348382               -2.84553853               -8.53088719               61.42048600               -8.55036340
              17.41723486                6.54604241               53.53110133                0.00010000                3.31535065                0.69315120               -3.71583587               -8.89969805               61.30529599               -6.12139744
              18.45230247                5.58793307               53.58442394                0.00010000                3.69477528                0.39905654               -4.67893847               -8.91217061               61.43614538               -3.64205353
              19.49113037                4.62797439               53.64275909                0.00010000                4.04273144                0.26127932               -5.73313280               -8.54721330               61.94655840               -0.96668969
              20.53315710                3.67193690               53.70969246                0.00010000                4.34760157                0.34031960               -6.90000027               -7.79772273               62.89288842                2.13323354
              21.57808240                2.72528462               53.78878523                0.10158465                3.69539073                0.66720836               -8.24640411               -4.67460980               46.31739763                5.92711284
              22.60706492                1.83241816               53.52331605                0.26006104                2.25958378                1.70873827               -4.98574263               -1.03153793               14.95617097               -0.41769196
              23.62327407                0.96112609               52.96951564                0.69421828                1.62091583                2.52142993               -6.87694602                0.07694141                0.77050363               -8.47975475
              14.19858820               11.12541463               54.39497830                0.73888515                0.01274919               -0.40733563                1.13897465               -0.07146502                0.08372076                4.28444055
              15.19871569               10.28468648               53.78910028                0.19693513                0.30277386                0.42238548               -1.21188950                0.12246841                2.62414087               -3.80774651
              16.20464368                9.44526163               53.23400545                0.00010000                2.17286307                1.07491426               -2.52454996               -4.51417708               38.74782748              -10.57596844
              17.24217296                8.50739985               53.35056066                0.00010000                3.80764918                1.05844246               -3.23256788               -9.09012374               71.97167561               -7.69689636
              18.28079666                7.55387729               53.46630281                0.00010000                3.94881313                0.69761033               -4.07010970               -9.25602675               71.68485415               -5.11551915
              19.32114922                6.59289016               53.58313102                0.00010000                4.08356591                0.48057802               -5.01734515               -8.95395346               71.78923917               -2.67131151
              20.36246798                5.63168541               53.70615543                0.00010000                4.16688433                0.46929253               -6.06634789               -8.48382825               72.51512952               -0.01821766
              21.40448690                4.67640742               53.84149252                0.00010000                4.27030776                0.55964365               -7.22532292               -7.81132109               73.91416833                3.25294386
              22.44787414                3.73281171               53.99430277                0.10735641                3.53252501                0.83601852               -8.53138505               -4.62460967               52.65614482                7.47058140
              23.47513741                2.84930814               53.70208648                0.26774782                2.17686432                1.62076824               -4.79876010               -0.89355028               15.66365057                0.38774145
              24.49141142                1.98540823               53.10803994                0.69880742                1.62740179                2.33188071               -6.83233738                0.06927101                0.83370773               -7.70680185
              15.03445145               12.12188109               54.26887460                0.73243304                0.14166796               -0.29926013                0.80286759               -0.07266205                0.10429460                4.24701071
              16.03586813               11.28965465               53.62288600                0.18866379                0.48654347                0.57299732               -1.73487165               -0.00149260                3.40889995               -3.84938809
              17.04418232               10.45627751               53.04286985                0.00010000                2.98546013                1.03438159               -2.88746865               -5.05430221               45.08523140               -9.82825884
              18.09557733                9.51774552               53.23016688                0.00010000                5.12208524                0.63684744               -3.51630565               -9.27375918               82.73936393               -6.29462325
              19.14662402                8.55999461               53.41065112                0.00010000                4.99189744                0.18994834               -4.29626940               -8.57620838               81.93160226               -3.81084885
              20.19541528                7.59754463               53.58863411                0.00010000                4.56562568                0.37595091               -5.20195545               -7.80309559               81.88191559               -1.70834548
              21.23793654                6.63736024               53.77402652                0.00010000                4.01945525                0.72913967               -6.21701871               -7.39276916               83.00541880                0.58617468
              22.27580438                5.68312977               53.97838459                0.00098067                3.73764789                0.98046360               -7.33229647               -7.22107889               85.27731669                3.67555762
              23.31268949                4.74200499               54.21050327                0.11329912                3.03965027                1.14156911               -8.54315983               -4.66169716               59.05400669                8.49536034
              24.33659739                3.86483353               53.88615253                0.27545431                1.98849053                1.45429553               -4.46045811               -0.89221263               16.12676562                1.39906675
              25.35245930                3.00776371               53.25191750                0.70331310                1.58619147                2.13368375               -6.62936414                0.04900950                0.91049299               -6.78434084
              15.86158784               13.11942943               54.14285821                0.72587542                0.27015796               -0.18907601                0.46661903               -0.07388644               -0.05951442                3.69677971
              16.86428942               12.29614642               53.45532930                0.18057395                0.69394630                0.72275871               -2.26483268               -0.28509360                4.67305721               -3.45217503
              17.87546677               11.46594927               52.86223567                0.00010000                4.43456259                0.59981775               -3.14913449               -5.54659036               52.33031879               -7.14799425
              18.95298067               10.52013680               53.12711282                0.00010000                7.70033075               -1.16798202               -3.68033369               -7.31925975               93.61971442               -3.75103657
              20.02947338                9.55767626               53.36793233                0.00010000                6.73705044               -0.61290606               -4.37777786               -5.75613556               91.53452397               -2.07722931
              21.08772168                8.60040917               53.60035594                0.00010000                4.97770388                0.19028951               -5.21185054               -4.71155873               91.19889189               -0.82156693
              22.12902746                7.64626821               53.84113093                0.00010000                3.38494465                1.05668437               -6.16650515               -4.58803654               92.80529982                0.57031081
              23.15542057                6.69601670               54.10890368                0.00565096                2.19544893                1.84696363               -7.21929615               -5.04487881               96.79332985                2.64831514
              24.17293644                5.75564309               54.42816628                0.11948194                1.80569316                2.12230601               -8.30577724               -3.99473134               66.23456901                6.65258881
              25.19153444                4.87839405               54.07832137                0.28318825                1.67974079                1.25199956               -3.97517288               -1.19176397               16.84733327                2.07274263
              26.20653125                4.02808191               53.40222842                0.70777821                1.49968167                1.94181214               -6.27788962               -0.01527120                0.81760944               -5.07009532
              16.67953973               14.11809957               54.00600982                0.86080274                0.41066910               -0.13298563                0.08167842                0.39621394                1.68246183                3.14512132
              17.68364642               13.30410983               53.29645332                0.58765106                1.48602044                0.79634013               -2.75377205               -0.55558553                8.62064299               -2.98153602
              18.70926013               12.46827387               52.72533461                0.47314799                8.69093649                0.23246014               -3.29621103               -7.10686055               60.92505249               -5.15345547
              19.85746515               11.49438588               53.05604026                0.44638355               12.09844018               -2.57509214               -3.71650423               -5.57842139              102.98352975               -1.92778820
              20.95122894               10.54773649               53.34247443                0.43812994                7.75635039               -0.99397643               -4.29230403               -2.47621717               99.62992490               -0.97969811
              22.01259215                9.60135042               53.61748826                0.44496364                4.96696737                0.09412492               -5.02101895               -1.97508095               99.08829420               -0.26334557
              23.05056829                8.65849393               53.90082143                0.46657736                2.64698850                1.22257192               -5.88742196               -1.90998636              100.87505911                0.53641527
              24.06553192                7.72006905               54.21500968                0.50445442               -0.00753842                2.40523498               -6.87105087               -2.69100569              106.08993756                1.78365312
              25.05041752                6.78445111               54.59865916                0.56176987               -1.26043135                2.88080208               -7.88911352               -3.76166841               74.78031173                4.84008587
              26.04032330                5.88987352               54.26967440                0.64417255                0.11803226                1.14794735               -3.38165091               -2.01367210               21.00100941                2.31204621
              27.05277816                5.04659995               53.57411224                0.85533931                1.24548649                1.85180452               -5.74472399                0.29733393                2.93799156               -3.68847209
               8.45815710                4.35363835               56.32577045                0.94396024               -0.98780474               -1.09624389                3.72148660               -0.25389751               -2.63656484                3.06284200
               9.44827905                3.42254189               55.97332965                0.72365543               -0.95058336               -0.66905262                2.58665652               -0.23744548               -3.67451318               -1.94866491
              10.43914543                2.48758870               55.60081300                0.55759004               -1.05222661               -0.35053397                1.35445391               -0.49922299               -3.61369762               -0.92343307
              11.42723452                1.53804221               55.24999072                0.48249523               -1.17544397               -0.04600597                0.19394333               -0.53113147               -1.47648187               -0.40462170
              12.41563655                0.56592209               54.91966167                0.44611422               -0.91714195                0.29758144               -1.01915863               -0.43911715                0.44670247               -0.27539911
              13.40889168               -0.42920544               54.60586504                0.44475275               -0.20729258                0.63872242               -2.27182411               -0.26817397                1.53387741               -0.04421140
              14.41149070               -1.43878707               54.29558483                0.47754976                0.72565269                0.97011244               -3.51639458               -0.20479292                1.14839374                0.17992397
              15.42340473               -2.45032427               53.97291318                0.54583117                1.49262807                1.28397817               -4.70358867               -0.23968047               -0.34863896                0.35760026
              16.44134326               -3.45542105               53.63191354                0.65289668                1.95562035                1.58980311               -5.85455053               -0.25246895               -2.17843565                0.43561572
              17.46251714               -4.45179016               53.27157542                0.80448368                2.22661822                1.88934461               -7.01934763               -0.22281858               -2.79293931                1.04635549
              18.48587562               -5.44156930               52.91655393                0.96356164                2.33584854                2.27528485               -8.18409333               -0.41385428               -2.41096604               -2.07060632
               9.38671458                5.34267591               56.18022413                0.82618838               -0.77851619               -1.07666190                3.27047084               -0.10409428                1.23142552                3.97461761
              10.37892942                4.41585137               55.82212579                0.34020055               -0.51557695               -0.55465392                2.12754356               -0.18986919                3.22145618               -3.39432859
              11.37640304                3.48408336               55.50439626                0.04332611                0.19135460                0.04990576                1.24171348               -1.01274719                6.04616313               -6.69248903
              12.38275651                2.53758215               55.20298117                0.00010000                0.92330820               -0.58009150                0.25676274               -1.97605541                7.61722260               -5.60725678
              13.39486921                1.56889790               54.91720252                0.00010000                1.29040038               -0.71489399               -0.73085889               -2.85555553                9.18110928               -4.38387942
              14.40856452                0.57718178               54.64780024                0.00010000                1.25664889               -0.43209943               -1.76445931               -3.35143535               10.12242589               -3.50349542
              15.42000218               -0.42908595               54.38119667                0.00010000                1.03801983                0.05939504               -2.79619452               -3.14424931                9.66051784               -2.48930632
              16.42932492               -1.43748449               54.10189320                0.03285599                0.97746670                0.51373445               -3.77898874               -2.21764294                8.15469137               -0.58391028
              17.43955152               -2.43952301               53.80370209                0.19117015                1.20190836                1.00087578               -4.74552123               -0.96380317                6.60018285                4.65186348
              18.45336308               -3.43289672               53.49167988                0.41995119                1.59823520                1.56255335               -5.72503793               -0.36265410                4.37091052                3.19302315
              19.47151622               -4.41881646               53.14744271                0.80284717                1.81531391                2.24058690               -6.77999685               -0.43069659                2.83183251               -3.24079586
              10.30972430                6.33210511               56.05371580                0.76067374               -0.66500890               -1.00059795                2.94178021               -0.09660472                0.32514228                4.72087766
              11.30307421                5.41144881               55.64245796                0.22835040               -0.62823002               -0.33927319                1.48030836               -0.07976726                3.38370077               -4.65536208
              12.29715970                4.48858682               55.29285464                0.00010000               -0.00876715                0.67112680                0.49071540               -2.16096579               11.85725786              -14.61283400
              13.30289887                3.52644038               55.05184509                0.00010000                1.08830532               -0.71370311               -0.48283442               -4.63487904               18.27890061              -11.11383064
              14.31892581                2.55162421               54.83225654                0.00010000                1.84739748               -1.32176392               -1.48532580               -5.72850763               19.65636323               -8.75544637
              15.33984682                1.56215257               54.61995786                0.00010000                2.21730867               -1.26925141               -2.49894500               -6.43539127               20.24343281               -6.95479860
              16.36327198                0.56240083               54.41253962                0.00010000                2.48210603               -0.84326120               -3.48746285               -6.18689638               20.80204839               -4.96491998
              17.38948894               -0.44004958               54.21086167                0.00010000                2.71037216               -0.38076049               -4.35564020               -4.80935310               23.59346846               -1.79233789
              18.41747943               -1.43540353               54.05833676                0.07440109                2.25342778                0.02692798               -4.00818951               -2.70843590               18.39606616                2.20543979
              19.43455750               -2.42053910               53.75293759                0.22383843                1.58108706                1.06554400               -4.27814162               -0.97179323                6.09146017                2.03024725
              20.44910117               -3.39675757               53.35289736                0.67301066                1.45436697                2.82834198               -5.62770092               -0.74509714                1.37950352               -7.43535185
              11.22609508                7.32266395               55.92388227                0.75259736               -0.52427163               -0.88113061                2.57630437               -0.07681014                0.07202214                4.50891960
              12.22085237                6.40906590               55.46625430                0.21710433               -0.39514618               -0.16435778                0.91578866                0.16367235                1.48028285               -4.35835918
              13.21819216                5.49750590               55.03715686                0.00010000                0.30845865                0.82301709               -0.36063743               -2.57508004               17.21398293              -14.87023956
              14.22702154                4.52330809               54.89460224                0.00010000                1.31973520               -0.00021238               -1.21784957               -5.61473175               30.89430457              -11.31994337
              15.24458687                3.54246262               54.74200932                0.00010000                2.10292653               -0.55529594               -2.20278934               -6.22671200               30.47050124               -8.89727969
              16.26908007                2.55179675               54.59313047                0.00010000                2.69397705               -0.73732560               -3.23121241               -6.77319317               30.86065450               -6.73935741
              17.29846641                1.55404883               54.44943816                0.00010000                3.09310708               -0.62263927               -4.25263610               -6.74461954               31.61229550               -4.53447406
              18.33094221                0.55490030               54.31560781                0.00010000                3.37029544               -0.33322645               -5.14751072               -6.01567175               32.07341639               -2.28912336
              19.36587231               -0.43898446               54.18028578                0.07711307                3.21695195               -0.06147834               -6.20642337               -4.03009909               27.18562927               -2.15682546
              20.39528125               -1.41158584               53.94863350                0.22353005                2.15894504                1.28047105               -4.92351499               -1.18030049               11.41693812               -1.98802970
              21.40905122               -2.36224962               53.49800908                0.67119614                1.37699630                3.43682114               -6.40384199               -0.00737483                0.48411143              -10.68838546
              12.13538420                8.31448250               55.79379120                0.74634402               -0.38784870               -0.76042993                2.22556711               -0.07507508                0.08098375                4.50804748
              13.13150572                7.40816166               55.29267080                0.20893083               -0.19841423               -0.01475061                0.35969769                0.22086266                1.47216791               -4.17781086
              14.13141592                6.50504716               54.81963952                0.00010000                0.70708989                0.78635854               -0.97947322               -3.16589009               22.44080029              -12.44324810
              15.14564751                5.52643613               54.73819915                0.00010000                1.72434937                0.49893984               -1.87254213               -6.75656388               41.65135287              -10.73637998
              16.16590290                4.54051829               54.65324906                0.00010000                2.35746198                0.09038189               -2.86614148               -7.16238515               41.32429103               -8.47377363
              17.19279675                3.54740606               54.56858274                0.00010000                2.96865694               -0.15565467               -3.93439743               -7.49153758               41.43492257               -6.26762672
              18.22527604                2.54994804               54.48808868                0.00010000                3.47060194               -0.16477158               -5.04196907               -7.39422595               41.82766564               -4.05957362
              19.26220879                1.55328589               54.41233815                0.00010000                3.90437698                0.05212179               -6.21506891               -6.65825721               42.24839312               -1.94241083
              20.30336358                0.56336690               54.34055316                0.08245774                3.60039282                0.48044361               -7.52640890               -4.28955246               35.05743738                0.81873088
              21.33421665               -0.39492968               54.12179980                0.23061687                2.34588210                1.85613638               -5.54070243               -1.33847536               14.19219234               -2.66747587
              22.35028123               -1.32802114               53.63116328                0.67544689                1.60645775                3.32340561               -7.19187427                0.11813343                0.74404062              -10.92191704
              13.03723527                9.30745536               55.66451090                0.74011682               -0.25303056               -0.64656333                1.88074962               -0.07416646                0.08220245                4.54205678
              14.03470496                8.40877089               55.12010332                0.20085772               -0.03176907                0.13681440               -0.18929226                0.21742047                1.89185501               -4.08694251
              15.03659989                7.51323307               54.61205648                0.00010000                1.08570866                0.88185835               -1.52311108               -3.64960239               28.05211313              -11.71071650
              16.05641914                6.53328688               54.59114451                0.00010000                2.18846760                0.83595066               -2.42651199               -7.73856781               52.12076005               -9.83112613
              17.08036924                5.54427026               54.56950397                0.00010000                2.67002152                0.57738541               -3.44606077               -8.10714608               51.90012146               -7.72060852
              18.10981957                4.54868366               54.54868851                0.00010000                3.21664077                0.34299530               -4.56508429               -8.25874315               51.93306481               -5.49083617
              19.14470205                3.55075340               54.53120048                0.00010000                3.72693228                0.28462256               -5.77539409               -7.98863518               52.25411121               -3.16688338
              20.18435821                2.55594274               54.51911577                0.00010000                4.17973886                0.45491822               -7.10091665               -7.14907590               52.78600947               -0.55956336
              21.22829683                1.57062442               54.51349364                0.08783978                3.77707897                0.88548876               -8.62242694               -4.45365244               42.39909710                2.62916949
              22.25989979                0.62553689               54.29411573                0.23790753                2.46499931                2.10099301               -5.87120852               -1.21077874               16.27328806               -2.08491264
              23.27759682               -0.29578150               53.76232498                0.67972363                1.76970266                3.12435868               -7.70162428                0.11283130                0.88326155              -10.42366839
              13.93126980               10.30155124               55.53559408                0.73394514               -0.11933926               -0.53497794                1.53768245               -0.07364078                0.08545384                4.53670562
              14.93007641                9.41089795               54.94823311                0.19285648                0.13190376                0.28931061               -0.73390107                0.18186605                2.47715656               -4.02547227
              15.93390788                8.52268433               54.40877715                0.00010000                1.48812790                1.00701171               -2.00174592               -4.06147988               33.94505246              -11.28825591
              16.95983897                7.54315515               54.45105691                0.00010000                2.72276664                1.08737614               -2.88550050               -8.49439448               62.69524168               -9.02430526
              17.98836321                6.55206600               54.49291074                0.00010000                3.06498937                0.88033102               -3.91900720               -8.83537371               62.43492195               -6.76965285
              19.02113875                5.55426596               54.53567963                0.00010000                3.49405268                0.67716970               -5.07979254               -8.80361193               62.44465203               -4.47381805
              20.05824426                4.55564050               54.58238054                0.00010000                3.91087502                0.62952296               -6.36169506               -8.35787631               62.83640811               -1.98657169
              21.09935625                3.56238425               54.63634184                0.00010000                4.32260596                0.77822708               -7.79088341               -7.42120764               63.61380636                0.92736930
              22.14469638                2.58107668               54.70031759                0.09332402                3.85253694                1.12899519               -9.44974947               -4.43086956               49.38856634                4.55989114
              23.17640699                1.64709018               54.46918694                0.24520832                2.52391275                2.12400206               -5.95265062               -1.03675408               17.80330710               -1.21095390
              24.19517464                0.73446603               53.89592874                0.68406485                1.87676438                2.92258871               -7.94938575                0.10534640                0.98704306               -9.58450618
              14.81706903               11.29675580               55.40663576                0.72773942                0.01401624               -0.42428242                1.19416118               -0.07411200                0.08767429                4.48804792
              15.81720919               10.41455710               54.77666257                0.18512751                0.30220314                0.44347096               -1.27709406                0.11016557                3.21285815               -3.99111873
              16.82311309                9.53337331               54.20916814                0.00010000                1.99701929                1.09085175               -2.39656320               -4.46910108               40.14248235              -10.82268338
              17.85714958                8.55503441               54.31808392                0.00010000                3.47189286                1.15676458               -3.23864846               -8.99989049               73.46325715               -8.06790513
              18.89255095                7.56187688               54.42458420                0.00010000                3.65116267                0.89839213               -4.26572163               -9.12468453               72.99238495               -5.63193523
              19.93017283                6.56222705               54.53086008                0.00010000                3.84376441                0.79144314               -5.44405940               -8.76836061               72.94884544               -3.33602796
              20.96942624                5.56334386               54.64208544                0.00010000                4.01625232                0.88590690               -6.76607296               -8.21146818               73.53513363               -0.82685686
              22.01049788                4.57150728               54.76418269                0.00010000                4.27736366                1.04765931               -8.25557718               -7.38084257               74.76413452                2.31897381
              23.05497351                3.59320432               54.90185088                0.09889244                3.76387400                1.29407117               -9.97958046               -4.36820872               56.14094313                6.46863844
              24.08577536                2.66801693               54.64958736                0.25248897                2.49892711                2.00951596               -5.81609262               -0.91111725               18.86903107               -0.15168544
              25.10495205                1.76267027               54.03461984                0.68843203                1.91766956                2.71333651               -7.96459376                0.08923865                1.06104780               -8.53417308
              15.69418495               12.29306559               55.27712190                0.72166979                0.14772634               -0.31378006                0.84777816               -0.07576532                0.10849297                4.44789198
              16.69566221               11.41976737               54.60511487                0.17714655                0.49318015                0.60052305               -1.82086739               -0.04061440                4.19506735               -4.03575486
              17.70404855               10.54450136               54.01471756                0.00010000                2.78376847                1.02064053               -2.68820866               -5.00561743               46.80477267               -9.97711873
              18.75133758                9.56629044               54.19505807                0.00010000                4.73141612                0.71940141               -3.47292493               -9.10759939               84.46430642               -6.55557966
              19.79867687                8.57003384               54.36676355                0.00010000                4.64834935                0.40694554               -4.46839127               -8.39184408               83.43903935               -4.17985739
              20.84430457                7.57009482               54.53447749                0.00010000                4.30289006                0.69455318               -5.63325351               -7.56688414               83.21131034               -2.18256547
              21.88473467                6.57335863               54.70822151                0.00010000                3.87871859                1.15068740               -6.96039789               -7.06012190               84.17534670                0.01161787
              22.92187894                5.58333744               54.89947386                0.00010000                3.80439405                1.50242725               -8.47253469               -6.75213209               86.28322541                3.02929241
              23.96082256                4.60695810               55.11682798                0.10455009                3.34198793                1.60797487              -10.21827393               -4.42340322               62.91775686                7.85013810
              24.98871870                3.68728050               54.83698699                0.25991037                2.34150870                1.81071624               -5.48763628               -0.94076210               19.63233174                1.09472963
              26.00765273                2.78873276               54.18045745                0.69272162                1.89340316                2.49287686               -7.77738241                0.06282181                1.14264384               -7.36029746
              16.56215016               13.29048020               55.14768941                0.71535843                0.28109642               -0.20097278                0.50092850               -0.07716981               -0.06382465                3.87121423
              17.56496113               12.42656756               54.43215331                0.16940526                0.71637548                0.75683164               -2.37217706               -0.38089126                5.70886850               -3.61991383
              18.57647767               11.55378612               53.83185140                0.00010000                4.22519924                0.47334798               -2.85747907               -5.38715815               54.44658032               -7.20826403
              19.64946511               10.56942244               54.09060693                0.00010000                7.22160037               -1.01489420               -3.58117553               -7.12211990               95.60587236               -3.89843216
              20.72090968                9.57001579               54.32339496                0.00010000                6.30226214               -0.37611014               -4.51257597               -5.58892911               93.26738672               -2.27474288
              21.77551035                8.57611812               54.54619239                0.00010000                4.70357523                0.49883814               -5.62126631               -4.53343001               92.72060209               -1.07604890
              22.81498118                7.58635760               54.77580325                0.00010000                3.31727063                1.43812533               -6.91300911               -4.30439411               94.13679349                0.26140824
              23.84185577                6.60155582               55.03086937                0.00102025                2.37905989                2.30449015               -8.41201773               -4.65033152               97.95818644                2.30152604
              24.86256238                5.62536382               55.33604604                0.11041970                2.16648438                2.63952238              -10.16402332               -3.75604033               70.43330583                6.34520747
              25.88518545                4.70423126               55.03409628                0.26725608                2.03707954                1.57526453               -4.98261780               -1.30642881               20.58877619                1.97264209
              26.90330397                3.81252781               54.33437486                0.69701940                1.81185182                2.28227941               -7.40825875               -0.01123871                1.04820119               -5.39720535
              17.42046681               14.28904613               55.00692146                0.85570381                0.42716515               -0.14340642                0.10176915                0.41745197                1.75960451                3.29356168
              18.42473846               13.43490400               54.26829074                0.58221819                1.64918514                0.83364351               -2.88082563               -0.77615657                9.98262701               -3.12698336
              19.45345052               12.55396832               53.69378917                0.47195701                8.39635204                0.01822063               -2.93626074               -6.74828785               63.52023116               -5.21075480
              20.59266551               11.54599255               54.01938179                0.44619251               11.33760469               -2.34298827               -3.57115482               -5.25279478              105.25018417               -2.00114583
              21.68020261               10.56251164               54.29902831                0.43820084                7.23143250               -0.75041554               -4.37772672               -2.36675517              101.62445289               -1.07579799
              22.73729416                9.58007159               54.56549490                0.44472348                4.65032380                0.39534709               -5.37550368               -1.84114470              100.83584853               -0.38589375
              23.77320909                8.60212114               54.83855665                0.46564305                2.62859700                1.57635353               -6.57699123               -1.70942702              102.38515212                0.38623006
              24.78986610                7.62942724               55.14065795                0.50213219                0.49086154                2.78714195               -8.01866483               -2.31759664              107.37850204                1.61541506
              25.78302632                6.65974855               55.51067328                0.55719105               -0.72199821                3.43847309               -9.76680210               -3.48567890               79.14348943                4.68146696
              26.77542613                5.71878579               55.23154117                0.63607949                0.39042666                1.45545387               -4.35323873               -2.24444222               24.93955213                2.33355014
              27.79083485                4.83437835               54.51175437                0.84988704                1.54087182                2.18505414               -6.84004318                0.31234328                3.23615821               -3.85497529
               8.78937086                4.53265184               57.36368167                0.93560459               -1.02234920               -1.13689226                3.86139466               -0.26610864               -2.74677578                3.18195470
               9.77914737                3.55602784               56.99963532                0.71310132               -0.97802641               -0.69163819                2.67502404               -0.24757493               -3.83522876               -2.05645674
              10.76981034                2.57546969               56.61451199                0.55310122               -1.04864806               -0.36343914                1.38537629               -0.48685099               -3.78883069               -0.89583614
              11.75817441                1.58063150               56.25180998                0.48096682               -1.12598584               -0.04232975                0.16990984               -0.51018771               -1.64362783               -0.41704822
              12.74729062                0.56416824               55.90907202                0.44588617               -0.83851163                0.31325806               -1.09961160               -0.42000818                0.23160216               -0.28013469
              13.74140418               -0.47413190               55.58246656                0.44454874               -0.13366741                0.66826082               -2.40885131               -0.25953878                1.30384173               -0.04767678
              14.74461727               -1.52620787               55.25946037                0.47610982                0.77752737                1.01475657               -3.71008304               -0.19679722                0.95632796                0.17758188
              15.75695473               -2.58033367               54.92463234                0.54184507                1.54189302                1.34362821               -4.95447067               -0.22703641               -0.48591585                0.36015620
              16.77545513               -3.62840253               54.57185863                0.64470535                2.02764264                1.66440006               -6.16260929               -0.24320615               -2.30014578                0.43371046
              17.79750758               -4.66789530               54.19956926                0.79033843                2.32953136                1.97947106               -7.38583844               -0.22207891               -2.91887769                1.04719902
              18.82204576               -5.70053887               53.83262953                0.95401006                2.45381799                2.37837553               -8.60247885               -0.44550381               -2.53260047               -2.14749985
               9.76333378                5.52128292               57.21353627                0.81147065               -0.80710817               -1.11709598                3.39286106               -0.11069570                1.33314456                4.15633264
              10.75526270                4.54911146               56.84375785                0.32242463               -0.53468917               -0.57138900                2.19936812               -0.19943537                3.45415992               -3.59939043
              11.75264000                3.57183530               56.51697622                0.03715068                0.17302799                0.06638674                1.27495436               -1.02139042                6.36003802               -6.99009633
              12.75872326                2.58020820               56.20551091                0.00010000                0.89161173               -0.57453522                0.24989894               -1.97619367                7.88128272               -6.03384004
              13.77047223                1.56730082               55.90965917                0.00010000                1.26367929               -0.69721094               -0.77712124               -2.81753091                9.42293167               -4.93132112
              14.78399684                0.53255071               55.62974048                0.00010000                1.26389766               -0.42116972               -1.84762424               -3.27392225               10.34273463               -4.16163206
              15.79575019               -0.51606031               55.35264725                0.00010000                1.08924221                0.06659933               -2.91393379               -3.05485720                9.90282852               -3.24392213
              16.80578169               -1.56689739               55.06334319                0.02693065                1.05268490                0.55077209               -3.93178239               -2.15180793                8.42555981               -1.38607062
              17.81680388               -2.61175853               54.75532805                0.17923869                1.27866360                1.06526586               -4.93244381               -0.95876526                6.86990195                4.40343503
              18.83135496               -3.64810059               54.43332051                0.39836442                1.67152062                1.63763863               -5.94795296               -0.36186294                4.59372298                3.26833129
              19.85023430               -4.67675512               54.07830963                0.78812639                1.88793345                2.34127379               -7.04604277               -0.46879227                3.01585979               -3.45249250
              10.73149988                6.51030992               57.08369530                0.74822250               -0.68935890               -1.03777732                3.05509470               -0.09986010                0.31666099                4.94480023
              11.72460629                5.54460006               56.65747764                0.21462320               -0.66070446               -0.34814141                1.52401633               -0.07231018                3.62027583               -4.91409856
              12.71828579                4.57679742               56.29782152                0.00010000               -0.07106351                0.71747076                0.50725975               -2.18436544               12.33896121              -15.27393310
              13.72318502                3.56914079               56.04680330                0.00010000                1.01558492               -0.68118879               -0.52219327               -4.67909503               18.73442289              -11.94043137
              14.73859749                2.55022402               55.81690519                0.00010000                1.80509204               -1.28496945               -1.58676446               -5.70068538               20.08170937               -9.82180187
              15.75928686                1.51744471               55.59413540                0.00010000                2.21853707               -1.24344518               -2.67229129               -6.35099224               20.66951293               -8.25501679
              16.78296823                0.47512411               55.37650503                0.00010000                2.51649651               -0.81934129               -3.73137422               -6.05219686               21.30221917               -6.49037273
              17.80961679               -0.56931823               55.16592507                0.00010000                2.72573991               -0.30687186               -4.65068145               -4.67893179               24.76105102               -3.49341053
              18.83748303               -1.60709721               55.01668805                0.06681249                2.28250605                0.23751125               -4.36808291               -2.65877061               19.92866706                0.25865183
              19.85526691               -2.63514253               54.70968280                0.20976589                1.62479750                1.31470703               -4.37751177               -0.96320728                6.77597639                1.00993995
              20.86997898               -3.65371340               54.29582383                0.66324062                1.47120660                3.07837372               -5.79354757               -0.73755813                1.44929777               -8.86360300
              11.69275631                7.50052738               56.95014396                0.74041283               -0.54273119               -0.91332040                2.67742460               -0.07997304                0.07467745                4.71861775
              12.68732900                6.54214863               56.47551716                0.20380896               -0.41721751               -0.16815527                0.93721435                0.18476945                1.69688936               -4.56964569
              13.68441196                5.58618471               56.03370908                0.00010000                0.21928842                0.85500532               -0.31676127               -2.57503529               17.82029815              -15.45172557
              14.69171476                4.56658442               55.88216147                0.00010000                1.18713238                0.06677918               -1.26494971               -5.66243462               31.60211343              -12.09512700
              15.70815461                3.54160143               55.71926334                0.00010000                2.01810703               -0.47649662               -2.34859332               -6.22351197               31.07562922               -9.90295427
              16.73207691                2.50768181               55.55959806                0.00010000                2.66572905               -0.64055046               -3.48603993               -6.72748183               31.43929333               -8.00299064
              17.76146919                1.46755287               55.40518962                0.00010000                3.11737372               -0.49474474               -4.61646397               -6.64530112               32.26342227               -6.08129436
              18.79442438                0.42696517               55.26198549                0.00010000                3.39917911               -0.13586697               -5.60413400               -5.82665808               32.74055958               -4.20671993
              19.82945277               -0.60700830               55.11603762                0.06939618                3.21413112                0.34766078               -6.66203996               -3.89368337               28.97199743               -5.13643986
              20.85870700               -1.62180645               54.89696346                0.20964142                2.15860551                1.76982929               -5.48362189               -1.17617752               12.96530456               -4.04256653
              21.87262488               -2.61518764               54.43126610                0.66175235                1.39178769                3.89621606               -7.00944485                0.04471660                0.65447740              -13.10852872
              12.64665791                8.49204352               56.81648341                0.73437162               -0.40135678               -0.78838075                2.31582201               -0.07713113                0.08508964                4.72638802
              13.64264434                7.54123695               56.29625792                0.19611622               -0.21543083               -0.01257486                0.35796958                0.23680166                1.77177452               -4.38090100
              14.64234929                6.59389753               55.81004105                0.00010000                0.59376355                0.80119013               -0.91952596               -3.16252724               23.21445447              -12.87530186
              15.65451961                5.57047637               55.71919717                0.00010000                1.53402849                0.58327341               -1.91687570               -6.79483117               42.52629585              -11.41248949
              16.67302986                4.54069409               55.62370978                0.00010000                2.21330872                0.21694939               -3.04287484               -7.16959137               42.08256991               -9.39385255
              17.69878578                3.50463370               55.52767673                0.00010000                2.88744899                0.01568031               -4.25950319               -7.46261857               42.12604600               -7.45630911
              18.73077884                2.46522922               55.43539273                0.00010000                3.44295069                0.06387209               -5.52031926               -7.30337065               42.47645579               -5.55984847
              19.76764480                1.42796443               55.34725714                0.00010000                3.88010705                0.37204467               -6.82843665               -6.43094883               42.82702904               -3.87561561
              20.80838098                0.39985600               55.26188825                0.07451622                3.61389510                0.96474029               -8.22661798               -4.11667819               37.23602868               -1.59753778
              21.83992270               -0.59974594               55.06247022                0.21652802                2.46273612                2.39272136               -6.43600242               -1.30540130               16.19365303               -4.40789054
              22.85763570               -1.57578908               54.55495002                0.66581756                1.77130028                3.84642251               -8.14854362                0.19120124                0.97709069              -13.05245144
              13.59282681                9.48475976               56.68370385                0.72855367               -0.26157940               -0.67032283                1.95991480               -0.07638456                0.08594213                4.76277011
              14.59021102                8.54189713               56.11809163                0.18843477               -0.04524080                0.14506456               -0.21326474                0.22151222                2.31066483               -4.28367799
              15.59192199                7.60220852               55.59714727                0.00010000                0.94052854                0.90024582               -1.42848227               -3.63700268               29.03685445              -12.07176141
              16.60902159                6.57824989               55.56664436                0.00010000                1.93417293                0.93373903               -2.45710566               -7.75105039               53.16191761              -10.39925095
              17.63060545                5.54594042               55.53406784                0.00010000                2.46339076                0.74375160               -3.63979387               -8.09868744               52.79519049               -8.52965852
              18.65828940                4.50799542               55.50119254                0.00010000                3.07327951                0.58257207               -4.94687242               -8.20850858               52.71874412               -6.56108897
              19.69207104                3.46883031               55.47065586                0.00010000                3.64446088                0.60643859               -6.35747636               -7.85859362               52.94362050               -4.53220731
              20.73117862                2.43440607               55.44434412                0.00010000                4.13792676                0.87264645               -7.88021745               -6.83462134               53.33906890               -2.26210294
              21.77482958                1.41228650               55.42254496                0.07969141                3.85327190                1.41345990               -9.58405203               -4.18652169               45.03977887                0.52485488
              22.80824406                0.42604798               55.23054669                0.22343912                2.68528007                2.62366971               -6.97773858               -1.14742444               18.77933292               -3.41483250
              23.82853518               -0.53825919               54.68000964                0.66991656                2.02911220                3.64650962               -8.88273539                0.16406382                1.14711739              -12.12212102
              14.53085547               10.47863706               56.55130640                0.72273403               -0.12296429               -0.55559982                1.60603947               -0.07681901                0.08906949                4.75622699
              15.52962583                9.54413825               55.94066751                0.18085145                0.12005045                0.30426049               -0.77974862                0.17474247                3.04622631               -4.21865706
              16.53325648                8.61190245               55.38924579                0.00010000                1.30704372                1.03295186               -1.85843978               -4.04185498               35.18520571              -11.56275071
              17.55576670                7.58915116               55.42209572                0.00010000                2.40270535                1.18953475               -2.88467515               -8.46664394               63.92049926               -9.48511766
              18.58131059                6.55556912               55.45272119                0.00010000                2.79795097                1.07226786               -4.11399443               -8.78016335               63.47247374               -7.44855982
              19.61172572                5.51628514               55.48282809                0.00010000                3.29428641                0.96881606               -5.50164307               -8.69378210               63.33867463               -5.38791714
              20.64719631                4.47735799               55.51552519                0.00010000                3.78852286                1.02384991               -7.03245162               -8.15453894               63.59573449               -3.15188137
              21.68749618                3.44541736               55.55387479                0.00010000                4.29061603                1.26244084               -8.72577178               -7.02036280               64.18969910               -0.50977880
              22.73300863                2.42812520               55.59979024                0.08497558                4.00118648                1.66937921              -10.66522114               -4.11155768               52.52278578                2.81789837
              23.76751991                1.45272745               55.40426304                0.23048957                2.82613468                2.62131983               -7.18029746               -0.97395339               20.81309137               -2.18338570
              24.78953133                0.49714111               54.81052792                0.67403722                2.20114208                3.42276241               -9.26412649                0.14297834                1.26936138              -10.89203084
              15.46028806               11.47364776               56.41886152                0.71673905                0.01524200               -0.44258916                1.25228235               -0.07754646                0.09136298                4.70433388
              16.46044048               10.54798234               55.76355840                0.17322837                0.28919634                0.46552864               -1.34472663                0.08838892                3.98351314               -4.18309496
              17.46607198                9.62286755               55.18607419                0.00010000                1.77907793                1.10747137               -2.16836017               -4.44318365               41.69180711              -10.99656571
              18.49602204                8.60204059               55.28578769                0.00010000                3.08981068                1.24798811               -3.19036911               -8.92155055               74.88563800               -8.41342116
              19.52786820                7.56738577               55.38098837                0.00010000                3.33014253                1.10087935               -4.44418685               -8.99970186               74.19079846               -6.16606687
              20.56262489                6.52737174               55.47424984                0.00010000                3.59899232                1.11379363               -5.88621531               -8.58103269               73.97118326               -4.06655447
              21.59984804                5.48930731               55.57083397                0.00010000                3.86896327                1.32583980               -7.50405297               -7.92330325               74.39057558               -1.76009702
              22.64000415                4.45965488               55.67638098                0.00010000                4.27201435                1.58057897               -9.32497860               -6.91334898               75.40108998                1.17527507
              23.68528833                3.44567409               55.79471116                0.09030007                3.98724616                1.83437003              -11.44779872               -4.03288194               59.76568287                5.11135704
              24.71974908                2.47847438               55.58576463                0.23745518                2.86395464                2.47458716               -7.09830284               -0.86916946               22.34942487               -0.80892339
              25.74256742                1.53019605               54.94874807                0.67821791                2.28183486                3.18308075               -9.34644797                0.11416345                1.35440436               -9.49569932
              16.38063538               12.46978528               56.28583016                0.71092535                0.15384330               -0.32968055                0.89514309               -0.07887097                0.11318585                4.66124845
              17.38217382               11.55344882               55.58646866                0.16565305                0.48495901                0.62949664               -1.90998548               -0.09345395                5.21932571               -4.23090063
              18.39033456               10.63405187               54.98910568                0.00010000                2.53218269                0.99224116               -2.36644265               -4.97325644               48.73226368              -10.04160154
              19.43281747                9.61411092               55.16070838                0.00010000                4.28254170                0.79019280               -3.35786971               -8.94663228               86.10582803               -6.78318257
              20.47598540                8.57758671               55.32128329                0.00010000                4.26830322                0.62654338               -4.61392445               -8.20912245               84.82305197               -4.55724559
              21.51818353                7.53856101               55.47596904                0.00010000                4.02308516                1.02495260               -6.07283194               -7.33056864               84.38688601               -2.70457714
              22.55644710                6.50387479               55.63481856                0.00010000                3.73394425                1.59269620               -7.73577713               -6.71468848               85.14581836               -0.66037488
              23.59286242                5.47702894               55.80893390                0.00010000                3.85422019                2.06041188               -9.64982544               -6.23624102               87.00256654                2.20707599
              24.63353150                4.46481260               56.00613779                0.09581998                3.63760658                2.15139269              -11.91687464               -4.08612158               66.98425259                6.88154543
              25.66561455                3.50221920               55.77639981                0.24463035                2.74198694                2.24091631               -6.77418953               -0.93889069               23.52767270                0.72173688
              26.68837124                2.56080273               55.09636985                0.68233926                2.27566926                2.93224164               -9.17157320                0.07688763                1.43887014               -8.01532255
              17.29138355               13.46705415               56.15287678                0.70496317                0.29212465               -0.21392867                0.53807593               -0.08029366               -0.06806188                4.05598497
              18.29430480               12.56057228               55.40788576                0.15830195                0.72806013                0.79232403               -2.48367605               -0.50421728                7.05274987               -3.79571170
              19.30594476               11.64271238               54.80508609                0.00010000                3.96248797                0.30656777               -2.40974482               -5.22443463               56.82257561               -7.19057815
              20.37355456               10.61784444               55.05548931                0.00010000                6.66454473               -0.86488431               -3.39712047               -6.91917560               97.48889920               -4.02155370
              21.43923565                9.57991664               55.27768081                0.00010000                5.80854362               -0.13164356               -4.61259234               -5.41770797               94.87465908               -2.47585259
              22.48972543                8.54787079               55.48793062                0.00010000                4.39253487                0.82332610               -6.03193954               -4.35790786               94.08521949               -1.35631158
              23.52708635                7.52116123               55.70287075                0.00010000                3.23080421                1.84184746               -7.68400806               -4.01732469               95.24587921               -0.10478204
              24.55434152                6.50086312               55.94066333                0.00010000                2.56446472                2.78856217               -9.64106851               -4.21681895               98.74743807                1.84550433
              25.57837564                5.48870194               56.22488581                0.10152667                2.53198085                3.20066811              -12.05244643               -3.43489187               74.87424457                5.81125697
              26.60498113                4.52329270               55.97866901                0.25167278                2.42812343                1.97177741               -6.23853021               -1.37211745               24.83277084                1.84292019
              27.62693811                3.58884089               55.25406325                0.68642870                2.19569781                2.69693557               -8.77878020               -0.00999712                1.34022354               -5.76121687
              18.19199326               14.46550670               56.00804520                0.85048629                0.44379822               -0.15474494                0.12456750                0.43983063                1.84121983                3.45006969
              19.19643125               13.56929530               55.23883680                0.57675683                1.82902202                0.87230241               -3.01247756               -1.05352908               11.70713951               -3.27920196
              20.22857370               12.64018323               54.66660940                0.47080708                8.03992230               -0.25291465               -2.40245255               -6.36120864               66.41879632               -5.20719822
              21.35722969               11.59681323               54.98461717                0.44596717               10.45155930               -2.10312100               -3.33624519               -4.89395655              107.41992299               -2.06566658
              22.43760489               10.57495383               55.25491989                0.43821614                6.62755476               -0.49628075               -4.42433105               -2.25236081              103.51414644               -1.17672763
              23.48978079                9.55502754               55.50997819                0.44445046                4.27516909                0.71567484               -5.72725174               -1.70656940              102.44891019               -0.52524168
              24.52310827                8.54071174               55.76928160                0.46460216                2.56022715                1.95505052               -7.28545983               -1.50917527              103.68710166                0.19925281
              25.54098533                7.53280018               56.05463639                0.49968549                0.96479071                3.19370617               -9.19649077               -1.92990719              108.25386272                1.37619094
              26.54240409                6.52882596               56.40332312                0.55271105               -0.14760381                4.01240243              -11.67413755               -3.15442759               83.72557386                4.35938193
              27.53803325                5.54165475               56.18260963                0.62817301                0.73354233                1.83620428               -5.56008972               -2.39901405               29.42102500                2.35004022
              28.55707493                4.61474144               55.43731138                0.84451328                1.90416786                2.59005548               -8.16307431                0.32235172                3.59595487               -4.03704167
               9.13131427                4.71756824               58.40299834                0.92736250               -1.05701211               -1.17793084                4.00251794               -0.27804887               -2.86358269                3.30722766
              10.12074415                3.69316771               58.02683013                0.70230737               -1.00600587               -0.71464701                2.76500369               -0.25838478               -4.00605765               -2.16965999
              11.11119415                2.66474352               57.62852052                0.54872884               -1.04711104               -0.37716125                1.41768164               -0.47775804               -3.97715436               -0.86804320
              12.09980193                1.62229939               57.25338891                0.47944545               -1.07910668               -0.03873549                0.14575516               -0.49019172               -1.82337559               -0.42908219
              13.08961202                0.55914510               56.89766944                0.44565847               -0.76108808                0.32932098               -1.18095395               -0.40168632                0.00155577               -0.28422152
              14.08458017               -0.52470683               56.55768801                0.44427704               -0.05802707                0.69871308               -2.54785932               -0.25261926                1.05710604               -0.05165714
              15.08845148               -1.62160920               56.22138317                0.47465495                0.83539930                1.06001442               -3.90686992               -0.19134337                0.74586600                0.17534797
              16.10128815               -2.72054285               55.87382377                0.53782674                1.59759688                1.40442137               -5.21040861               -0.21710890               -0.64424323                0.36209140
              17.12040342               -3.81368569               55.50866136                0.63679337                2.10402640                1.74019525               -6.47641510               -0.23340996               -2.44237363                0.43358297
              18.14336868               -4.89834868               55.12385865                0.77632033                2.43498312                2.07050483               -7.75770128               -0.22096164               -3.05958943                1.05008435
              19.16910308               -5.97587949               54.74450435                0.94456675                2.57343970                2.48188907               -9.02696370               -0.47787091               -2.66662421               -2.23591815
              10.15293432                5.70578893               58.24808135                0.79685316               -0.83616520               -1.15874103                3.51672643               -0.11784117                1.44111488                4.34821842
              11.14457266                4.68602124               57.86611315                0.30499986               -0.55417905               -0.58800906                2.27268509               -0.21038347                3.69942797               -3.81564655
              12.14185073                3.66097191               57.52989534                0.03088633                0.15632780                0.08158921                1.31037168               -1.03450475                6.69349069               -7.29521618
              13.14769922                2.62191203               57.20797915                0.00010000                0.86237663               -0.56590953                0.24314455               -1.99159297                8.16523453               -6.48391846
              14.15909827                1.56243831               56.90166010                0.00010000                1.23659539               -0.67805539               -0.82251175               -2.80079286                9.68689429               -5.52449431
              15.17243113                0.48228030               56.61084776                0.00010000                1.26788922               -0.40492529               -1.93165869               -3.21951522               10.58808026               -4.89579489
              16.18445605               -0.61100906               56.32291799                0.00010000                1.13620903                0.08301028               -3.03321239               -2.98518558               10.17139790               -4.10613533
              17.19515531               -1.70649863               56.02325755                0.02117164                1.12580900                0.59913755               -4.08815939               -2.10179426                8.72157602               -2.31886220
              18.20697223               -2.79628373               55.70505322                0.16726870                1.35503298                1.13728130               -5.12257687               -0.96266888                7.16455758                3.98625496
              19.22225597               -3.87764363               55.37272082                0.37718527                1.74414759                1.71827174               -6.17276945               -0.36021512                4.83814184                3.33192862
              20.24185518               -4.95106060               55.00652186                0.77368880                1.95992159                2.44466958               -7.31379632               -0.50659764                3.21794993               -3.70693652
              11.16849284                6.69439342               58.11481770                0.73582484               -0.71393298               -1.07703707                3.17104130               -0.10319320                0.30750065                5.18148909
              12.16135351                5.68140753               57.67293829                0.20097837               -0.69397855               -0.35642626                1.56860664               -0.06828685                3.87947615               -5.18667421
              13.15461327                4.66637530               57.30299983                0.00010000               -0.14249225                0.76399747                0.52990628               -2.21616259               12.84327783              -15.91887620
              14.15850366                3.61098120               57.04140122                0.00010000                0.93073158               -0.64501734               -0.55439975               -4.74904915               19.19286002              -12.80553287
              15.17322790                2.54558400               56.80052125                0.00010000                1.75667855               -1.24196819               -1.69116827               -5.71109706               20.49789111              -10.97616802
              16.19363723                1.46719466               56.56651203                0.00010000                2.21493998               -1.20423425               -2.85900423               -6.30122297               21.07953816               -9.70427983
              17.21752670                0.38005101               56.33791213                0.00010000                2.54448567               -0.77278466               -4.00117109               -5.94316955               21.79392727               -8.22937108
              18.24452695               -0.70856010               56.11784804                0.00010000                2.73841682               -0.20337654               -4.98757673               -4.56204850               25.91436795               -5.46536753
              19.27229503               -1.79094006               55.97097510                0.05921336                2.32071494                0.46851429               -4.85158667               -2.60305395               21.64795107               -1.94271382
              20.29094125               -2.86398324               55.66538736                0.19577580                1.67550173                1.62095213               -4.48624997               -0.94715723                7.65780433               -0.35874074
              21.30580507               -3.92698610               55.23702641                0.65362144                1.48638229                3.37571094               -5.96723955               -0.71627138                1.53445919              -10.65967268
              12.17684224                7.68424819               57.97743077                0.72841266               -0.56171945               -0.94715232                2.78158536               -0.08334025                0.07799547                4.94141586
              13.17122504                6.67889271               57.48499859                0.19068153               -0.44442120               -0.17191803                0.95919827                0.20168609                1.97170133               -4.79230755
              14.16795382                5.67625186               57.03082163                0.00010000                0.11422494                0.88638123               -0.24597766               -2.58642688               18.47641091              -16.01121286
              15.17350954                4.60901168               56.86930325                0.00010000                1.03545233                0.13611266               -1.29735944               -5.73259303               32.28128090              -12.88826433
              16.18866286                3.53759895               56.69503745                0.00010000                1.92150579               -0.38736299               -2.49713991               -6.24846161               31.63606349              -10.98439308
              17.21193966                2.45819561               56.52340968                0.00010000                2.63422776               -0.52546342               -3.76234682               -6.70331050               31.96332031               -9.40466720
              18.24134742                1.37353525               56.35710888                0.00010000                3.14828725               -0.33830852               -5.02170990               -6.55318607               32.86485190               -7.83331459
              19.27490540                0.28943383               56.20352513                0.00010000                3.44934406                0.09875209               -6.12513862               -5.63608968               33.42083754               -6.39418313
              20.31033430               -0.78691345               56.04704498                0.06184792                3.22267288                0.79244336               -7.17543575               -3.70411913               30.75525427               -8.39651437
              21.33935886               -1.84522459               55.83896106                0.19612312                2.16005859                2.36562601               -6.20475241               -1.12731233               14.51551255               -6.68698766
              22.35353547               -2.88354638               55.35782019                0.65246535                1.41766083                4.45861939               -7.74979992                0.12073890                0.89619538              -16.12303844
              13.17753699                8.67545038               57.84010764                0.72275306               -0.41534244               -0.81802126                2.40925487               -0.08130550                0.08775760                4.95819198
              14.17338357                7.67796917               57.29983019                0.18344597               -0.23856159               -0.01024874                0.35644081                0.24511734                2.15859848               -4.59511906
              15.17276576                6.68410293               56.80124900                0.00010000                0.45605711                0.81706261               -0.80559706               -3.17176447               24.05924292              -13.28044493
              16.18250471                5.61370345               56.69986163                0.00010000                1.31544904                0.66958131               -1.93560357               -6.85194098               43.35087367              -12.09573571
              17.19907474                4.53783674               56.59239157                0.00010000                2.05650078                0.35333640               -3.21946731               -7.19780235               42.76310157              -10.37548699
              18.22363472                3.45668539               56.48339268                0.00010000                2.80750066                0.20574565               -4.60994686               -7.44425655               42.72530408               -8.76894659
              19.25522475                2.37328483               56.37768230                0.00010000                3.43095646                0.32207694               -6.04810228               -7.20974917               43.03963932               -7.25281121
              20.29225385                1.29341494               56.27576941                0.00010000                3.88231604                0.73245942               -7.50833209               -6.20154727               43.36158950               -6.07430352
              21.33287107                0.22490881               56.17602080                0.06675592                3.63870399                1.50664847               -8.98594347               -3.87650630               39.31097450               -4.39560821
              22.36502793               -0.81667072               55.99307975                0.20258557                2.59961819                3.03360025               -7.57484652               -1.20298065               18.13862411               -6.58825190
              23.38486344               -1.83781371               55.46819241                0.65632137                1.98355045                4.48722781               -9.31472727                0.28959059                1.28775384              -15.64422044
              14.17017855                9.66788777               57.70370920                0.71709354               -0.27037065               -0.69661348                2.04171868               -0.08040325                0.08913066                4.99593043
              15.16747484                8.67868774               57.11583803                0.17604151               -0.06971503                0.15444366               -0.23750430                0.21916629                2.85628005               -4.49043800
              16.16878424                7.69259311               56.58348683                0.00010000                0.76310383                0.91997356               -1.26444313               -3.64332040               30.12282495              -12.38420971
              17.18273692                6.62240331               56.54200239                0.00010000                1.64703138                1.03030078               -2.44839071               -7.78292934               54.13261528              -10.96367237
              18.20172487                5.54466568               56.49670809                0.00010000                2.24347575                0.91687670               -3.82851470               -8.10436030               53.58466636               -9.38550711
              19.22760643                4.46231052               56.44975106                0.00010000                2.93490039                0.83824664               -5.35427525               -8.16076820               53.37953128               -7.73830108
              20.26042288                3.37997679               56.40405095                0.00010000                3.58220286                0.95699601               -6.99095303               -7.71700033               53.50703281               -6.07303478
              21.29925049                2.30408302               56.36151142                0.00010000                4.12334798                1.33684410               -8.72634715               -6.50629681               53.78853785               -4.22473006
              22.34288984                1.24321952               56.32181260                0.07167802                3.93856399                2.01798221              -10.58892393               -3.83714157               47.56027441               -1.96288506
              23.37802177                0.21544742               56.15456096                0.20927966                2.93617107                3.24376270               -8.38249462               -1.00590717               21.24649145               -5.05997178
              24.40161326               -0.79380183               55.58467027                0.66023043                2.35914939                4.28503519              -10.32253593                0.23350876                1.49142978              -14.15674067
              15.15432898               10.66151811               57.56771487                0.71145633               -0.12674314               -0.57845233                1.67742488               -0.07980729                0.09331340                4.98918562
              16.15306155                9.68105804               56.93263813                0.16879709                0.09273985                0.32031592               -0.82692582                0.15881213                3.79180565               -4.42159742
              17.15618378                8.70250240               56.37160835                0.00010000                1.08560004                1.04944958               -1.61223861               -4.04064407               36.56794743              -11.77354684
              18.17477355                7.63430946               56.39336341                0.00010000                2.04482703                1.28750066               -2.83277830               -8.45584478               65.05650607               -9.92638501
              19.19708032                6.55617427               56.41063085                0.00010000                2.51673486                1.26638832               -4.29712515               -8.73396194               64.38039281               -8.15861127
              20.22510825                5.47345032               56.42564677                0.00010000                3.10159636                1.27222417               -5.94625731               -8.58025257               64.07975648               -6.38982060
              21.25911225                4.39242475               56.44173150                0.00010000                3.68884683                1.44358755               -7.75238225               -7.93073844               64.19303193               -4.47100570
              22.29888518                3.32015183               56.46182641                0.00010000                4.28258002                1.79353237               -9.71905192               -6.58821502               64.60668186               -2.18765811
              23.34476385                2.26526845               56.48701316                0.07678275                4.15229754                2.29321963              -11.89654329               -3.69668125               55.57036306                0.70153669
              24.38193114                1.24820453               56.32558099                0.21594870                3.16341266                3.21271408               -8.73528302               -0.83381410               23.84915316               -3.37475115
              25.40803210                0.24788699               55.71064621                0.66418962                2.61009644                4.03580900              -10.86466151                0.19124633                1.63698017              -12.44222843
              16.12950253               11.65631872               57.43168141                0.70580451                0.01642580               -0.46214064                1.31330109               -0.08033200                0.09547848                4.93452535
              17.12966679               10.68509406               56.74976804                0.16140658                0.26087049                0.48819791               -1.41463132                0.04875159                4.99397269               -4.38488234
              18.13471994                9.71358210               56.16580093                0.00010000                1.51406801                1.10775156               -1.82508948               -4.43352068               43.43853125              -11.09191823
              19.15994815                8.64815332               56.25427653                0.00010000                2.65924171                1.33078527               -3.07411846               -8.85428374               76.19677243               -8.72248190
              20.18790477                7.56999344               56.33570046                0.00010000                2.99013733                1.30111109               -4.60299549               -8.88006916               75.23963445               -6.71626874
              21.21975089                6.48775501               56.41313577                0.00010000                3.36009173                1.44360898               -6.34567114               -8.38730697               74.81895983               -4.86440574
              22.25510661                5.40884854               56.49200438                0.00010000                3.74457985                1.78448021               -8.28386156               -7.61137003               75.05260867               -2.82071341
              23.29464249                4.33995367               56.57768312                0.00010000                4.28984508                2.15223894              -10.44068185               -6.40193827               75.81916063               -0.18330680
              24.34090351                3.28908391               56.67289491                0.08192702                4.20422261                2.45729519              -12.89313899               -3.59870578               63.35936031                3.38922756
              25.37872694                2.27970170               56.50762130                0.22271457                3.25848786                3.03031641               -8.71528123               -0.75303051               25.95613457               -1.60766601
              26.40607327                1.28691435               55.84769088                0.66815418                2.73463234                3.76120682              -11.02352386                0.14416210                1.73382669              -10.61941958
              17.09517167               12.65227529               57.29502477                0.70011155                0.16015342               -0.34669329                0.94546979               -0.08190682                0.11878560                4.88890402
              18.09677320               11.69082200               56.56691516                0.15430989                0.46412150                0.65955634               -2.00273201               -0.17389155                6.55426812               -4.43666078
              19.10445410               10.72465743               55.96738871                0.00010000                2.22516645                0.94443696               -1.88862584               -4.96455698               50.91310582              -10.00346158
              20.14127653                9.66092517               56.12790068                0.00010000                3.77115769                0.84646264               -3.16178342               -8.78803567               87.61421223               -6.96736804
              21.17987725                8.58219649               56.27448506                0.00010000                3.86152409                0.84343463               -4.73162579               -8.02729424               86.04163950               -4.93965584
              22.21850701                7.50232250               56.41302085                0.00010000                3.74044652                1.36138666               -6.52242861               -7.09041124               85.37534596               -3.27240052
              23.25468618                6.42811436               56.55350596                0.00010000                3.60520166                2.04751928               -8.54254510               -6.35332266               85.89512970               -1.42746104
              24.29061105                5.36319661               56.70647735                0.00010000                3.91777598                2.64048772              -10.85387162               -5.67765161               87.43443919                1.20664498
              25.33304170                4.31441435               56.87849049                0.08718607                3.92145191                2.76598570              -13.57090497               -3.66238338               71.09340580                5.57999106
              26.36904008                3.30881086               56.70150319                0.22948323                3.17241655                2.75890675               -8.38846326               -0.86833673               27.67055054                0.26921735
              27.39649003                2.32311113               55.99702599                0.67210907                2.74499486                3.47237960              -10.85780479                0.09236197                1.82464090               -8.76415292
              18.05077098               13.64938485               57.15845093                0.69443754                0.30358376               -0.22822982                0.57832524               -0.08315047               -0.07216106                4.25370194
              19.05380682               12.69828518               56.38247979                0.14717085                0.72773237                0.82979334               -2.60061603               -0.66850801                8.79681066               -3.98170504
              20.06532563               11.73247084               55.78365651                0.00010000                3.64207766                0.10601573               -1.77906500               -5.08053141               59.51505942               -7.07211295
              21.12664837               10.66508258               56.02266452                0.00010000                6.03179630               -0.72508317               -3.11985844               -6.70658836               99.20770661               -4.11781465
              22.18596156                9.58686214               56.23114311                0.00010000                5.26882152                0.11512128               -4.67861862               -5.24262841               96.31482168               -2.67661454
              23.23202480                8.51498274               56.42555360                0.00010000                4.06022490                1.15745539               -6.44575821               -4.18297871               95.26561544               -1.65980188
              24.26716605                7.44979893               56.62212309                0.00010000                3.13823309                2.25850671               -8.47506750               -3.73062892               96.11727037               -0.52302659
              25.29478946                6.39276343               56.83804800                0.00010000                2.74377677                3.29041719              -10.87816064               -3.75522552               99.17421529                1.27645544
              26.32204159                5.34440363               57.09499711                0.09269596                2.89369852                3.78236130              -13.87900115               -3.06803717               79.40586162                5.05063646
              27.35266344                4.33487983               56.90932568                0.23622505                2.86391906                2.45472531               -7.80757649               -1.36116978               29.43651951                1.67864899
              28.37931997                3.35636195               56.15879926                0.67599097                2.66565346                3.20150646              -10.43476259               -0.00876811                1.71923606               -6.16825872
              18.99570800               14.64771070               57.00941281                0.84530817                0.46090575               -0.16741585                0.15046397                0.46441878                1.93012088                3.61746221
              20.00031706               13.70741787               56.20804119                0.57133341                2.01690386                0.91326812               -3.15063927               -1.39562368               13.90104456               -3.44023696
              21.03604608               12.72677774               55.64574012                0.46960873                7.62182040               -0.56930942               -1.67616221               -5.97767311               69.70250711               -5.12572533
              22.15275347               11.64642351               55.95265689                0.44580380                9.45392209               -1.86590705               -3.00267829               -4.50343199              109.42223710               -2.11751157
              23.22512452               10.58449892               56.21054169                0.43824387                5.95785922               -0.23632193               -4.43557496               -2.13129830              105.26031021               -1.27833071
              24.27191065                9.52547161               56.45094986                0.44422997                3.85842002                1.04888703               -6.07941144               -1.57213647              103.90436613               -0.67831366
              25.30229292                8.47328449               56.69284745                0.46362628                2.44955920                2.34855676               -8.00816501               -1.31064641              104.77028463               -0.01855839
              26.32090183                7.42900495               56.95672814                0.49742870                1.36358147                3.62415243              -10.37223386               -1.54990868              108.74714561                1.06780926
              27.32956455                6.39006158               57.27719053                0.54817040                0.44782678                4.56579527              -13.50271677               -2.80268312               88.37904810                3.87948280
              28.32985837                5.35790537               57.12033938                0.62040679                1.18929494                2.30255309               -7.05532561               -2.42652263               34.29939502                2.35796126
              29.35335045                4.38714126               56.34849288                0.83925899                2.34920779                3.07793111               -9.74690020                0.32663699                4.04527173               -4.23404360
               9.48443563                4.90863037               59.44373202                0.91903121               -1.09315928               -1.22024394                4.14666789               -0.29049262               -2.98665639                3.44005630
              10.47350404                3.83406859               59.05493539                0.69188206               -1.03635830               -0.73782256                2.85673134               -0.27023628               -4.18683637               -2.28880568
              11.46370846                2.75535918               58.64286562                0.54459623               -1.04730286               -0.39075161                1.45081873               -0.46642628               -4.17858643               -0.83982463
              12.45255798                1.66286937               58.25472509                0.47789872               -1.03429129               -0.03518511                0.12157451               -0.47231250               -2.01682544               -0.44109403
              13.44302264                0.55050250               57.88545294                0.44544176               -0.68627031                0.34566268               -1.26235495               -0.38580827               -0.24426287               -0.28726689
              14.43883257               -0.58148454               57.53150937                0.44403681                0.01880983                0.72953312               -2.68752541               -0.24685538                0.79276481               -0.05585465
              15.44339883               -1.72577057               57.18132297                0.47329924                0.89795487                1.10585872               -4.10453101               -0.18679158                0.51540566                0.17319981
              16.45679167               -2.87195941               56.82042416                0.53391147                1.65869711                1.46605015               -5.46759181               -0.20856973               -0.82160689                0.36404493
              17.47657278               -4.01251460               56.44233033                0.62877657                2.18405612                1.81674220               -6.79248581               -0.22702771               -2.60358844                0.43370080
              18.50047279               -5.14461795               56.04441524                0.76242918                2.54245452                2.16272234               -8.13378008               -0.22124620               -3.22029012                1.05480313
              19.52742187               -6.26929225               55.65209026                0.93516780                2.69490737                2.58763384               -9.45732278               -0.51049576               -2.81895737               -2.33527857
              10.55609248                5.89642793               59.28387080                0.78223054               -0.86552111               -1.20200389                3.64345017               -0.12510224                1.55707802                4.55264322
              11.54743727                4.82669037               58.88921155                0.28751691               -0.57243343               -0.60437278                2.34785617               -0.22333123                3.95906206               -4.04409258
              12.54464381                3.75145167               58.54318365                0.02471743                0.14129644                0.10672155                1.34551648               -1.05964489                7.04410374               -7.60738215
              13.55026320                2.66251752               58.21037380                0.00010000                0.83488500               -0.55816665                0.23665550               -2.02648618                8.46632564               -6.95311004
              14.56134151                1.55395912               57.89320893                0.00010000                1.21186775               -0.65895961               -0.86825376               -2.81424357                9.97296398               -6.16510652
              15.57450055                0.42581079               57.59110731                0.00010000                1.27134215               -0.38591321               -2.01681177               -3.20084713               10.85758841               -5.71226077
              16.58676835               -0.71471198               57.29198300                0.00010000                1.17887168                0.10581892               -3.15526142               -2.94988861               10.46387025               -5.08829782
              17.59807799               -1.85729891               56.98158000                0.01532761                1.19317073                0.65331245               -4.24766195               -2.07928387                9.04311326               -3.40213907
              18.61063177               -2.99434717               56.65287652                0.15548775                1.42855861                1.22856725               -5.31721856               -0.96809305                7.48618642                3.32276532
              19.62664916               -4.12299072               56.30986512                0.35604834                1.81797214                1.80301814               -6.40266764               -0.35849250                5.10367040                3.38000035
              20.64699121               -5.24341591               55.93203370                0.75946513                2.03420531                2.55435338               -7.58755649               -0.54410976                3.43786809               -4.00394326
              11.62140871                6.88459029               59.14711612                0.72367354               -0.73950318               -1.11810913                3.28954355               -0.10651088                0.29700982                5.43350499
              12.61401368                5.82198114               58.68884977                0.18739909               -0.73601491               -0.36398946                1.61451682               -0.05808955                4.16340575               -5.47424270
              13.60668841                4.75749361               58.30841965                0.00010000               -0.22464397                0.81298118                0.55906762               -2.26416946               13.38690926              -16.54918142
              14.60952080                3.65170604               58.03571531                0.00010000                0.83780421               -0.60794004               -0.57686523               -4.86544716               19.65408550              -13.69942797
              15.62344450                2.53732330               57.78308182                0.00010000                1.69829687               -1.19579366               -1.79615048               -5.77404543               20.89421763              -12.22243302
              16.64348674                1.41079720               57.53695532                0.00010000                2.20331334               -1.15514857               -3.05796152               -6.31030814               21.45954510              -11.31604808
              17.66751076                0.27634581               57.29648161                0.00010000                2.56772237               -0.70858036               -4.29850814               -5.89039708               22.25906764              -10.20686841
              18.69484118               -0.85889316               57.06617353                0.00010000                2.76959847               -0.07704763               -5.37907301               -4.47310077               26.98992021               -7.74807287
              19.72290273               -1.98794325               56.91965632                0.05165339                2.37652489                0.71814412               -5.48755463               -2.55871344               23.57200001               -4.44336121
              20.74237168               -3.10855758               56.61995780                0.18212691                1.72436569                1.98760653               -4.61842801               -0.93345227                8.81643522               -2.16238478
              21.75739005               -4.21820518               56.17647904                0.64420126                1.50183648                3.73007512               -6.15927873               -0.67279370                1.64532753              -12.89370718
              12.67918057                7.87406575               59.00577567                0.71664079               -0.58084126               -0.98306847                2.88738707               -0.08755405                0.08108746                5.17637877
              13.67337216                6.81941058               58.49470113                0.17779705               -0.47725254               -0.17430022                0.98115747                0.21534071                2.32005993               -5.02605181
              14.66963552                5.76771129               58.02878952                0.00010000               -0.01237974                0.90649100               -0.13522918               -2.61187840               19.18667505              -16.51607047
              15.67312456                4.65035872               57.85621428                0.00010000                0.85669627                0.20782365               -1.30840927               -5.83971627               32.91426437              -13.69349918
              16.68676945                3.53004325               57.66932054                0.00010000                1.80736608               -0.29047996               -2.64388791               -6.31672735               32.13105184              -12.14435753
              17.70927188                2.40270782               57.48435112                0.00010000                2.59406623               -0.39419073               -4.05792542               -6.72062212               32.40849107              -10.95746440
              18.73865077                1.27111641               57.30475542                0.00010000                3.18165721               -0.15574435               -5.47126249               -6.49317788               33.38406929               -9.81261260
              19.77290503                0.14116014               57.13948272                0.00010000                3.52355774                0.36926176               -6.72653192               -5.47018973               34.08761682               -8.88002998
              20.80912192               -0.97998429               56.97252891                0.05431898                3.26685079                1.25597336               -7.79143835               -3.50056655               32.47024777              -11.91181898
              21.83824204               -2.08323859               56.77286841                0.18267343                2.18543037                3.07233554               -7.12209212               -1.03391139               16.02739499              -10.06346613
              22.85283053               -3.16881441               56.27627011                0.64333956                1.45884874                5.13408049               -8.64177862                0.23118928                1.24266374              -19.84587245
              13.72896797                8.86492892               58.86466851                0.71119152               -0.42930150               -0.84973036                2.50381039               -0.08481933                0.09068293                5.20235705
              14.72467495                7.81849513               58.30338673                0.17078381               -0.27326328               -0.00650765                0.35489173                0.24406677                2.66782405               -4.81983261
              15.72350270                6.77562343               57.79392911                0.00010000                0.28597805                0.82268384               -0.62106026               -3.20270062               24.99088238              -13.63817957
              16.73039451                5.65586251               57.68048509                0.00010000                1.06290738                0.75579735               -1.91831231               -6.93908308               44.09351555              -12.77996210
              17.74476085                4.53151370               57.55932043                0.00010000                1.88033101                0.49738695               -3.39022502               -7.25842329               43.33691035              -11.42245944
              18.76800113                3.40291338               57.43547779                0.00010000                2.72170188                0.41337411               -4.98315450               -7.45087494               43.20033705              -10.21799247
              19.79919489                2.27323092               57.31443068                0.00010000                3.42684781                0.61019996               -6.62902676               -7.13103673               43.47951871               -9.15788355
              20.83653809                1.14849208               57.19709050                0.00010000                3.90476238                1.13471666               -8.27240711               -5.98860039               43.81855157               -8.55930871
              21.87729013                0.03717622               57.08216938                0.05899786                3.69927409                2.10103620               -9.86268612               -3.58696734               41.15791343               -7.57882155
              22.91052357               -1.04711087               56.91097329                0.18890001                2.79376638                3.77929508               -9.01146337               -1.03128103               19.93193506               -9.30681133
              23.93316546               -2.11552357               56.36865548                0.64695650                2.26418909                5.24832997              -10.73395817                0.42446053                1.70676153              -18.77592677
              14.77035176                9.85707114               58.72453823                0.70569810               -0.27927780               -0.72401789                2.12586267               -0.08370941                0.09344169                5.24347291
              15.76755898                8.81928043               58.11334155                0.16392900               -0.10688171                0.16405754               -0.26236014                0.19936635                3.57007525               -4.70790145
              16.76821413                7.78416497               57.57185841                0.00010000                0.54468227                0.92469867               -1.00337772               -3.67091531               31.33341559              -12.63651397
              17.77845263                6.66547467               57.51767655                0.00010000                1.31679909                1.12434001               -2.38976620               -7.83470840               54.99714520              -11.51729141
              18.79455011                5.53999099               57.45749755                0.00010000                2.00422695                1.09454085               -4.00660088               -8.13125649               54.23148805              -10.29241924
              19.81853717                4.41097530               57.39410704                0.00010000                2.79506166                1.10953174               -5.78510432               -8.12257562               53.87784638               -9.03394095
              20.85045134                3.28332041               57.33083680                0.00010000                3.53252783                1.33767617               -7.68007667               -7.57192037               53.90128993               -7.80589128
              21.88918773                2.16385447               57.26981718                0.00010000                4.12670920                1.85002113               -9.65801546               -6.17369559               54.10378662               -6.46508577
              22.93298553                1.06203643               57.21076648                0.06373430                4.05642440                2.69487041              -11.69193397               -3.40679913               49.79101025               -4.82129902
              23.97031621               -0.00765269               57.06289680                0.19522263                3.25798062                3.96414794              -10.14799833               -0.77689440               23.53416572               -7.09847050
              24.99814514               -1.06384781               56.47355893                0.65082221                2.78289261                5.03997574              -12.06790058                0.32923937                1.94877011              -16.59337449
              15.80287521               10.85044857               58.58485490                0.70038798               -0.13067538               -0.60213836                1.75159795               -0.08359840                0.09703272                5.23751530
              16.80156845                9.82177629               57.92412899                0.15680276                0.05074721                0.33636230               -0.87535283                0.11551290                4.77292589               -4.63574150
              17.80389015                8.79411741               57.35700102                0.00010000                0.81529338                1.05419333               -1.24421688               -4.06534915               38.12318473              -11.90287619
              18.81787432                7.67834931               57.36544016                0.00010000                1.63724656                1.37895026               -2.71758933               -8.45537794               66.05403901              -10.34167723
              19.83663508                6.55340452               57.36677869                0.00010000                2.21729389                1.46076002               -4.46441851               -8.69968796               65.11742552               -8.90320195
              20.86222020                5.42510402               57.36390294                0.00010000                2.91211129                1.58671170               -6.41259592               -8.46285401               64.62775357               -7.48865249
              21.89487731                4.29998444               57.36047754                0.00010000                3.60639766                1.88990850               -8.52551455               -7.68549948               64.58528227               -5.95594389
              22.93434815                3.18549250               57.35949375                0.00010000                4.28920035                2.37416671              -10.78775540               -6.13008542               64.84596601               -4.11451158
              23.98066132                2.09107363               57.36185937                0.06862846                4.32608861                2.99724410              -13.18453571               -3.18842929               58.33172474               -1.76533668
              25.02086993                1.03217209               57.22955738                0.20168397                3.57395835                3.90257697              -10.68580849               -0.60190479               26.73413488               -4.84246053
              26.05214048               -0.01472406               56.59323469                0.65452162                3.12705585                4.76378451              -12.80136364                0.25836917                2.12147556              -14.28810908
              16.82602436               11.84502837               58.44512754                0.69495332                0.01760463               -0.48273669                1.37679248               -0.08431499                0.09930304                5.17958356
              17.82620040               10.82600767               57.73526577                0.14988866                0.21548804                0.51137857               -1.48639623               -0.02263818                6.30884243               -4.59775491
              18.83033412                9.80524883               57.14957240                0.00010000                1.19287769                1.10048332               -1.33681129               -4.46164979               45.41620612              -11.07763377
              19.85005796                8.69305367               57.22430532                0.00010000                2.17337651                1.40131305               -2.88168238               -8.79558029               77.34612035               -8.99084737
              20.87380165                7.56920619               57.28892846                0.00010000                2.63211048                1.49732083               -4.74072620               -8.76406009               76.09374153               -7.28437088
              21.90270017                6.44270954               57.34733641                0.00010000                3.12756133                1.77955808               -6.82284929               -8.18191280               75.45367094               -5.73473799
              22.93635287                5.32111858               57.40515674                0.00010000                3.63983356                2.26112066               -9.10903326               -7.26779232               75.48403403               -4.01360404
              23.97549684                4.21133781               57.46756734                0.00010000                4.30922404                2.76522303              -11.60949801               -5.84593693               76.02109682               -1.75362602
              25.02253735                3.12198132               57.53684838                0.07351934                4.42894820                3.16182995              -14.34093428               -3.06132514               66.71293183                1.32622817
              26.06407580                2.07039885               57.41145901                0.20805054                3.72837267                3.68635416              -10.74529284               -0.54666513               29.48191291               -2.59063543
              27.09710481                1.03142788               56.72827759                0.65825699                3.30290073                4.45676723              -13.05463908                0.18680257                2.23412388              -11.95440716
              17.83923031               12.84079383               58.30473955                0.68951647                0.16649210               -0.36441149                0.99881504               -0.08608440                0.12427501                5.13159658
              18.84089523               11.83200386               57.54641402                0.14286407                0.41904216                0.69022358               -2.09870035               -0.29158610                8.29284367               -4.65444262
              19.84761116               10.81612707               56.95133316                0.00010000                1.85550634                0.88349368               -1.23550870               -4.99505905               53.39710428               -9.82793172
              20.87800536                9.70637557               57.09747271                0.00010000                3.20434316                0.88391338               -2.88064443               -8.63060035               88.92301731               -7.10400166
              21.91169802                8.58335094               57.22665077                0.00010000                3.43320970                1.05607686               -4.82357321               -7.84195201               87.05173896               -5.32682842
              22.94666955                7.46069518               57.34552047                0.00010000                3.45975877                1.70181002               -6.98388722               -6.83932399               86.14383945               -3.88702252
              23.98089319                6.34520686               57.46396766                0.00010000                3.49485623                2.51203161               -9.38193776               -5.96568695               86.39942227               -2.28721960
              25.01656668                5.24079696               57.59185647                0.00010000                3.97402901                3.24018185              -12.08248879               -5.07208332               87.60186265                0.04516572
              26.06037377                4.15431022               57.73471969                0.07854327                4.19616894                3.45166552              -15.16360829               -3.11099734               75.04030780                3.94949427
              27.10049006                3.10589917               57.60863054                0.21451284                3.67223473                3.38153270              -10.42068186               -0.70326828               31.84204615               -0.29584194
              28.13381847                2.07441129               56.87921376                0.66196058                3.33284116                4.12904707              -12.90975117                0.11475484                2.33482356               -9.65601023
              18.84188262               13.83774014               58.16444329                0.68408537                0.31528207               -0.24308242                0.62109060               -0.08736901               -0.07769932                4.46488494
              19.84503544               12.83981214               57.35587343                0.13639347                0.70892994                0.86819527               -2.72153236               -0.87959218               11.04401393               -4.17944647
              20.85606122               11.82291871               56.76950479                0.00010000                3.25933221               -0.13127911               -0.95136193               -4.93416057               62.58207940               -6.84508419
              21.91022208               10.71073194               56.99309214                0.00010000                5.32908923               -0.59486588               -2.75260320               -6.48617364              100.68788059               -4.17203879
              22.96264300                9.59032773               57.18410844                0.00010000                4.69178411                0.36195661               -4.71656554               -5.05830507               97.54673587               -2.87773660
              24.00405777                8.47674574               57.35901545                0.00010000                3.71471767                1.49867800               -6.86543494               -4.00378601               96.23746508               -1.98501817
              25.03693736                7.37135921               57.53336940                0.00010000                3.04470190                2.68424944               -9.28466474               -3.43808990               96.74581821               -0.98840293
              26.06495180                6.27614144               57.72310012                0.00010000                2.91389213                3.79995695              -12.10855299               -3.26630507               99.27722069                0.61650832
              27.09521520                5.19101463               57.94730579                0.08385802                3.24787842                4.38592763              -15.59524312               -2.60559542               83.85102376                4.05674287
              28.12990937                4.13802950               57.82251748                0.22101903                3.35802344                3.04437031               -9.77267565               -1.23885279               34.18422183                1.46250779
              29.16237567                3.11400882               57.04536800                0.66572567                3.24662947                3.81310213              -12.43780531               -0.00932345                2.21256851               -6.64840777
              19.83333893               14.83593218               58.01105448                0.84025034                0.47858956               -0.18079610                0.17878610                0.48918926                2.02441715                3.79666457
              20.83812483               13.84936776               57.17582402                0.56601568                2.23346069                0.95556177               -3.29380595               -1.81259574               16.66648752               -3.61235432
              21.87800815               12.81350149               56.63308615                0.46845999                7.13740194               -0.94172155               -0.74281106               -5.54978230               73.36778006               -4.94059213
              22.98087287               11.69447826               56.92456360                0.44561491                8.32549871               -1.62536846               -2.58164563               -4.08049262              111.18208477               -2.14487775
              24.04451812               10.59059007               57.16620840                0.43833065                5.23447407                0.02623442               -4.42011061               -2.00296398              106.82204053               -1.37908370
              25.08556235                9.49066874               57.38838996                0.44402711                3.41087846                1.39230011               -6.43492372               -1.43445288              105.18414683               -0.84154918
              26.11273569                8.39889185               57.60911830                0.46260003                2.30114072                2.75326354               -8.74211400               -1.11379861              105.64187290               -0.25999204
              27.13158516                7.31679610               57.84719171                0.49503568                1.68190594                4.06546532              -11.52220372               -1.17981754              108.91028047                0.70526585
              28.14637381                6.24202878               58.13326878                0.54376554                1.05668210                5.10141513              -15.19682057               -2.38461506               92.97614979                3.25197812
              29.15271880                5.16678657               58.04150312                0.61263779                1.76497748                2.87570731               -8.90741661               -2.28682905               39.37541023                2.35593541
              30.18167336                4.15067333               57.24237338                0.83407366                2.89545534                3.66645076              -11.64007664                0.31844470                4.61320040               -4.45666402
               9.84917440                5.10609182               60.48593170                0.91083339               -1.13005787               -1.26341259                4.29392719               -0.30325646               -3.11810255                3.57985413
              10.83787382                3.97883929               60.08396476                0.68155803               -1.06708348               -0.76142812                2.94989861               -0.28232088               -4.37802760               -2.41247303
              11.82783273                2.84731096               59.65753690                0.54022056               -1.04978617               -0.40407232                1.48354825               -0.45917896               -4.39161160               -0.81158009
              12.81687810                1.70218007               59.25582040                0.47644333               -0.99451273               -0.03204601                0.09811769               -0.45892330               -2.22391510               -0.45221521
              13.80794248                0.53788779               58.87242234                0.44528154               -0.61563315                0.36195159               -1.34282715               -0.37183781               -0.50495195               -0.29010156
              14.80456544               -0.64501981               58.50393750                0.44380136                0.09511600                0.76089440               -2.82546772               -0.24331430                0.51226722               -0.05978599
              15.80984480               -1.83946527               58.13929255                0.47180882                0.96416101                1.15316162               -4.30179887               -0.18609354                0.26801178                0.17043512
              16.82384866               -3.03557362               57.76447193                0.52993828                1.72478871                1.52828335               -5.72431243               -0.20439877               -1.01949306                0.36521673
              17.84434057               -4.22610405               57.37281164                0.62090332                2.26771448                1.89496338               -7.11032505               -0.22191178               -2.78732564                0.43483977
              18.86920295               -5.40815238               56.96118305                0.74869371                2.65166593                2.25661966               -8.51163511               -0.22147066               -3.39900484                1.06213491
              19.89737389               -6.58247195               56.55535790                0.92593378                2.81709439                2.69437044               -9.88945339               -0.54180718               -2.98668855               -2.44668954
              10.97339437                6.09345770               60.32095036                0.76807233               -0.89533271               -1.24665895                3.77202499               -0.13370246                1.67882723                4.76843862
              11.96444105                4.97122501               59.91307028                0.27049291               -0.59119101               -0.62030976                2.42340605               -0.23715918                4.22986705               -4.28310926
              12.96157055                3.84327024               59.55680567                0.01850154                0.12797045                0.12374225                1.37991629               -1.08561064                7.41237927               -7.91975809
              13.96700046                2.70185961               59.21271226                0.00010000                0.81267434               -0.55139560                0.23138008               -2.08589199                8.78831009               -7.43593468
              14.97782404                1.54150730               58.88429502                0.00010000                1.19041847               -0.64320315               -0.91504292               -2.86703560               10.27881106               -6.85194484
              15.99080882                0.36258914               58.57051152                0.00010000                1.27183643               -0.36751519               -2.10280655               -3.22890258               11.14937004               -6.61533632
              17.00326077               -0.82793366               58.25981277                0.00010000                1.21576174                0.13032448               -3.28179211               -2.96174441               10.78170770               -6.20194207
              18.01512406               -2.02029079               57.93830431                0.00957722                1.25750340                0.70746725               -4.41200770               -2.09593856                9.38986362               -4.66557903
              19.02841084               -3.20715442               57.59870885                0.14383400                1.50240654                1.33221879               -5.51950390               -0.98426035                7.83344876                2.34422284
              20.04517219               -4.38558619               57.24466746                0.33548348                1.89322749                1.89590793               -6.64054984               -0.35647739                5.39224713                3.39976822
              21.06627539               -5.55552825               56.85477073                0.74540015                2.11031961                2.66876517               -7.86899493               -0.57944304                3.67711300               -4.35599243
              12.09096573                7.08115865               60.18060857                0.71161984               -0.76476348               -1.16171595                3.40827431               -0.11161990                0.28535498                5.69874957
              13.08331810                5.96643309               59.70522862                0.17404336               -0.77399079               -0.36951452                1.66097619               -0.06007455                4.47649995               -5.77592276
              14.07548592                4.84978581               59.31418118                0.00010000               -0.31974513                0.85753704                0.59256639               -2.33386636               13.96472544              -17.12387858
              15.07692320                3.69115216               59.02986392                0.00010000                0.71931615               -0.57438484               -0.58538613               -5.02493642               20.11330729              -14.61436057
              16.08987224                2.52502372               58.76459824                0.00010000                1.62525744               -1.15170558               -1.89812619               -5.90996257               21.26160247              -13.55835869
              17.10942835                1.34762989               58.50535280                0.00010000                2.18087951               -1.10326444               -3.26568041               -6.40083654               21.79801163              -13.09932359
              18.13348983                0.16314122               58.25194197                0.00010000                2.58611509               -0.63662065               -4.62106586               -5.92088630               22.67336460              -12.44461822
              19.16115065               -1.02142427               58.01026658                0.00010000                2.82304671                0.06035304               -5.83007975               -4.44203474               27.92397316              -10.38452713
              20.18995077               -2.19945968               57.86122401                0.04434425                2.46482902                0.97457642               -6.29231544               -2.54336107               25.69952228               -7.31243676
              21.21044723               -3.37023422               57.57301880                0.16862494                1.78591913                2.40383947               -4.78357272               -0.93217991               10.30713332               -4.50580986
              22.22566915               -4.52909665               57.11384084                0.63494728                1.52219205                4.14439881               -6.37397636               -0.62074392                1.78400203              -15.63967888
              13.20061308                8.07022338               60.03517851                0.70498052               -0.60006849               -1.02118415                2.99446764               -0.09144259                0.08477295                5.42423164
              14.19461239                6.96383472               59.50462174                0.16497925               -0.52194581               -0.17505001                1.00351531                0.21794733                2.76777164               -5.27115656
              15.19017416                5.86042098               59.02811705                0.00010000               -0.16742916                0.92423210                0.03663279               -2.67318391               19.96640126              -16.94175046
              16.19126381                4.69037191               58.84313506                0.00010000                0.64864487                0.27448897               -1.29145457               -5.99436418               33.48123376              -14.49897359
              17.20314706                3.51847319               58.64215969                0.00010000                1.67053957               -0.19065914               -2.78253185               -6.44500302               32.54386833              -13.38316538
              18.22467460                2.34052385               58.44225117                0.00010000                2.53750728               -0.25301301               -4.36657178               -6.80181964               32.75442820              -12.67022216
              19.25389720                1.15933393               58.24768363                0.00010000                3.21048278                0.04522845               -5.96162002               -6.49474898               33.78884141              -12.03797258
              20.28888426               -0.01908373               58.06899449                0.00010000                3.62281800                0.66592917               -7.41642418               -5.36306393               34.69776271              -11.68510746
              21.32635356               -1.18766289               57.89121621                0.04679104                3.36406532                1.72772363               -8.54727005               -3.31149454               34.04178307              -15.69198292
              22.35616556               -2.33750940               57.69651922                0.16931129                2.26158937                3.86994416               -8.28702605               -0.91220374               17.46753993              -14.34654789
              23.37158535               -3.47264027               57.18498461                0.63421784                1.54197887                5.92377889               -9.72738568                0.38517015                1.74784471              -24.42709413
              14.30191421                9.06073496               59.89018385                0.69979141               -0.44347609               -0.88262724                2.60003359               -0.08890408                0.09409208                5.46160559
              15.29747945                7.96293209               59.30692802                0.15840100               -0.32145807               -0.00236340                0.35347273                0.22396271                3.33743915               -5.05593322
              16.29548504                6.86827045               58.78882779                0.00010000                0.07521283                0.81849722               -0.35127246               -3.26733820               26.02821294              -13.92517419
              17.29898370                5.69664194               58.66149539                0.00010000                0.76676016                0.83652539               -1.85432085               -7.06415195               44.72400710              -13.45747126
              18.31082025                4.52121054               58.52458707                0.00010000                1.67737562                0.64429225               -3.54812890               -7.36476105               43.77856726              -12.53734587
              19.33253121                3.34256963               58.38372959                0.00010000                2.61910880                0.63413558               -5.37185301               -7.50076249               43.52494150              -11.81381056
              20.36320242                2.16404579               58.24510176                0.00010000                3.41774869                0.92390850               -7.25907396               -7.09169951               43.76273745              -11.29230571
              21.40088619                0.99189431               58.11032127                0.00010000                3.94720613                1.57308877               -9.13159212               -5.82193547               44.14351817              -11.34751588
              22.44214655               -0.16490520               57.97876708                0.05130309                3.81471728                2.73832158              -10.91439241               -3.27263943               42.65503187              -11.17086303
              23.47718053               -1.29283534               57.81285048                0.17526473                3.07438746                4.62016568              -10.80553852               -0.79843948               21.49620822              -12.70019780
              24.50363430               -2.41062107               57.25351324                0.63779847                2.64537620                6.11958678              -12.46276201                0.60538024                2.26678885              -22.57960423
              15.39444073               10.05257083               59.74622645                0.69454407               -0.28845733               -0.75279344                2.21225923               -0.08797608                0.09710098                5.50631697
              16.39155616                8.96378745               59.11059083                0.15160208               -0.16615897                0.17434454               -0.28788105                0.15572991                4.51105152               -4.93697521
              17.39111755                7.87679092               58.56341928                0.00010000                0.27422593                0.92302189               -0.62128865               -3.74168811               32.69782204              -12.80923791
              18.39704068                6.70710242               58.49420707                0.00010000                0.94032972                1.21026041               -2.27373345               -7.91694641               55.71135113              -12.05725583
              19.40992415                5.53135904               58.41657607                0.00010000                1.73917141                1.27343874               -4.16775996               -8.18750327               54.70575459              -11.25548686
              20.43182411                4.35320656               58.33404898                0.00010000                2.64071923                1.39391344               -6.23254351               -8.10568436               54.18411388              -10.45969769
              21.46273853                3.17781210               58.25044942                0.00010000                3.47862146                1.74700741               -8.42111731               -7.44019268               54.09063203               -9.74744714
              22.50139654                2.01237805               58.16835111                0.00010000                4.14459463                2.41085647              -10.68810558               -5.85860355               54.23379492               -9.00079611
              23.54563043                0.86710354               58.08797392                0.05586169                4.22580519                3.43925126              -12.96700713               -2.91479833               51.57512197               -8.04658228
              24.58591264               -0.24510608               57.95160099                0.18132991                3.68169931                4.78142274              -12.34009120               -0.46470486               25.52577196               -9.63993106
              25.61926441               -1.35024853               57.34331226                0.64132320                3.33517721                5.90136072              -14.18415364                0.45938952                2.55636141              -19.53212840
              16.47772145               11.04567909               59.60274683                0.68940342               -0.13475013               -0.62725476                1.82742667               -0.08744110                0.10074817                5.50074419
              17.47637395                9.96641898               58.91513108                0.14502423               -0.01925718                0.35332429               -0.92443383                0.04472081                6.05702448               -4.86101788
              18.47733631                8.88673089               58.34672402                0.00010000                0.48513542                1.04531764               -0.73768306               -4.13424407               39.88788152              -11.93299913
              19.48607666                7.72084715               58.33901162                0.00010000                1.18148672                1.46006984               -2.53430300               -8.47888811               66.86411755              -10.72915504
              20.50096605                6.54667932               58.32134248                0.00010000                1.89439008                1.65374513               -4.61320468               -8.67874415               65.64935161               -9.68894609
              21.52396446                5.37044790               58.29739485                0.00010000                2.71305165                1.91180796               -6.89549799               -8.34607270               64.95240162               -8.69603010
              22.55522708                4.19898593               58.27122121                0.00010000                3.52291057                2.36371198               -9.34905532               -7.42593135               64.73831159               -7.62161027
              23.59442267                3.04011144               58.24607130                0.00010000                4.30538174                3.00701925              -11.94581406               -5.65649274               64.86955650               -6.29946000
              24.64133471                1.90387982               58.22332245                0.06058890                4.54079192                3.78223094              -14.61104540               -2.58391360               60.61676035               -4.56326338
              25.68523851                0.80279311               58.11186482                0.18744876                4.08861368                4.69609580              -13.11197397               -0.27251634               29.31253380               -6.68237949
              26.72310699               -0.29259385               57.45461894                0.64491529                3.78684736                5.60478399              -15.15128400                0.35401154                2.76528734              -16.52582700
              17.55121213               12.04002574               59.45921725                0.68413769                0.01866532               -0.50438077                1.44254177               -0.08784091                0.10414264                5.44048180
              18.55139878               10.97085394               58.72004012                0.13839125                0.13961911                0.53532500               -1.55969768               -0.13329744                8.01518806               -4.82252074
              19.55400451                9.89769728               58.13906471                0.00010000                0.80578524                1.07177584               -0.67467220               -4.52744710               47.66409249              -10.93614304
              20.56751449                8.73630382               58.19664289                0.00010000                1.63720017                1.46055866               -2.61777998               -8.74603662               78.27062483               -9.21717728
              21.58674851                7.56443394               58.24088594                0.00010000                2.25407738                1.69003169               -4.85959612               -8.64814354               76.71892722               -7.87676618
              22.61259603                6.39144272               58.27667879                0.00010000                2.89039246                2.12275596               -7.31516488               -7.96225742               75.84773372               -6.68664124
              23.64455636                5.22508634               58.30982372                0.00010000                3.53883791                2.75856873               -9.97770678               -6.89063654               75.65861379               -5.34863763
              24.68337279                4.07251843               58.34549316                0.00010000                4.33570568                3.42278519              -12.84540017               -5.24322897               75.98538036               -3.53754103
              25.73127048                2.94274816               58.38607622                0.06521887                4.67815984                3.95335019              -15.86887684               -2.39817644               69.61495839               -1.03886415
              26.77693599                1.84881583               58.29271544                0.19363863                4.29240505                4.45212154              -13.27707981               -0.23762957               32.73425328               -3.83798238
              27.81711858                0.76184715               57.58659809                0.64847216                4.01825888                5.27471849              -15.52045263                0.24878537                2.89865247              -13.58477221
              18.61430824               13.03559148               59.31500107                0.67902986                0.17282217               -0.38290548                1.05459839               -0.08937065                0.12986997                5.39033723
              19.61603647               11.97712548               58.52494115                0.13187450                0.35146211                0.72161589               -2.19693407               -0.45991292               10.52595074               -4.88489589
              20.62133749               10.90816640               57.94267854                0.00010000                1.41914006                0.80594454               -0.40798692               -5.06615829               56.22419473               -9.49961131
              21.64441927                9.75005832               58.07028779                0.00010000                2.57633941                0.91235473               -2.52496038               -8.46993033               89.96866724               -7.19406365
              22.67286428                8.58047995               58.17801360                0.00010000                2.98238233                1.26579226               -4.89782197               -7.64654280               87.82143885               -5.72383999
              23.70406691                7.41290302               58.27334310                0.00010000                3.17371773                2.04850862               -7.45703718               -6.57027672               86.67223825               -4.55309539
              24.73633863                6.25415731               58.36586721                0.00010000                3.39146797                2.98969435              -10.25246326               -5.54472430               86.64388729               -3.24149146
              25.77189627                5.10856714               58.46482757                0.00010000                4.03675784                3.86199584              -13.34691282               -4.40928935               87.51223251               -1.27520650
              26.81707379                3.98294683               58.57521832                0.07016368                4.47453318                4.21206143              -16.74346828               -2.41786892               78.57419342                2.04648340
              27.86138694                2.89183554               58.49308956                0.19975161                4.24731402                4.12207901              -12.95665331               -0.43483180               35.79735355               -1.02258176
              28.90202007                1.81290052               57.73883097                0.65201004                4.06331298                4.91935141              -15.39790353                0.14408370                3.00629368              -10.73947371
              19.66635670               14.03236763               59.17087274                0.67387100                0.32688948               -0.25849343                0.66576754               -0.09068669               -0.08283935                4.68924373
              20.66962560               12.98528625               58.32804914                0.12538684                0.66959039                0.90720643               -2.84423778               -1.14863960               13.89890075               -4.38844098
              21.67974851               11.91381617               57.76462927                0.00010000                2.80883681               -0.36816133                0.05695679               -4.87053664               66.07250884               -6.48401886
              22.72580233               10.75455091               57.96761245                0.00010000                4.56122256               -0.47376450               -2.31833146               -6.26063670              101.86616362               -4.19439318
              23.77097296                9.58974978               58.13681180                0.00010000                4.08554036                0.61186900               -4.73787516               -4.86316619               98.54687881               -3.08093799
              24.80751314                8.43241289               58.28824490                0.00010000                3.35123946                1.84942992               -7.29219981               -3.81263961               96.99173725               -2.33324232
              25.83799775                7.28488023               58.43642980                0.00010000                2.94421735                3.12147703              -10.11008075               -3.13322701               97.13256776               -1.49781564
              26.86639749                6.14975835               58.59587694                0.00010000                3.08234725                4.31799705              -13.33951899               -2.74150731               99.10000677               -0.12429171
              27.89964470                5.02698939               58.78309225                0.07517128                3.59440880                5.01141663              -17.19438980               -2.03992948               87.93252226                2.86891737
              28.93828566                3.93125741               58.71387216                0.20592977                3.91128070                3.76086305              -12.22312381               -0.99400855               38.80612251                1.17389912
              29.97787031                2.86023417               57.91004315                0.65566760                3.95846459                4.55483535              -14.85948544               -0.00963016                2.86688344               -7.21991624
              20.70665726               15.03042161               59.01298853                0.83524666                0.49578715               -0.19460203                0.20911815                0.51485642                2.12476719                3.98693102
              21.71161514               13.99526961               58.14216507                0.56072447                2.40024154                0.99833599               -3.43891323               -2.28196787               20.11923274               -3.79464416
              22.75466209               12.90080318               57.63088390                0.46729643                6.58288909               -1.30129911                0.36944204               -5.24297085               77.51267739               -4.62643752
              23.84327292               11.74058303               57.90102397                0.44537255                7.15384396               -1.39678834               -2.10845521               -3.65723407              112.63640964               -2.15182311
              24.89773897               10.59271733               58.12213948                0.43838765                4.47053810                0.29675458               -4.39048833               -1.85796961              108.18891329               -1.47659234
              25.93268368                9.44989161               58.32225139                0.44382918                2.92948266                1.74787241               -6.79420923               -1.28947025              106.28874279               -1.01280264
              26.95632863                8.31658685               58.51800517                0.46163569                2.11366423                3.17066227               -9.48040939               -0.91513898              106.31502286               -0.51881951
              27.97495696                7.19492708               58.72628406                0.49274778                1.92237541                4.51687311              -12.64776935               -0.81463700              108.81249184                0.31022082
              28.99477614                6.08317516               58.97325412                0.53935979                1.66525091                5.61857688              -16.71574037               -1.88056997               97.27397352                2.50586390
              30.00826198                4.96705281               58.94219104                0.60494404                2.45489026                3.57953926              -11.19715036               -1.96126508               44.38324052                2.32870728
              31.04387394                3.90399722               58.11569135                0.82897559                3.56119586                4.37630482              -13.90230896                0.29480473                5.34842326               -4.71927513
              10.22600746                5.31019014               61.52961057                0.90283833               -1.16691741               -1.30703035                4.44107909               -0.31603164               -3.25615423                3.72454971
              11.21433829                4.12760809               61.11393337                0.67109124               -1.09934384               -0.78437790                3.04386687               -0.29590484               -4.57968649               -2.54255055
              12.20402058                2.94059003               60.67253659                0.53596753               -1.05720271               -0.41778088                1.51817584               -0.45545459               -4.61805964               -0.78325203
              13.19319423                1.74004135               60.25668744                0.47486074               -0.96070414               -0.02860341                0.07577531               -0.44716404               -2.44136859               -0.46269016
              14.18480650                0.52095511               59.85859640                0.44501743               -0.54932593                0.37892212               -1.42192292               -0.36228579               -0.77736374               -0.29357179
              15.18220771               -0.71582830               59.47500002                0.44364855                0.17090706                0.79170705               -2.96067341               -0.24162121                0.21666826               -0.06383529
              16.18822464               -1.96340231               59.09528699                0.47044388                1.03375011                1.20020572               -4.49553710               -0.18606861                0.00263943                0.16736394
              17.20288272               -3.21231984               58.70593792                0.52612207                1.79452526                1.59146959               -5.97769947               -0.20084915               -1.23484076                0.36678493
              18.22411515               -4.45561221               58.30012383                0.61312432                2.35318618                1.97371313               -7.42344949               -0.21896796               -2.98899098                0.43726279
              19.24994644               -5.69034408               57.87418254                0.73505175                2.76116246                2.35129733               -8.88653543               -0.22339645               -3.59585399                1.07213251
              20.27933840               -6.91705170               57.45430119                0.91685559                2.93919572                2.80330012              -10.32128441               -0.57190747               -3.17196468               -2.56813033
              11.40542918                6.29711983               61.35931130                0.75385779               -0.92498918               -1.29265012                3.90030820               -0.14213968                1.80714966                4.99426637
              12.39617929                5.11976432               60.93767967                0.25322956               -0.60898878               -0.63484371                2.49952273               -0.25374191                4.51427994               -4.53348259
              13.39324941                3.93641222               60.57078198                0.01243086                0.11803792                0.15573205                1.41576270               -1.13409761                7.80292155               -8.23498115
              14.39854005                2.73975532               60.21500141                0.00010000                0.79345306               -0.55226600                0.22572256               -2.17461170                9.13060768               -7.92467311
              15.40911847                1.52474433               59.87490807                0.00010000                1.17150785               -0.63318240               -0.96353896               -2.96426961               10.60583005               -7.58145884
              16.42197021                0.29208877               59.54905118                0.00010000                1.27456258               -0.35503068               -2.19112558               -3.31245273               11.46165705               -7.60517366
              17.43460972               -0.95140025               59.22634716                0.00010000                1.25044845                0.14924448               -3.41261718               -3.03271372               11.11998789               -7.45258761
              18.44697918               -2.19640514               58.89333985                0.00386928                1.31639346                0.75229759               -4.58239352               -2.16594678                9.76138155               -6.12854008
              19.46093759               -3.43587508               58.54248644                0.13228227                1.57265211                1.44564318               -5.72826038               -1.02000772                8.20711476                0.96371828
              20.47843222               -4.66683111               58.17705413                0.31498710                1.96946756                1.99092733               -6.88787126               -0.35962719                5.70360536                3.38475469
              21.50032694               -5.88901870               57.77465380                0.73157099                2.18947230                2.79195285               -8.16183865               -0.61437900                3.93599261               -4.75938605
              12.57787570                7.28433713               61.21528161                0.69959411               -0.79046358               -1.20723654                3.52872682               -0.11457215                0.27438935                5.97925690
              13.56997106                6.11491122               60.72206930                0.16091722               -0.82640350               -0.37381326                1.70801270               -0.05113543                4.81891821               -6.09140029
              14.56134763                4.94370467               60.32027097                0.00010000               -0.43005879                0.89087269                0.63456853               -2.43571871               14.59393085              -17.62157104
              15.56136989                3.72899603               60.02400758                0.00010000                0.59200150               -0.55037699               -0.57743956               -5.26233332               20.57761362              -15.53367694
              16.57318766                2.50829146               59.74511930                0.00010000                1.53666747               -1.11766063               -1.99292412               -6.12563573               21.59465045              -14.97679959
              17.59210324                1.27707108               59.47164171                0.00010000                2.14383077               -1.05810863               -3.47628060               -6.59212855               22.08820282              -15.05456573
              18.61606427                0.03958258               59.20406030                0.00010000                2.59676878               -0.57012920               -4.96217480               -6.06352077               23.01998305              -14.95351760
              19.64403861               -1.19727388               58.94957194                0.00010000                2.90383441                0.19042201               -6.33343949               -4.49667057               28.64086193              -13.41144937
              20.67414096               -2.42669935               58.79381001                0.03686263                2.59294512                1.22540322               -7.27338404               -2.58781916               28.04793577              -10.62235856
              21.69589751               -3.65052554               58.52428635                0.15545052                1.86425196                2.84149363               -5.00118615               -0.95605376               12.21708252               -7.51457675
              22.71142600               -4.86121265               58.04899951                0.62581757                1.55284871                4.59950025               -6.62560858               -0.54222658                1.97095253              -18.99660050
              13.74198957                8.27297510               61.06566502                0.69331907               -0.62005157               -1.06120211                3.10417185               -0.09441682                0.08853940                5.68774488
              14.73578905                7.11228805               60.51477143                0.15239107               -0.57696716               -0.17519188                1.02699019                0.20316490                3.35072647               -5.52844720
              15.73045022                5.95422967               60.02952218                0.00010000               -0.35412286                0.90565269                0.28138272               -2.76941536               20.82518135              -17.24216334
              16.72870659                4.72874778               59.83038519                0.00010000                0.40402406                0.33225241               -1.24006010               -6.20465314               33.95836183              -15.29213407
              17.73853070                3.50239111               59.61366991                0.00010000                1.50649599               -0.09705267               -2.90673606               -6.64554231               32.86512532              -14.69573568
              18.75883651                2.27092659               59.39701969                0.00010000                2.45767844               -0.11158596               -4.67876220               -6.96559600               32.99055064              -14.54470780
              19.78768427                1.03719717               59.18552302                0.00010000                3.22455926                0.25182180               -6.48149626               -6.58648098               34.05261165              -14.51927859
              20.82332770               -0.19259670               58.99115424                0.00010000                3.73742935                0.97295129               -8.18824232               -5.34298272               35.20445310              -14.83364485
              21.86243286               -1.41136702               58.80158351                0.03947913                3.52483708                2.18502989               -9.46164942               -3.18419695               35.37493886              -19.74933840
              22.89382444               -2.61000124               58.60712789                0.15621681                2.42118857                4.71644675               -9.73616264               -0.79288139               18.79100993              -19.71072159
              23.91085663               -3.79702870               58.08172239                0.62530277                1.70321917                6.78846717              -11.03927627                0.58473955                2.45754090              -30.01038295
              14.89736146                9.26311309               60.91666918                0.68841823               -0.45816715               -0.91702993                2.69820360               -0.09179740                0.09821723                5.73649286
              15.89277979                8.11140738               60.31045619                0.14594982               -0.39309345                0.00249085                0.35270779                0.17513845                4.21645517               -5.30425494
              16.88949959                6.96181772               59.78690366                0.00010000               -0.18322059                0.79271566                0.02467568               -3.38311001               27.19792404              -14.12490079
              17.88911538                5.73564108               59.64339868                0.00010000                0.42992009                0.90327704               -1.73996122               -7.23255277               45.21292360              -14.12069446
              18.89809800                4.50635040               59.48835785                0.00010000                1.44349427                0.78673599               -3.68652332               -7.52545630               44.07311845              -13.71967903
              19.91798527                3.27483936               59.32804073                0.00010000                2.48799765                0.85947471               -5.76502156               -7.61108980               43.68769292              -13.56107791
              20.94785795                2.04461902               59.16924920                0.00010000                3.38789381                1.25274262               -7.92502063               -7.11883221               43.86424424              -13.66592664
              21.98574314                0.82218514               59.01445865                0.00010000                4.00018061                2.03426114              -10.08342268               -5.73031752               44.27792561              -14.45570405
              23.02786156               -0.38299875               58.86388153                0.04368525                3.99792120                3.39582153              -12.17008819               -2.97882592               43.65880544              -15.21129478
              24.06570157               -1.55619660               58.69486252                0.16194030                3.46570762                5.52677951              -12.97191383               -0.53878391               22.74609701              -16.87833584
              25.09717571               -2.72544330               58.11940024                0.62869318                3.14741479                7.07163142              -14.52151142                0.82498933                2.99902337              -27.15377702
              16.04356503               10.25463450               60.76878341                0.68355721               -0.29778438               -0.78202221                2.29946820               -0.09165298                0.10084345                5.78452378
              17.04058719                9.11233787               60.10758393                0.13960921               -0.25053541                0.18496269               -0.31308315                0.07007225                5.74369964               -5.17720070
              18.03855433                7.97008398               59.55943264                0.00010000               -0.05321683                0.89971353               -0.11795839               -3.86284520               34.25081500              -12.89135451
              19.03952285                6.74681332               59.47220188                0.00010000                0.51344845                1.28446576               -2.09782664               -8.02676617               56.23598647              -12.58305832
              20.04882329                5.51812583               59.37414235                0.00010000                1.44116251                1.44826649               -4.30831363               -8.27781677               54.99179028              -12.27962616
              21.06834610                4.28811609               59.26945617                0.00010000                2.45692782                1.68571195               -6.68573284               -8.12347894               54.28811732              -12.02368987
              22.09796185                3.06225202               59.16241445                0.00010000                3.39965076                2.17794607               -9.20066631               -7.34592131               54.05096465              -11.90975428
              23.13633912                1.84808852               59.05605507                0.00010000                4.16381170                3.00880530              -11.81822133               -5.59038512               54.12078807              -11.84846512
              24.18123809                0.65654941               58.95142634                0.04806096                4.45770966                4.23524037              -14.46310897               -2.41063619               52.73934630              -11.65759663
              25.22549331               -0.49946565               58.81609498                0.16775150                4.23058687                5.68033204              -14.97769684               -0.10114656               27.10591892              -12.79107714
              26.26584982               -1.65559607               58.18987585                0.63208529                4.03565105                6.84584363              -16.69593932                0.62507156                3.34464911              -23.06277306
              17.18012167               11.24747265               60.62140344                0.67860775               -0.13899179               -0.65253653                1.90427559               -0.09177843                0.10495970                5.77990390
              18.17873176               10.11510664               59.90564032                0.13325992               -0.11772174                0.37046588               -0.97360626               -0.07955686                7.71907437               -5.09796409
              19.17776724                8.97981199               59.34224736                0.00010000                0.09032250                1.02437339               -0.08610989               -4.26586856               41.90232105              -11.85449120
              20.18053821                7.76133040               59.31475410                0.00010000                0.67358258                1.53103195               -2.29262122               -8.51849446               67.44361877              -11.09437719
              21.19123889                6.53531573               59.27451459                0.00010000                1.54256487                1.84369572               -4.74424353               -8.67278992               65.96201283              -10.52501780
              22.21138950                5.30855360               59.22599298                0.00010000                2.48640990                2.24561831               -7.38586914               -8.23834183               65.04699556              -10.02239848
              23.24096709                4.08817794               59.17349644                0.00010000                3.41242709                2.86239066              -10.21095948               -7.17217134               64.63193244               -9.48141952
              24.27963805                2.88236125               59.12057747                0.00010000                4.31179594                3.68710950              -13.19963303               -5.19295342               64.62961595               -8.75766819
              25.32720301                1.70170605               59.06963847                0.05251130                4.80930352                4.63793748              -16.24895806               -1.92875292               62.22126396               -7.68652192
              26.37582412                0.55741004               58.96731790                0.17353740                4.73674909                5.59400527              -16.05040439                0.12565991               31.42945802               -8.99519580
              27.42193799               -0.58852643               58.29020901                0.63555566                4.61138738                6.55582376              -17.95677644                0.47948965                3.60668181              -19.24025427
              18.30646149               12.24158377               60.47397838                0.67362725                0.01952239               -0.52637790                1.50981133               -0.09236514                0.10819251                5.71792852
              19.30665671               11.11974719               59.70407182                0.12706354                0.02758556                0.55951388               -1.63359903               -0.30036491               10.20460895               -5.05998344
              20.30701320                9.99057145               59.13607895                0.00010000                0.34962560                1.03791489                0.14326974               -4.66660293               50.22851105              -10.66701864
              21.31364922                8.77743396               59.17194972                0.00010000                1.05655463                1.50971704               -2.30379148               -8.70331339               78.91812064               -9.40932531
              22.32814429                7.55499975               59.19173654                0.00010000                1.85339207                1.88162701               -4.96728244               -8.52864551               77.10723953               -8.50320698
              23.35071706                6.33302846               59.20103312                0.00010000                2.62832453                2.47567785               -7.81619730               -7.73143551               76.00046151               -7.73016029
              24.38071078                5.11949983               59.20560261                0.00010000                3.41174365                3.27965055              -10.87960945               -6.49391797               75.56255549               -6.83754763
              25.41895194                3.92183071               59.21065934                0.00010000                4.34517279                4.12738993              -14.16259492               -4.61847496               75.68397550               -5.54469598
              26.46761424                2.74930816               59.21947084                0.05710271                4.96435300                4.82589080              -17.55502083               -1.65118021               71.81639515               -3.67240971
              27.51823900                1.61241446               59.14591741                0.17932604                4.98491607                5.34403868              -16.37939203                0.16063054               35.51844491               -5.43620473
              28.56731256                0.47552041               58.41786854                0.63892855                4.90735609                6.23515921              -18.49615815                0.33677142                3.77882396              -15.58827318
              19.42194754               13.23694509               60.32583152                0.66885196                0.17892332               -0.40231106                1.11127677               -0.09423991                0.13420109                5.66466356
              20.42373678               12.12629691               59.50247534                0.12080096                0.24004314                0.75361106               -2.29500183               -0.68872896               13.34285648               -5.12773437
              21.42674841               11.00057029               58.94317343                0.00010000                0.91534314                0.72307563                0.57217721               -5.19186459               59.43432765               -9.03025468
              22.44204364                9.79152474               59.04697351                0.00010000                1.91615376                0.93369689               -2.13652691               -8.29542080               90.70470684               -7.24462595
              23.46507148                8.57294827               59.12869434                0.00010000                2.51085350                1.47916702               -4.96763108               -7.43268678               88.34957848               -6.13630498
              24.49226071                7.35806716               59.19637973                0.00010000                2.86074941                2.40720772               -7.93825916               -6.28099341               86.96890522               -5.27752018
              25.52228647                6.15377095               59.25891840                0.00010000                3.25997523                3.48825523              -11.14608467               -5.09561112               86.62703917               -4.29781081
              26.55746022                4.96490905               59.32491821                0.00010000                4.06545935                4.51842042              -14.66042385               -3.71047639               87.17070107               -2.75226697
              27.60359566                3.79822387               59.39985032                0.06174216                4.76821333                5.05245067              -18.40620288               -1.61810250               81.42552089               -0.07142790
              28.65282448                2.66429081               59.34949747                0.18524468                4.94329322                4.99957696              -16.07626884               -0.06025994               39.30002009               -1.99001280
              29.70246152                1.53617675               58.57125569                0.64234861                4.96370406                5.86148556              -18.40402504                0.19153395                3.90218368              -12.09205200
              20.52587304               14.23353755               60.17775864                0.66370681                0.33838947               -0.27529342                0.71222731               -0.09513123               -0.08806821                4.92761273
              21.52925693               13.13481941               59.29898868                0.11470031                0.60375237                0.94730549               -2.96793455               -1.48136241               17.44456420               -4.60906080
              22.53794808               12.00503296               58.77064392                0.00010000                2.30529445               -0.60534082                1.16369283               -4.80285653               70.02745891               -5.99551733
              23.57536282               10.79610790               58.94672551                0.00010000                3.75000234               -0.34529932               -1.86423538               -6.00740162              102.70198370               -4.18915240
              24.61294813                9.58458309               59.08935094                0.00010000                3.44558498                0.87273008               -4.75994305               -4.64688975               99.32498094               -3.28666835
              25.64427452                8.38117261               59.21317145                0.00010000                2.95042704                2.21662768               -7.72370112               -3.60536770               97.54825099               -2.70760246
              26.67195667                7.18926494               59.33116779                0.00010000                2.80074844                3.57968776              -10.94415485               -2.81282432               97.29435073               -2.05423606
              27.70028949                6.01219912               59.45630974                0.00010000                3.19568741                4.86386124              -14.57900201               -2.18909623               98.69696908               -0.93792888
              28.73587042                4.85035718               59.60341800                0.06651880                3.93957133                5.67992197              -18.76812300               -1.37212426               91.37359104                1.53973520
              29.77908091                3.71240600               59.57805501                0.19120281                4.57504684                4.62160746              -15.23176097               -0.62425766               43.00453216                0.75520694
              30.82737136                2.59275012               58.74817829                0.64565515                4.82904413                5.44073440              -17.76925125               -0.00660342                3.73585737               -7.93493260
              21.61748121               15.23143922               60.01523684                0.83026572                0.51329072               -0.20983306                0.24121641                0.54119782                2.23238464                4.19026931
              22.62261412               14.14524302               59.10704575                0.55554503                2.59607891                1.04236179               -3.58628623               -2.81306874               24.33079552               -3.98823248
              23.66940279               12.98846347               58.64047499                0.46602256                5.98656834               -1.65694920                1.51809872               -4.88574322               82.17457914               -4.18121208
              24.74234548               11.78461875               58.88239450                0.44526418                5.88330932               -1.14891458               -1.62205115               -3.20476332              113.75800174               -2.13534216
              25.78706897               10.59040288               59.07839863                0.43842304                3.65630134                0.58197871               -4.36720518               -1.69886735              109.38637876               -1.56848041
              26.81547151                9.40239971               59.25250577                0.44358643                2.39672492                2.12271039               -7.15254936               -1.13220935              107.25314365               -1.19200930
              27.83500347                8.22536471               59.41951011                0.46068872                1.85572705                3.60997698              -10.21001358               -0.70599188              106.82487633               -0.79304407
              28.85258605                7.06218627               59.59423632                0.49045230                2.04714123                4.99871496              -13.74843605               -0.44746338              108.54242353               -0.10593012
              29.87594630                5.91182231               59.79895398                0.53496146                2.26801677                6.14651347              -18.11693698               -1.26557760              101.01429690                1.69670295
              30.89794639                4.75672296               59.81756011                0.59750732                3.28474591                4.43169646              -13.98332886               -1.45499614               49.00653226                2.23817169
              31.94164122                3.64499144               58.96432720                0.82394805                4.36948286                5.22413241              -16.58378853                0.25383391                6.29882584               -5.04426387
              10.61540572                5.52118136               62.57475328                0.89475256               -1.20516464               -1.35093790                4.58972933               -0.32907883               -3.40006620                3.87715359
              11.60335407                4.28049567               62.14484209                0.66106144               -1.13441270               -0.80762489                3.13842785               -0.31112277               -4.78993269               -2.67724769
              12.59271747                3.03515514               61.68790041                0.53163031               -1.06815787               -0.43189070                1.55399522               -0.45088888               -4.85501292               -0.75568509
              13.58199092                1.77629834               61.25733591                0.47340957               -0.93174195               -0.02523324                0.05524619               -0.43854673               -2.66922399               -0.47178207
              14.57408263                0.49939300               60.84398388                0.44476429               -0.48913531                0.39622235               -1.49826924               -0.35403505               -1.05910411               -0.29644288
              15.57220821               -0.79439884               60.44472403                0.44341188                0.24385300                0.82428126               -3.09246706               -0.24210005               -0.08835465               -0.06753212
              16.57895969               -2.09823833               60.04938180                0.46890834                1.10533987                1.24796199               -4.68481098               -0.19092959               -0.27536568                0.16268345
              17.59431501               -3.40304178               59.64491794                0.52230901                1.86782219                1.65461687               -6.22515158               -0.20254405               -1.46667085                0.36744320
              18.61631613               -4.70208402               59.22434265                0.60549512                2.43967472                2.05177884               -7.72771510               -0.21828460               -3.20998498                0.43959733
              19.64310850               -5.99245291               58.78345234                0.72171745                2.86905787                2.44580069               -9.25282397               -0.22594501               -3.81091773                1.08441977
              20.67369729               -7.27453978               58.34893221                0.90780990                3.05887865                2.91254952              -10.74532793               -0.59882766               -3.37443660               -2.69757087
              11.85280062                6.50767198               62.39895652                0.73983312               -0.95446611               -1.33956542                4.03015944               -0.15163456                1.94424333                5.23413399
              12.84325596                5.27241943               61.96306073                0.23644716               -0.62466870               -0.64911756                2.57662035               -0.27413650                4.81255753               -4.79497076
              13.84030725                4.03083623               61.58512093                0.00637241                0.11152780                0.17295265                1.45022614               -1.18323199                8.21156058               -8.54286107
              14.84548652                2.77604600               61.21722671                0.00010000                0.77918097               -0.56017507                0.21902605               -2.29223869                9.49085261               -8.40851532
              15.85589087                1.50335523               60.86502424                0.00010000                1.15581812               -0.63335520               -1.01397370               -3.10767672               10.95253859               -8.34541141
              16.86860288                0.21384397               60.52668901                0.00010000                1.27404973               -0.35155454               -2.28414969               -3.45353724               11.79454939               -8.67647244
              17.88137186               -1.08575871               60.19156042                0.00010000                1.28047669                0.15666678               -3.54847285               -3.16700047               11.48017510               -8.84168992
              18.89421241               -2.38649561               59.84665644                0.00010000                1.37334948                0.77870638               -4.76056448               -2.29521773               10.15527139               -7.80900110
              19.90883885               -3.68156623               59.48414364                0.12084301                1.64322602                1.55400540               -5.94481908               -1.08101757                8.60251928               -0.89128470
              20.92707693               -4.96799490               59.10691004                0.29498902                2.04785161                2.09266950               -7.14463377               -0.36785909                6.03416034                3.31009574
              21.94979588               -6.24541429               58.69153395                0.71795787                2.27189503                2.92212687               -8.46625190               -0.64370899                4.21124337               -5.22908487
              13.08287815                7.49439005               62.25118311                0.68783014               -0.81710476               -1.25406404                3.65096868               -0.11915176                0.26152809                6.27727480
              14.07470710                6.26751332               61.73938888                0.14790824               -0.87259489               -0.37702712                1.75641183               -0.06310280                5.19914985               -6.42154643
              15.06542625                5.03861419               61.32687255                0.00010000               -0.55399768                0.90543974                0.69294411               -2.58308519               15.28317878              -18.00803675
              16.06362714                3.76509483               61.01831512                0.00010000                0.43524392               -0.54539326               -0.55059520               -5.55457437               21.04923623              -16.43821793
              17.07413113                2.48672590               60.72473976                0.00010000                1.43121302               -1.10176514               -2.07737553               -6.43002821               21.89433530              -16.46361653
              18.09225141                1.19857007               60.43582719                0.00010000                2.09140669               -1.03066523               -3.68273448               -6.89006386               22.33019160              -17.17159901
              19.11595926               -0.09510500               60.15269848                0.00010000                2.59833842               -0.52409175               -5.31050018               -6.32973469               23.28711737              -17.73259613
              20.14421817               -1.38746765               59.88359779                0.00010000                3.01179057                0.29261381               -6.87323162               -4.65992464               29.07769046              -16.85063399
              21.17619507               -2.67100391               59.71575632                0.02963241                2.76906002                1.44225276               -8.39098994               -2.70460144               30.59989742              -14.45440936
              22.19959937               -3.95059952               59.47299507                0.14227727                1.97334008                3.28474519               -5.30097633               -1.01616939               14.59708745              -11.31329926
              23.21566187               -5.21609724               58.98132867                0.61699299                1.60624993                5.10828167               -6.93266335               -0.46220833                2.22189649              -23.05961224
              14.30417105                8.48259070               62.09726194                0.68208641               -0.64012794               -1.10218102                3.21333230               -0.09986220                0.09116307                5.96502023
              15.29776977                7.26487888               61.52516154                0.13986223               -0.65535083               -0.17394111                1.05132199                0.16106453                4.10528324               -5.79647125
              16.29106403                6.04894502               61.03374470                0.00010000               -0.57432255                0.86238931                0.60487757               -2.93329785               21.78889547              -17.38855862
              17.28628332                4.76513814               60.81833386                0.00010000                0.13755191                0.36582611               -1.15307215               -6.47321296               34.32809534              -16.05568251
              18.29381507                3.48131992               60.58402497                0.00010000                1.31745899               -0.01906915               -3.01266215               -6.91990190               33.09502566              -16.07221851
              19.31263250                2.19323067               60.34867592                0.00010000                2.34999088                0.01707612               -4.98364352               -7.22090769               33.12016811              -16.57313582
              20.34081489                0.90375945               60.11805370                0.00010000                3.21401691                0.44704090               -7.01258936               -6.78819370               34.16415112              -17.25341681
              21.37691284               -0.38064334               59.90522965                0.00010000                3.85319012                1.26735234               -9.01798320               -5.44432156               35.56281091              -18.33478212
              22.41787869               -1.65272118               59.70198322                0.03209352                3.74670201                2.60149894              -10.51981862               -3.14664744               36.37864197              -24.10940666
              23.45184688               -2.90230000               59.50179596                0.14323065                2.68342363                5.56151874              -11.48586789               -0.67715420               19.96521190              -26.32978444
              24.47154716               -4.14324865               58.96419909                0.61657478                1.97002865                7.71235867              -12.60802405                0.84900758                3.43936728              -36.77160854
              15.51630454                9.47234643               61.94414792                0.67718166               -0.47304742               -0.95318226                2.79674721               -0.09691731                0.10160179                6.02576753
              16.51157407                8.26403450               61.31398218                0.13377085               -0.49017533                0.00902117                0.35267882                0.07633498                5.36191397               -5.56389614
              17.50650104                7.05586198               60.78932131                0.00010000               -0.48930414                0.73375591                0.50303792               -3.55856382               28.53218727              -14.22895696
              18.50178799                5.77241136               60.62669616                0.00010000                0.05697628                0.94738488               -1.57873665               -7.43750415               45.52819435              -14.75852150
              19.50764056                4.48634452               60.45085660                0.00010000                1.18028691                0.91449239               -3.80397268               -7.74045836               44.22246968              -14.96513951
              20.52539372                3.19891159               60.26842915                0.00010000                2.32144133                1.07749237               -6.14998311               -7.79134221               43.69710661              -15.45518302
              21.55406939                1.91383582               60.08660135                0.00010000                3.32093248                1.58051632               -8.60490107               -7.23440807               43.77916284              -16.27650829
              22.59181237                0.63787939               59.90865282                0.00010000                4.04246998                2.49666321              -11.10290224               -5.74610907               44.16790935              -17.89171743
              23.63491879               -0.61897393               59.73536531                0.03625648                4.23856963                4.04579250              -13.62172411               -2.73748925               44.06434687              -19.74616474
              24.67658377               -1.83936915               59.55341221                0.14864718                3.98102715                6.44584959              -15.49449803               -0.25707528               23.63876135              -21.97377625
              25.71453933               -3.06185007               58.96308302                0.61977809                3.79555650                8.04679401              -16.93045035                1.10433145                3.94468427              -32.65235821
              16.71885657               10.46352706               61.79221582                0.67249076               -0.30756412               -0.81321156                2.38789921               -0.09465793                0.10503470                6.07920410
              17.71578093                9.26505931               61.10432916                0.12775209               -0.36703342                0.19686544               -0.33728191               -0.07847317                7.32611058               -5.42987502
              18.71151590                8.06362014               60.56106011                0.00010000               -0.43651166                0.85663853                0.49768748               -4.06027765               36.01989259              -12.86965158
              19.70705069                6.78408584               60.45225054                0.00010000                0.04948853                1.34002010               -1.87739701               -8.15582778               56.54321380              -13.09648457
              20.71250567                5.49960977               60.33040980                0.00010000                1.11318278                1.61201256               -4.43053550               -8.39892335               55.09466918              -13.36664893
              21.72931435                4.21478051               60.20033432                0.00010000                2.23266257                1.97556933               -7.13195985               -8.18555930               54.20619816              -13.72552493
              22.75715892                2.93536978               60.06643609                0.00010000                3.27430304                2.61667846               -9.99555847               -7.31393690               53.78280782              -14.29423288
              23.79480041                1.66928993               59.93198668                0.00010000                4.16092617                3.62372074              -13.02546181               -5.40572577               53.70941679              -15.01922272
              24.84037744                0.42819467               59.79871174                0.04037188                4.73905484                5.05394094              -16.18357451               -1.92860814               53.15584313              -15.69153907
              25.88958151               -0.77338301               59.65204705                0.15423234                4.91090976                6.62179547              -18.05455051                0.30829569               28.21872656              -16.70068109
              26.93859564               -1.98231277               59.00939348                0.62299358                4.90141335                7.82292233              -19.63414550                0.85297696                4.37165171              -27.33308908
              17.91134689               11.45608220               61.64083234                0.66792755               -0.14353665               -0.67854174                1.98189240               -0.09441287                0.10984815                6.07615812
              18.90991152               10.26797181               60.89565895                0.12170271               -0.25389667                0.38799708               -1.02216197               -0.27389981                9.83105785               -5.34710598
              19.90626895                9.07299475               60.34500182                0.00010000               -0.36148603                0.99053462                0.67069579               -4.47895612               44.19714476              -11.65560609
              20.90268180                7.79921176               60.29315920                0.00010000                0.13492321                1.59060323               -2.01916991               -8.56206806               67.75985573              -11.45203038
              21.90896742                6.51858477               60.22645761                0.00010000                1.16203655                2.02901427               -4.86523304               -8.67422695               66.07137377              -11.41840574
              22.92592253                5.23842298               60.14967746                0.00010000                2.21569086                2.58361256               -7.87219723               -8.14952634               64.93603804              -11.47142302
              23.95328123                3.96616939               60.06700202                0.00010000                3.24752169                3.37718237              -11.08862115               -6.95234172               64.27357309              -11.54097631
              24.99087296                2.71035381               59.98207864                0.00010000                4.28691635                4.39969233              -14.53418922               -4.78404233               64.07284759              -11.50148194
              26.03901956                1.48210488               59.89834329                0.04463149                5.11920802                5.54467190              -18.12486998               -1.26620930               62.98251784              -11.15453971
              27.09325713                0.29306676               59.79085673                0.15979399                5.52194186                6.56475873              -19.50929371                0.59145882               33.00184213              -11.94181843
              28.14945840               -0.90539162               59.09548341                0.62620840                5.62012740                7.56738906              -21.26094606                0.66401950                4.70810630              -22.58764527
              19.09318910               12.44995622               61.48941348                0.66325934                0.02012907               -0.54888575                1.57680950               -0.09580979                0.11235247                6.01115825
              20.09339039               11.27281925               60.68736814                0.11567056               -0.12461341                0.58410638               -1.70612493               -0.54426081               12.94325890               -5.30857362
              21.09069683               10.08343083               60.14193010                0.00010000               -0.15855383                1.00007963                1.03861917               -4.88322161               53.15363930              -10.27916349
              22.09021931                8.81589790               60.15056706                0.00010000                0.45565429                1.55891268               -1.98315767               -8.64650408               79.27080292               -9.58965562
              23.09980991                7.54019006               60.14154029                0.00010000                1.42599446                2.07773448               -5.07690447               -8.39814648               77.28715053               -9.17201765
              24.11873920                6.26645276               60.12035484                0.00010000                2.31856703                2.83956482               -8.31650067               -7.49891029               75.94627370               -8.87107728
              25.14618125                5.00291343               60.09223153                0.00010000                3.22224348                3.82332617              -11.79515671               -6.10546483               75.21087184               -8.48856728
              26.18318407                3.75728378               60.06224126                0.00010000                4.30795250                4.87587960              -15.55302280               -4.01599558               75.08144989               -7.78269335
              27.23234030                2.53908811               60.03497581                0.04897458                5.28615613                5.77331150              -19.47425971               -0.86931141               73.11059288               -6.57546508
              28.28890719                1.35791217               59.96512760                0.16539511                5.82262500                6.34154646              -20.05981578                0.63358731               37.68418324               -7.53146583
              29.34879280                0.16903501               59.21667493                0.62949145                5.98856128                7.30706741              -22.01332277                0.46672986                4.93059752              -18.10532343
              20.26370464               13.44510449               61.33722660                0.65862811                0.18470514               -0.42208287                1.16794027               -0.09774684                0.14052153                5.95532296
              21.26555169               12.27965394               60.47904111                0.10976843                0.09106138                0.78576854               -2.39171022               -0.99334693               16.80961269               -5.38317700
              22.26552587               11.09299634               59.95412208                0.00010000                0.37204013                0.65867106                1.57637377               -5.36999481               63.09441841               -8.46547546
              23.27299250                9.83039001               60.02755725                0.00010000                1.24618779                0.97244861               -1.77416665               -8.09705969               91.12054399               -7.26673980
              24.29044962                8.56013946               60.07866098                0.00010000                2.01142305                1.70610330               -5.05222789               -7.19795079               88.68244073               -6.56899252
              25.31322096                7.29521427               60.11457792                0.00010000                2.49456516                2.78410146               -8.42040021               -5.97907167               87.07846561               -6.06574378
              26.34034093                6.04263591               60.14294551                0.00010000                3.05787066                4.01451807              -12.04648372               -4.63888211               86.37833522               -5.46480879
              27.37437837                4.80787140               60.17161910                0.00010000                4.03320074                5.21989449              -16.02626582               -3.00811037               86.56336516               -4.38791774
              28.42100494                3.59757111               60.20709426                0.05339506                5.08018021                5.97961656              -20.25909702               -0.74713831               83.36569060               -2.38403865
              29.47598197                2.41989769               60.17156418                0.17089188                5.77711848                6.01933745              -19.82879503                0.39437158               42.16054077               -3.29005974
              30.53654731                1.24074972               59.37075047                0.63280452                6.05653385                6.97145031              -22.00133900                0.26260767                5.09049423              -13.79760476
              21.42213526               14.44151457               61.18511729                0.65378817                0.34963375               -0.29169474                0.75999996               -0.09887012               -0.09347190                5.18130770
              22.42563160               13.28853462               60.26869045                0.10424113                0.52127984                0.98684390               -3.09169762               -1.87345535               21.69962442               -4.84358296
              23.43256086               12.09660426               59.78790312                0.00010000                1.77517001               -0.77397690                2.21095317               -4.79543407               74.46665407               -5.45379428
              24.46113500               10.83534687               59.93032774                0.00010000                2.92328906               -0.19258994               -1.46590646               -5.73876559              103.21425404               -4.13636053
              25.49102664                9.57431212               60.04161294                0.00010000                2.77631561                1.15564387               -4.80683949               -4.41532149               99.93867369               -3.49804906
              26.51666131                8.32213479               60.13377088                0.00010000                2.48599230                2.60842591               -8.15374215               -3.38471129               97.96529014               -3.11080137
              27.54074648                7.08320379               60.21754670                0.00010000                2.57126757                4.07026985              -11.77175742               -2.48492253               97.27989210               -2.66334262
              28.56808666                5.86168166               60.30429690                0.00010000                3.23123813                5.45419552              -15.83892295               -1.62700708               98.09365763               -1.82789409
              29.60537125                4.65868044               60.40772979                0.05798825                4.27646762                6.42330717              -20.43400667               -0.63247038               93.94254387                0.11304382
              30.65361601                3.47829892               60.40923695                0.17660637                5.34848237                5.64541704              -18.87234975               -0.15894971               46.57389080                0.15666421
              31.71234089                2.30846401               59.55465813                0.63588923                5.87248805                6.50322036              -21.26058062                0.00495864                4.91285869               -8.83054958
              22.56768713               15.43927059               61.01781286                0.82522369                0.53057629               -0.22439726                0.27390040                0.56720948                2.34576274                4.40689180
              23.57299290               14.29939082               60.07043934                0.55030549                2.75589004                1.08561968               -3.73314759               -3.35155985               29.27161857               -4.19551257
              24.62280493               13.07751680               59.66124587                0.46495271                5.37582100               -1.90874552                2.55152737               -4.61822248               87.25001203               -3.65019379
              25.68050932               11.82653821               59.86858295                0.44497815                4.62751704               -0.88086591               -1.21368416               -2.77579152              114.60226001               -2.07882437
              26.71535527               10.58325234               60.03479537                0.43845432                2.80628753                0.89402113               -4.37361689               -1.52490759              110.48435844               -1.65650117
              27.73663507                9.34738279               60.17920040                0.44339441                1.78701659                2.52479971               -7.50155961               -0.96317561              108.15890502               -1.38083489
              28.75109561                8.12404131               60.31380490                0.45963243                1.48632541                4.08375228              -10.91114227               -0.48646184              107.24420549               -1.08589378
              29.76636157                6.91695531               60.45131534                0.48819071                2.03213394                5.52736462              -14.82755220               -0.07271137              108.17600543               -0.54796217
              30.79173828                5.72603726               60.61091538                0.53067630                2.83289161                6.73568162              -19.51329557               -0.57076015              103.98452017                0.88135315
              31.82301941                4.53280603               60.66252447                0.59025381                4.22890008                5.45071178              -17.32124856               -0.82081707               53.01813387                2.04783684
              32.87631629                3.37081413               59.78401558                0.81902598                5.32968796                6.23501168              -19.75584878                0.19834901                7.56580246               -5.44921759
              11.01782851                5.73932673               63.62140515                0.88690265               -1.24360079               -1.39540398                4.73947870               -0.34237338               -3.55191208                4.03490322
              12.00539250                4.43762587               63.17670192                0.65099825               -1.17009993               -0.83077515                3.23359743               -0.32721772               -5.00925708               -2.81659955
              12.99442651                3.13103529               62.70361649                0.52751375               -1.08331085               -0.44524405                1.58961499               -0.45127536               -5.10058381               -0.72826919
              13.98372628                1.81082410               62.25779236                0.47189139               -0.90951066               -0.02183057                0.03729575               -0.43173747               -2.90453585               -0.47941786
              14.97623629                0.47294553               61.82863101                0.44455304               -0.43417911                0.41346931               -1.57032027               -0.34958558               -1.34896226               -0.29904800
              15.97504270               -0.88110890               61.41315068                0.44318351                0.31435631                0.85650671               -3.21914720               -0.24433876               -0.40370162               -0.07139767
              16.98252342               -2.24450588               61.00159077                0.46767062                1.17728763                1.29551541               -4.86668605               -0.19471580               -0.56602221                0.15924817
              17.99858845               -3.60844797               60.58143488                0.51857461                1.94288144                1.71829579               -6.46321842               -0.20452503               -1.70959680                0.36786576
              19.02138105               -4.96642225               60.14556952                0.59778260                2.52750367                2.13077942               -8.02439895               -0.22082300               -3.44392091                0.44090738
              20.04913853               -6.31557109               59.68912606                0.70854635                2.97544371                2.53991577               -9.60844059               -0.23055996               -4.04096754                1.09830481
              21.08088992               -7.65620661               59.23939463                0.89907837                3.17513984                3.02097558              -11.15615487               -0.62214745               -3.59095798               -2.83485726
              12.31610563                6.72537269               63.43991448                0.72619919               -0.98395937               -1.38747601                4.15967566               -0.16214650                2.08654247                5.48452548
              13.30626604                5.42931812               62.98921208                0.21973334               -0.63954969               -0.66231939                2.65297466               -0.29588588                5.12124056               -5.06553016
              14.30331464                4.12658285               62.59978650                0.00043258                0.10938761                0.19424309                1.48397301               -1.25269340                8.63687437               -8.83347154
              15.30845379                2.81060580               62.21938193                0.00010000                0.76961531               -0.58497872                0.21069010               -2.43707520                9.86813355               -8.87474974
              16.31870694                1.47708022               61.85462860                0.00010000                1.14356133               -0.64635668               -1.06617911               -3.29118151               11.31364911               -9.13455952
              17.33132502                0.12745616               61.50336819                0.00010000                1.27694268               -0.36194517               -2.38149817               -3.64626475               12.14271343               -9.81905387
              18.34424580               -1.23155072               61.15537770                0.00010000                1.30881861                0.14716271               -3.68955092               -3.36042887               11.85546942              -10.35863286
              19.35750139               -2.59126501               60.79812856                0.00010000                1.42442911                0.77941010               -4.94653785               -2.48088058               10.56806377               -9.70456247
              20.37273438               -3.94511445               60.42359006                0.10950736                1.71118613                1.63975621               -6.17294648               -1.17731691                9.02155542               -3.26093375
              21.39172511               -5.29017193               60.03416145                0.27526851                2.12847988                2.19468199               -7.41306932               -0.38770053                6.38335822                3.14600935
              22.41530398               -6.62599686               59.60532877                0.70463261                2.35788663                3.05682942               -8.78128341               -0.66715185                4.50103245               -5.77248464
              13.60669472                7.71157720               63.28830098                0.67629902               -0.84301030               -1.30309977                3.77098417               -0.12437247                0.24724058                6.58830224
              14.59826461                6.42437948               62.75719753                0.13521318               -0.93048784               -0.37763949                1.80480240               -0.07555634                5.62307836               -6.76320985
              15.58808496                5.13492016               62.33412986                0.00010000               -0.68886022                0.87134456                0.77261473               -2.77568853               16.04004903              -18.23685103
              16.58448741                3.79912453               62.01299568                0.00010000                0.27386706               -0.56763544               -0.50595384               -5.91836584               21.53078344              -17.30648324
              17.59356230                2.46001840               61.70357179                0.00010000                1.31304713               -1.11251615               -2.15076369               -6.80450634               22.16496334              -18.00112168
              18.61074835                1.11165219               61.39798702                0.00010000                2.02368599               -1.02971246               -3.87890743               -7.28474451               22.53197842              -19.42950687
              19.63403602               -0.24156262               61.09785029                0.00010000                2.58931108               -0.51116627               -5.65340211               -6.71720921               23.47488476              -20.76138824
              20.66253457               -1.59285977               60.81210731                0.00010000                3.13528050                0.34588223               -7.42424862               -4.94557467               29.19744290              -20.69582403
              21.69674163               -2.93362712               60.62599021                0.02229387                2.98661748                1.59751572               -9.55786858               -2.90563390               33.32707516              -18.85658362
              22.72226692               -4.27167745               60.41826682                0.12941444                2.12275574                3.65789362               -5.71597780               -1.11276011               17.46544532              -16.03544860
              23.73919674               -5.59507003               59.91034624                0.60807288                1.69298228                5.58908206               -7.31301872               -0.36257023                2.57197703              -27.93677326
              14.88801363                8.69931069               63.12993167                0.67066434               -0.66016731               -1.14513175                3.32167618               -0.10302278                0.09556546                6.25635959
              15.88141196                7.42176533               62.53579787                0.12775806               -0.74789072               -0.17088199                1.07713167                0.06395652                5.07304883               -6.07547476
              16.87305582                6.14400975               62.04161973                0.00010000               -0.82118635                0.75015089                1.00286767               -3.15839207               22.86408763              -17.32987037
              17.86498823                4.79925309               61.80732375                0.00010000               -0.14833321                0.37147219               -1.04126803               -6.77616396               34.57033382              -16.77593601
              18.87008915                3.45482990               61.55341666                0.00010000                1.11114566                0.03221927               -3.10179556               -7.25695382               33.24568174              -17.49966567
              19.88721114                2.10686191               61.29734682                0.00010000                2.21622105                0.12125579               -5.27152458               -7.55848259               33.16169148              -18.73734255
              20.91441357                0.75822595               61.04527124                0.00010000                3.17216257                0.61345424               -7.53280553               -7.10138796               34.12951142              -20.22004783
              21.95065440               -0.58434737               60.81079457                0.00010000                3.95129033                1.52267632               -9.86574802               -5.67936473               35.74875799              -22.17874050
              22.99343938               -1.91316414               60.59118713                0.02482166                4.01292081                2.94882780              -11.67754336               -3.25096040               36.95237992              -28.79192210
              24.03091281               -3.21701406               60.37741053                0.13058366                3.06991739                6.28771174              -13.47591806               -0.62794567               20.92621028              -34.32438755
              25.05483773               -4.51421522               59.82956191                0.60800534                2.39249163                8.56925867              -14.40461944                1.15643568                4.71684816              -44.88168665
              16.15972499                9.68867457               62.97260413                0.66627181               -0.48802999               -0.98882618                2.89524361               -0.10000284                0.10543846                6.33194446
              17.15484469                8.42096184               62.31750976                0.12179689               -0.61478163                0.01491335                0.35356253               -0.09491220                6.81775878               -5.83450064
              18.14742935                7.14992317               61.79696442                0.00010000               -0.83503571                0.65003469                1.05579058               -3.82164398               30.03915902              -14.20651549
              19.13814397                5.80655397               61.61182394                0.00010000               -0.33074778                0.95837526               -1.39434123               -7.66055931               45.65837697              -15.37094949
              20.14081440                4.46066278               61.41227840                0.00010000                0.90193370                1.01809710               -3.90623265               -7.99664607               44.24620748              -16.26466854
              21.15618265                3.11407731               61.20504107                0.00010000                2.12015717                1.27476836               -6.51547352               -8.03618426               43.58472642              -17.47988430
              22.18321754                1.77070646               60.99715118                0.00010000                3.20773611                1.88703678               -9.27092890               -7.44657398               43.52626233              -19.10427671
              23.22033737                0.43759376               60.79240061                0.00010000                4.05857847                2.93128082              -12.14679723               -5.88798111               43.78691500              -21.64320878
              24.26438911               -0.87465057               60.59144705                0.02884642                4.52108594                4.64523954              -15.21102600               -2.63308873               43.78640601              -24.80693746
              25.31075909               -2.14592321               60.38497256                0.13569593                4.61693331                7.30451334              -18.27164813               -0.03804941               24.11899443              -28.06685878
              26.35672778               -3.42368485               59.78079123                0.61111937                4.59686898                8.97784878              -19.64340629                1.41145020                5.09480403              -39.20381429
              17.42143903               10.67953417               62.81654139                0.66187632               -0.31739246               -0.84382132                2.47453753               -0.10003599                0.10757762                6.38971257
              18.41826511                9.42206359               62.10083829                0.11609921               -0.52041148                0.20818520               -0.35936997               -0.30924898                9.31030037               -5.69305055
              19.41103080                8.15701044               61.56938639                0.00010000               -0.86138368                0.79533496                1.18019505               -4.34312319               38.03005125              -12.74575998
              20.40103744                6.81842059               61.43465394                0.00010000               -0.41989544                1.37096471               -1.65122992               -8.28415212               56.62009248              -13.60338516
              21.40263290                5.47519184               61.28553164                0.00010000                0.77031713                1.75771737               -4.54550038               -8.53648066               55.04915493              -14.51163107
              22.41644378                4.13235728               61.12681697                0.00010000                1.96663747                2.25136552               -7.55962216               -8.29209734               53.98313308              -15.55234609
              23.44196564                2.79596669               60.96250328                0.00010000                3.09040125                3.04282562              -10.77517053               -7.36295997               53.31584889              -16.88510479
              24.47825180                1.47427825               60.79554583                0.00010000                4.11644659                4.22416366              -14.26340282               -5.34048374               52.97714224              -18.50944711
              25.52429458                0.17974065               60.62775485                0.03280236                5.04671533                5.85008803              -18.07145134               -1.57579377               52.72066364              -20.17675389
              26.57918611               -1.07092379               60.45500397                0.14092341                5.71477173                7.57081663              -21.48102058                0.67814288               28.80537894              -21.51407951
              27.63859001               -2.33465824               59.79719294                0.61407806                5.94039011                8.80620300              -22.98184708                1.13250383                5.64755286              -32.50783832
              18.67266541               11.67179814               62.66104128                0.65733918               -0.14819788               -0.70607456                2.05884203               -0.09925037                0.11359684                6.38758430
              19.67118343               10.42512554               61.88519708                0.11043508               -0.42277618                0.40649790               -1.06872739               -0.56140573               12.42417100               -5.60713140
              20.66420989                9.16582987               61.35566127                0.00010000               -0.84519540                0.94287402                1.44627431               -4.76480101               46.78664545              -11.36350051
              21.65427953                7.83397327               61.27437070                0.00010000               -0.40308953                1.64110971               -1.76768099               -8.57975436               67.81761576              -11.81156085
              22.65614810                6.49581713               61.17720993                0.00010000                0.76431641                2.20820935               -4.99210392               -8.67010151               66.02479761              -12.36780957
              23.66956585                5.15910462               61.06854904                0.00010000                1.89446383                2.91745858               -8.34333015               -8.08733168               64.67758204              -13.03455399
              24.69403738                3.83156298               60.95172401                0.00010000                3.00939381                3.89091525              -11.95118513               -6.79757171               63.70110574              -13.79155180
              25.72975373                2.52207703               60.82989369                0.00010000                4.20189500                5.11790706              -15.90602383               -4.48134661               63.17872223              -14.53277128
              26.77807528                1.24235119               60.70714107                0.03677524                5.44835548                6.46536166              -20.20572708               -0.69693701               62.76248279              -15.01307711
              27.83872084                0.00549312               60.57713203                0.14631232                6.43857404                7.60007402              -23.41871079                1.05627195               33.94572520              -15.66373995
              28.90684676               -1.24756079               59.86499009                0.61714229                6.81259161                8.64025605              -25.05800290                0.90660078                6.09982021              -26.70338757
              19.91279923               12.66541267               62.50551457                0.65282737                0.02060393               -0.57252014                1.64330832               -0.09873538                0.11753165                6.32141292
              20.91300526               11.43019355               61.66994932                0.10460133               -0.29560820                0.60927584               -1.77676937               -0.88473180               16.24123165               -5.56948352
              21.90688706               10.17586792               61.15685134                0.00010000               -0.67750864                0.97289429                1.86346303               -5.15200085               56.43488164               -9.81280951
              22.89945509                8.85124279               61.13228657                0.00010000               -0.13937739                1.62279928               -1.72166941               -8.54378964               79.34929298               -9.77335713
              23.90409951                7.51935603               61.09019845                0.00010000                0.97481038                2.28393211               -5.20813153               -8.24924023               77.32354413               -9.88501857
              24.91895130                6.19070645               61.03470310                0.00010000                1.94711426                3.21158150               -8.80618843               -7.27957019               75.75429928              -10.10524814
              25.94304180                4.87378499               60.96969947                0.00010000                2.94426768                4.37983140              -12.69581934               -5.76477187               74.65084519              -10.30008396
              26.97783665                3.57663639               60.89959888                0.00010000                4.19489747                5.65090103              -16.98550364               -3.49560345               74.14986541              -10.25997538
              28.02693975                2.30904789               60.82998565                0.04097112                5.61934417                6.77189624              -21.62862874               -0.13347949               73.35015413               -9.78530935
              29.09022354                1.08107769               60.74472110                0.15150179                6.79450516                7.44435793              -24.29136555                1.13786238               39.16210111              -10.26699487
              30.16282985               -0.16185312               59.97760208                0.62027725                7.26063149                8.49011269              -26.10473707                0.65952292                6.42869082              -21.26712149
              21.14112895               13.66034774               62.34919033                0.64846243                0.19046004               -0.44176155                1.22466362               -0.10076546                0.14784863                6.26476621
              22.14303355               12.43731106               61.45464113                0.09911886               -0.05041589                0.81779828               -2.48773841               -1.38008310               20.88393435               -5.65331304
              23.14012064               11.18528776               60.97470090                0.00010000               -0.15589653                0.64826821                2.39576301               -5.60625001               67.15751498               -7.85548663
              24.13991562                9.86642925               61.01149017                0.00010000                0.57894974                1.05560995               -1.51389752               -7.86544990               91.28044781               -7.28471895
              25.15169963                8.54149577               61.02764978                0.00010000                1.48149320                1.95658414               -5.17481863               -6.94570239               88.90305892               -7.02622029
              26.16954549                7.22333625               61.02797172                0.00010000                2.05561854                3.18138257               -8.89521708               -5.68204514               87.08219194               -6.91640131
              27.19281200                5.91915960               61.01798872                0.00010000                2.75166413                4.56768524              -12.92928918               -4.21272531               85.95371467               -6.74566330
              28.22457877                4.63509505               61.00439290                0.00010000                3.90761923                5.96543030              -17.43137601               -2.36137933               85.67533284               -6.19782055
              29.27096439                3.37778912               60.99466838                0.04524874                5.39001625                6.98745250              -22.34026678                0.10633644               84.19401233               -4.88292338
              30.33237909                2.15438028               60.95292157                0.15686915                6.74672250                7.17506536              -24.20602963                0.89295960               44.26495741               -5.08172507
              31.40589884                0.92224146               60.13122891                0.62332096                7.35197411                8.23635682              -26.23524430                0.38393374                6.65217366              -16.01741489
              22.35685728               14.65657744               62.19295864                0.64401869                0.36063083               -0.30809160                0.80715822               -0.10206521               -0.10047312                5.45041165
              23.36046358               13.44654952               61.23715473                0.09353252                0.43932970                1.02619623               -3.21357507               -2.30821189               26.58608785               -5.09075581
              24.36564387               12.18883328               60.81486299                0.00010000                1.27372484               -0.82568333                2.98170135               -4.90278723               79.36333061               -4.88078050
              25.38593808               10.87235499               60.91740738                0.00010000                2.13173001                0.00512976               -1.21546971               -5.47100040              103.52012254               -4.07905467
              26.40827847                9.55848771               60.99321415                0.00010000                2.08542424                1.47061092               -4.90311479               -4.17909093              100.49694408               -3.71432892
              27.42764657                8.25433410               61.05009661                0.00010000                1.93750102                3.02938617               -8.57534621               -3.16272081               98.33885454               -3.54273502
              28.44702849                6.96513870               61.09573264                0.00010000                2.21664931                4.59854122              -12.57244360               -2.17142339               97.15926724               -3.32958938
              29.47197955                5.69594500               61.13953128                0.00010000                3.13763804                6.10475479              -17.11878018               -1.09624263               97.31740502               -2.80439348
              30.50978125                4.44879694               61.19473786                0.04965921                4.58254176                7.26445342              -22.27602570                0.10485950               95.39742916               -1.39164196
              31.56363039                3.22457900               61.20060801                0.16217056                6.25024547                6.83621896              -23.16651828                0.34534258               49.33700853               -0.71287821
              32.63478616                2.00287402               60.32296668                0.62635013                7.11557733                7.75253671              -25.40679895                0.03331226                6.48997961              -10.00597976
              23.55914350               15.65418591               62.02071485                0.82042817                0.54699726               -0.23915353                0.30627770                0.59353044                2.46725163                4.63495048
              24.56461348               14.45783499               61.03238280                0.54512585                2.85579585                1.12854686               -3.87671237               -3.85560160               34.85662113               -4.41222391
              25.61625942               13.16877409               60.69150554                0.46380350                4.81138549               -2.00591909                3.26780275               -4.50360183               92.86167879               -3.07098468
              26.66084119               11.86653185               60.85812081                0.44480182                3.49396374               -0.58231395               -0.98070966               -2.40299459              115.31489502               -2.00945381
              27.68613869               10.57090799               60.99092629                0.43840978                1.93994497                1.24202782               -4.43189407               -1.34437126              111.62435012               -1.74087544
              28.69964009                9.28392397               61.10247458                0.44322945                1.08169732                2.95898683               -7.83380378               -0.78952619              109.12455714               -1.58245095
              29.70777264                8.01113043               61.20128727                0.45879250                0.96777974                4.59917296              -11.56333070               -0.26227611              107.67475166               -1.40521912
              30.71899568                6.75719015               61.29768528                0.48595696                1.83274666                6.12451518              -15.88450177                0.29900075              107.78534621               -1.02129689
              31.74442757                5.52307819               61.40868806                0.52630382                3.31065935                7.42812515              -21.00740730                0.16035786              105.98459239                0.06025139
              32.78520887                4.29110466               61.47113514                0.58289653                5.27737343                6.65256603              -21.26236957               -0.13145164               56.26418559                1.71652787
              33.84997504                3.07729219               60.56921022                0.81417211                6.47661765                7.44181796              -23.52549271                0.13764211                9.27836172               -5.98150679
              11.43377394                5.96486077               64.66954285                0.87923281               -1.28163458               -1.43941030                4.88627324               -0.35550401               -3.70821526                4.19602399
              12.42095759                4.59914338               64.20951404                0.64084441               -1.20792953               -0.85301678                3.32822002               -0.34543613               -5.23628974               -2.96139504
              13.40961535                3.22824973               63.71969271                0.52333203               -1.10359588               -0.45962963                1.62813985               -0.45467297               -5.35527895               -0.70035603
              14.39888568                1.84353085               63.25808183                0.47045518               -0.89351393               -0.01831609                0.02200291               -0.42950142               -3.14433119               -0.48724114
              15.39174507                0.44141688               62.81257748                0.44433542               -0.38556281                0.43063889               -1.63758889               -0.34638185               -1.64365375               -0.30077572
              16.39117442               -0.97626182               62.38034109                0.44302039                0.38049817                0.88883679               -3.33824659               -0.24884322               -0.72392525               -0.07488320
              17.39935503               -2.40262723               61.95204808                0.46620480                1.24849495                1.34363430               -5.03968888               -0.20391499               -0.86282558                0.15492019
              18.41614432               -3.82907181               61.51565357                0.51473579                2.01957524                1.78125241               -6.69286001               -0.21228403               -1.96534793                0.36547882
              19.43974654               -5.24930694               61.06385467                0.59024845                2.61598615                2.21013481               -8.31258738               -0.22523717               -3.69313390                0.44302879
              20.46846404               -6.66055760               60.59128353                0.69562691                3.07972200                2.63421198               -9.95132792               -0.23577812               -4.28236334                1.11429937
              21.50134098               -8.06310519               60.12580911                0.89031311                3.28769365                3.12896026              -11.55208837               -0.64066707               -3.81736426               -2.97794812
              12.79593629                6.95046666               64.48215003                0.71245183               -1.01275362               -1.43609270                4.28728125               -0.17254941                2.23596218                5.74456822
              13.78580875                5.59061321               64.01612022                0.20365917               -0.65307025               -0.67400255                2.72935443               -0.32155163                5.44276283               -5.34590914
              14.78287488                4.22365343               63.61480039                0.00010000                0.10991694                0.18971063                1.51859134               -1.32258932                9.08056311               -9.09354268
              15.78800709                2.84334769               63.22144052                0.00010000                0.76513528               -0.62537523                0.20075199               -2.60074823               10.25978067               -9.31384099
              16.79817759                1.44572326               62.84370066                0.00010000                1.13504758               -0.67507364               -1.12114769               -3.50135794               11.68756727               -9.93834458
              17.81070804                0.03262655               62.47905905                0.00010000                1.27716457               -0.38684407               -2.48057018               -3.87380518               12.50306998              -11.01940519
              18.82372088               -1.38919089               62.11776940                0.00010000                1.33266457                0.12004695               -3.83674779               -3.59521013               12.24366837              -11.99051068
              19.83736133               -2.81125928               61.74772568                0.00010000                1.47580917                0.75108295               -5.14099832               -2.70659539               10.99434210              -11.80541169
              20.85323706               -4.22720559               61.36068471                0.09843263                1.78220273                1.67871394               -6.41250174               -1.30628375                9.45666568               -6.12396015
              21.87300539               -5.63421548               60.95864865                0.25563225                2.21224188                2.30000142               -7.69489306               -0.42608985                6.74898725                2.84109218
              22.89748190               -7.03181559               60.51590829                0.69137162                2.44765129                3.20196697               -9.10859496               -0.67993147                4.80524220               -6.41743565
              14.15002986                7.93613891               64.32660279                0.66490474               -0.86900648               -1.35259569                3.89091949               -0.12687526                0.23324892                6.91535471
              15.14133979                6.58566333               63.77548493                0.12257371               -0.98003872               -0.37780272                1.85421740               -0.11805179                6.10452322               -7.11596086
              16.13042908                5.23204394               63.34232485                0.00010000               -0.82694549                0.79298087                0.87452915               -3.03474763               16.86251129              -18.27172091
              17.12480088                3.83102335               63.00819605                0.00010000                0.10049864               -0.62782692               -0.45098506               -6.31212856               22.01968885              -18.12641782
              18.13243906                2.42791540               62.68172448                0.00010000                1.19057938               -1.15516316               -2.21500350               -7.22470005               22.41604207              -19.57059784
              19.14861247                1.01600130               62.35824904                0.00010000                1.94488057               -1.05983935               -4.06112282               -7.74189912               22.70608962              -21.80004493
              20.17133667               -0.40022629               62.03963043                0.00010000                2.57073225               -0.53757514               -5.97822140               -7.19074857               23.59095907              -24.00579122
              21.20002712               -1.81405015               61.73511282                0.00010000                3.26201970                0.33739192               -7.96052089               -5.34478024               29.00899668              -24.91331362
              22.23657706               -3.21573266               61.52459895                0.01525696                3.22625649                1.65945676              -10.65007214               -3.17170781               36.15646996              -23.83535793
              23.26455224               -4.61455757               61.35867552                0.11677812                2.31827543                3.93609962               -6.31758639               -1.21711384               20.77171226              -21.72569613
              24.28294257               -5.99906585               60.83506829                0.59961955                1.83903246                6.02441100               -7.82214957               -0.24585499                3.07551396              -33.69085199
              15.49434995                8.92341475               64.16369547                0.65957144               -0.68072655               -1.18816568                3.43011019               -0.10715019                0.10005323                6.56402807
              16.48754269                7.58305716               63.54670418                0.11535590               -0.87650210               -0.16796281                1.10417170               -0.08362710                6.28406003               -6.36464122
              17.47681991                6.23951305               63.05380205                0.00010000               -1.08248132                0.59605335                1.44437209               -3.48625248               24.07837531              -17.06259588
              18.46589306                4.83079115               62.79750850                0.00010000               -0.40571368                0.33194120               -0.92725588               -7.10261924               34.68427223              -17.45230302
              19.46870564                3.42262000               62.52198906                0.00010000                0.90593476                0.05103836               -3.18048062               -7.62264309               33.34178235              -18.96324064
              20.48401176                2.01142976               62.24324543                0.00010000                2.06258614                0.19212249               -5.53616227               -7.94796961               33.14434130              -21.00983344
              21.50995736                0.60005761               61.96739759                0.00010000                3.09801711                0.73722653               -8.02116485               -7.50213895               33.97221750              -23.38070372
              22.54597210               -0.80451145               61.70791469                0.00010000                4.01764853                1.71570533              -10.68291952               -6.04231865               35.75022600              -26.32723075
              23.59031033               -2.19401646               61.46843236                0.01769673                4.30121035                3.20261298              -12.87177181               -3.47420733               37.04761112              -33.80845002
              24.63199630               -3.55549349               61.23227760                0.11807232                3.56355173                6.81289071              -15.57179714               -0.61218438               21.65218176              -43.67325450
              25.66158136               -4.91132737               60.67610670                0.59947737                2.95850603                9.27542323              -16.35869119                1.50938692                6.29852674              -54.41745658
              16.82860204                9.91237560               64.00205279                0.65549052               -0.50330899               -1.02652986                2.99170227               -0.10393378                0.10696981                6.65197196
              17.82356895                8.58230407               63.32105343                0.10989715               -0.78160015                0.02269123                0.35719426               -0.34056667                8.61091436               -6.11563235
              18.81297004                7.24396501               62.81043712                0.00010000               -1.19637004                0.52475209                1.61549422               -4.15802687               31.76580459              -14.09626349
              19.79964155                5.83766217               62.59880934                0.00010000               -0.68112256                0.93401126               -1.22663687               -7.88073062               45.61313413              -15.95790756
              20.79934759                4.42893617               62.37273195                0.00010000                0.62869610                1.09128083               -4.00535142               -8.25991589               44.18743621              -17.60605063
              21.81221547                3.01984375               62.13811968                0.00010000                1.89437559                1.43979317               -6.85435625               -8.32121606               43.39740163              -19.60757584
              22.83723510                1.61451824               61.90118277                0.00010000                3.05196682                2.15186207               -9.89554497               -7.73950593               43.14420712              -22.11019976
              23.87325481                0.22026396               61.66571687                0.00010000                4.04199299                3.30596765              -13.16068322               -6.15395243               43.13676089              -25.67230603
              24.91807496               -1.15168040               61.43114479                0.02147418                4.81823321                5.14910156              -16.83365708               -2.67707299               42.82137569              -30.37892376
              25.96961947               -2.47829976               61.18797924                0.12302558                5.33615576                7.98347107              -21.10504046                0.11888509               24.18591682              -35.15465927
              27.02479807               -3.81355739               60.57021489                0.60244570                5.51786007                9.73294839              -22.52796722                1.75360582                6.40034094              -46.88498237
              18.15241433               10.90288415               63.84170657                0.65104068               -0.32723879               -0.87574426                2.55960107               -0.10205724                0.11354900                6.71479148
              19.14914194                9.58351098               63.09714176                0.10450738               -0.70565292                0.22070384               -0.37919485               -0.63350287               11.70773704               -5.96605283
              20.13830127                8.25000809               62.58466401                0.00010000               -1.29173273                0.71473876                1.81344466               -4.70906984               40.30177551              -12.55841300
              21.12330729                6.84947138               62.41922594                0.00010000               -0.84877653                1.38428695               -1.47533501               -8.38592850               56.49534163              -14.11088654
              22.12132574                5.44444562               62.23949979                0.00010000                0.43490388                1.88127973               -4.67055005               -8.66541533               54.91653191              -15.70292045
              23.13200537                4.04022563               62.04914188                0.00010000                1.67106465                2.50010059               -7.96120818               -8.43030742               53.68396251              -17.47771123
              24.15474703                2.64309485               61.85093268                0.00010000                2.85431611                3.43119643              -11.50839166               -7.49470596               52.70496058              -19.64694141
              25.18909169                1.26160791               61.64671862                0.00010000                4.02927753                4.76906904              -15.46730020               -5.41768627               51.93621779              -22.28415029
              26.23533258               -0.09103443               61.43728272                0.02520381                5.35796528                6.56464741              -20.01516069               -1.42380268               51.41404053              -25.12487528
              27.29625099               -1.39582407               61.22242664                0.12796833                6.59180791                8.41872964              -25.00615954                0.95345768               28.84207411              -27.28701977
              28.36716874               -2.71666840               60.54975653                0.60541478                7.09177495                9.68444373              -26.55691655                1.46259650                7.11983910              -38.66544723
              19.46530724               11.89486071               63.68200918                0.64696040               -0.15322847               -0.73243580                2.13455149               -0.10146186                0.11803865                6.71684067
              20.46377495               10.58671815               62.87428440                0.09910258               -0.62394973                0.42372710               -1.11235487               -0.94323099               15.48129234               -5.87880371
              21.45282824                9.25825979               62.37392730                0.00010000               -1.31447488                0.90634609                2.09370068               -5.13071490               49.68430877              -11.04647863
              22.43748545                7.86534791               62.25780558                0.00010000               -0.87716050                1.69199512               -1.61020121               -8.55736280               67.66787927              -12.18221101
              23.43528503                6.46656176               62.12661553                0.00010000                0.37373178                2.38021122               -5.14577006               -8.64818131               65.90378481              -13.36179833
              24.44496009                5.06984576               61.98281086                0.00010000                1.53368326                3.23497441               -8.79202047               -8.05503994               64.35143612              -14.68891002
              25.46595870                3.68314217               61.82797832                0.00010000                2.70351334                4.37760944              -12.76567241               -6.73225388               62.98249654              -16.20489279
              26.49903036                2.31564534               61.66395816                0.00010000                4.05360899                5.79885764              -17.24997855               -4.33630520               61.95427832              -17.83289760
              27.54703088                0.97961255               61.49422875                0.02906912                5.76461227                7.34445163              -22.38410655               -0.33409585               61.51969329              -19.28608130
              28.61432260               -0.30992517               61.32248251                0.13291122                7.43538983                8.63033954              -27.57681656                1.44003620               34.25076901              -20.30412852
              29.69573867               -1.61986851               60.59432335                0.60832730                8.14160713                9.70610831              -29.24315924                1.22746026                7.78114475              -31.74787943
              20.76667022               12.88823544               63.52227965                0.64254318                0.02080287               -0.59524865                1.70852324               -0.10235276                0.12248139                6.64932529
              21.76687825               11.59198552               62.65183275                0.09379413               -0.48065061                0.63320609               -1.84449995               -1.30777842               20.01321126               -5.84316218
              22.75705721               10.26813502               62.17919936                0.00010000               -1.15100995                0.98075848                2.43421192               -5.48376794               60.05047052               -9.35943447
              23.74385805                8.88331128               62.11613367                0.00010000               -0.65964730                1.71134548               -1.59768797               -8.39590262               79.24942367               -9.97266864
              24.74386427                7.49204984               62.03737766                0.00010000                0.52330558                2.50187978               -5.38509460               -8.08209730               77.31248255              -10.63301594
              25.75432416                6.10492511               61.94423107                0.00010000                1.52190582                3.58234873               -9.27878771               -7.09185222               75.51647834              -11.41531915
              26.77430238                4.73064704               61.83831514                0.00010000                2.57855194                4.92736587              -13.55023798               -5.51523523               73.95629627              -12.25362948
              27.80589520                3.37758506               61.72253119                0.00010000                3.99593946                6.41686267              -18.40364058               -3.13087108               72.89554021              -12.97351688
              28.85422117                2.05585461               61.60240323                0.03308718                5.93187876                7.77739429              -23.93212531                0.42616491               72.42663997              -13.33137837
              29.92453278                0.77678272               61.47930029                0.13800093                7.86917382                8.61507197              -28.91977635                1.59985749               39.89260075              -13.81915325
              31.01160465               -0.52254624               60.69458019                0.61121307                8.70718684                9.74526733              -30.71293924                0.92897606                8.28228562              -25.26384794
              22.05576001               13.88295574               63.36171987                0.63844025                0.19597981               -0.46185800                1.27943245               -0.10417714                0.15402682                6.59152662
              23.05771981               12.59938227               62.42928634                0.08831252               -0.19664412                0.84961538               -2.58027908               -1.82550166               25.41864488               -5.93660203
              24.05182713               11.27787495               62.00203734                0.00010000               -0.60336153                0.70244964                2.83549879               -5.86449236               71.57759995               -7.28438654
              25.04565258                9.89957482               61.99727930                0.00010000                0.01010641                1.19119281               -1.44103743               -7.59736787               91.32306298               -7.31993548
              26.05202925                8.51659936               61.97516461                0.00010000                0.94366369                2.23495951               -5.35956471               -6.68350298               89.12540385               -7.50161042
              27.06452585                7.14149274               61.93667358                0.00010000                1.54823969                3.59260600               -9.35829508               -5.41570663               87.08141578               -7.81847685
              28.08299405                5.78168948               61.88435973                0.00010000                2.33397588                5.13332079              -13.76841681               -3.86576822               85.43354876               -8.13256811
              29.11120537                4.44398259               61.82299158                0.00010000                3.66812318                6.73581771              -18.83216940               -1.84973586               84.51452743               -8.18386007
              30.15635651                3.13516043               61.76028893                0.03694770                5.67576147                8.04866571              -24.62097416                0.82078039               83.78152175               -7.60713495
              31.22472060                1.86237627               61.68744359                0.14307293                7.83098023                8.45225309              -29.07624398                1.37354951               45.53687305               -7.48746321
              32.31297612                0.57503683               60.84604558                0.61416138                8.82555196                9.64546720              -31.04752845                0.55698131                8.62061031              -18.87649022
              23.33173362               14.87899828               63.20126045                0.63416859                0.37153842               -0.32492796                0.85158785               -0.10523192               -0.10726066                5.73531245
              24.33544901               13.60897783               62.20441895                0.08313269                0.39205959                1.06539588               -3.33138508               -2.75997239               31.90154175               -5.35033480
              25.33957481               12.28218401               61.84753715                0.00010000                0.88686426               -0.75314753                3.23414551               -4.96846617               84.66090820               -4.34455090
              26.35318629               10.90713514               61.90601835                0.00010000                1.43507385                0.26737260               -1.18627394               -5.18505435              103.80247554               -4.02574502
              27.36827629                9.53674903               61.94355065                0.00010000                1.38668087                1.82055879               -5.07241260               -3.94493239              101.13216530               -3.93309721
              28.38091991                8.17677723               61.96226395                0.00010000                1.31104364                3.47425483               -8.98719627               -2.95980984               98.78017459               -3.99777569
              29.39449716                6.83331345               61.96609783                0.00010000                1.72548147                5.15690910              -13.32776716               -1.90449630               97.02705425               -4.05115229
              30.41542954                5.51230141               61.96192130                0.00010000                2.88729661                6.81193917              -18.39157627               -0.65115978               96.38940687               -3.87388397
              31.45224310                4.21682792               61.96220927                0.04132107                4.83489158                8.20907246              -24.33363233                0.75750655               95.62293092               -2.99565277
              32.51212737                2.94582779               61.94590658                0.14807078                7.25900311                8.18530313              -28.02236282                0.82977758               51.23441077               -1.95056155
              33.59742316                1.67036311               61.04652215                0.61699722                8.52957882                9.18300380              -30.18844756                0.09139430                8.54738275              -11.56946666
              24.59369626               15.87645718               63.02393842                0.81561931                0.56383671               -0.25410952                0.33658848                0.61956452                2.59858401                4.87841993
              25.59933463               14.62069019               61.99290510                0.54012466                3.03021176                1.17123566               -4.01782839               -4.29369672               40.85176446               -4.64155771
              26.65430050               13.26281200               61.72660193                0.46265141                4.40259184               -1.93720038                3.38108488               -4.31582750               98.88361202               -2.50335803
              27.68738646               11.90492227               61.84896876                0.44453373                2.45940070               -0.22128644               -0.96869811               -2.07005610              116.10710656               -1.93394013
              28.70348851               10.55301054               61.94615749                0.43855548                1.06893828                1.62615035               -4.56469518               -1.17600009              112.94967958               -1.82687823
              29.70876523                9.21097783               62.02252432                0.44298284                0.29457164                3.42005990               -8.15122904               -0.62461133              110.28008930               -1.80007641
              30.70937994                7.88482767               62.08253829                0.45781134                0.29512371                5.15142114              -12.15682114               -0.04954503              108.24004194               -1.75810956
              31.71466770                6.58022137               62.13362531                0.48366193                1.43001639                6.79199607              -16.90701779                0.64952743              107.43976836               -1.54799771
              32.73798027                5.29934188               62.19076723                0.52214047                3.65566287                8.25139604              -22.66987143                0.86676561              106.90639996               -0.78739892
              33.78778096                4.02608234               62.23727707                0.57577374                6.38765437                8.02545514              -25.72993649                0.53311054               58.67841463                1.13746235
              34.86573336                2.75869691               61.31350572                0.80937743                7.79523962                8.83338009              -27.88098640                0.09247716               11.54033568               -6.76554774
              11.86372182                6.19803284               65.71913062                0.87145417               -1.32049782               -1.48287305                5.03288251               -0.36845701               -3.86830500                4.36429277
              12.85051684                4.76518560               65.24326632                0.63110348               -1.24843385               -0.87565547                3.42241461               -0.36559152               -5.46819552               -3.10937871
              13.83875315                3.32681282               64.73617929                0.51934538               -1.12809761               -0.47329599                1.66877611               -0.45593920               -5.61452405               -0.67367624
              14.82795489                1.87436190               64.25823242                0.46898797               -0.88245953               -0.01471435                0.01007845               -0.42703482               -3.38724362               -0.49304702
              15.82110396                0.40468365               63.79587924                0.44404871               -0.34306514                0.44826731               -1.69972282               -0.34663943               -1.93906006               -0.30298004
              16.82109359               -1.08004249               63.34638574                0.44289734                0.44252359                0.92025960               -3.44980862               -0.25428025               -1.04739391               -0.07765937
              17.82995443               -2.57285011               62.90079699                0.46488850                1.31906578                1.39068277               -5.20414743               -0.21219610               -1.16736914                0.15004021
              18.84747491               -4.06528262               62.44757768                0.51103021                2.09669955                1.84501226               -6.91449489               -0.21877995               -2.22848195                0.36307462
              19.87188842               -5.55122175               61.97931778                0.58285676                2.70309566                2.28838102               -8.58684369               -0.23100619               -3.94746313                0.44545727
              20.90153682               -7.02801535               61.49009950                0.68289236                3.18015260                2.72732738              -10.27782049               -0.24266309               -4.53005529                1.12982887
              21.93549147               -8.49596393               61.00835287                0.88170014                3.39546515                3.23591748              -11.93122584               -0.65504962               -4.05179215               -3.12452465
              13.29288449                7.18320411               65.52566011                0.69903962               -1.04135538               -1.48469901                4.41495669               -0.18382666                2.39291785                6.01735843
              14.28247094                5.75642905               65.04379916                0.18756227               -0.66394435               -0.68546469                2.80594089               -0.35040383                5.77566509               -5.63428134
              15.27960561                4.32207986               64.63015833                0.00010000                0.11390953                0.18356228                1.55037857               -1.41716884                9.53736792               -9.31270741
              16.28474913                2.87421476               64.22339697                0.00010000                0.76170742               -0.69168542                0.18998485               -2.76934409               10.66278435               -9.71881157
              17.29483975                1.40916633               63.83220565                0.00010000                1.12842704               -0.71828066               -1.17826904               -3.71642279               12.07277968              -10.74853455
              18.30731767               -0.07083989               63.45375678                0.00010000                1.28063878               -0.42463000               -2.58291897               -4.11195047               12.87101759              -12.26352123
              19.32045253               -1.55894329               63.07864275                0.00010000                1.35776263                0.07717398               -3.98788053               -3.84778032               12.63805584              -13.71334699
              20.33447292               -3.04683249               62.69530859                0.00010000                1.52460968                0.69837866               -5.34364586               -2.95617865               11.43245715              -14.08103141
              21.35094472               -4.52833794               62.29534002                0.08752835                1.85041772                1.65699104               -6.65969616               -1.47448359                9.90516865               -9.39528082
              22.37148128               -6.00074208               61.88026359                0.23662217                2.29724136                2.40975145               -7.98657900               -0.47859033                7.12610708                2.29628545
              23.39688955               -7.46360475               61.42315687                0.67845527                2.54082732                3.34392242               -9.44694943               -0.66476747                5.11867594               -7.22192459
              14.71359542                8.16833886               65.36611937                0.65363797               -0.89624016               -1.40314337                4.01028122               -0.13061609                0.21703577                7.25836092
              15.70463302                6.75147631               64.79428188                0.11002698               -1.04856782               -0.37625247                1.90549578               -0.16695810                6.64958394               -7.48069365
              16.69262406                5.33048407               64.35162044                0.00010000               -0.95757341                0.62828469                0.99874479               -3.33673622               17.75506218              -18.10491535
              17.68548155                3.86052819               64.00397598                0.00010000               -0.03969576               -0.73105091               -0.39880747               -6.72142446               22.51698007              -18.89436772
              18.69183015                2.39031804               63.65927172                0.00010000                1.07413219               -1.23043509               -2.27456660               -7.63575841               22.65693283              -21.15374050
              19.70696419                0.91146491               63.31676456                0.00010000                1.85806375               -1.11827530               -4.22812337               -8.21264535               22.86679048              -24.25251098
              20.72899142               -0.57130663               62.97828586                0.00010000                2.53908962               -0.59985877               -6.27673007               -7.70219075               23.64785208              -27.41667227
              21.75774599               -2.05131504               62.65289689                0.00010000                3.36584541                0.26682282               -8.45475194               -5.83120333               28.57178690              -29.43782636
              22.79630833               -3.51808193               62.41298877                0.00833941                3.47429211                1.62294811              -11.57868809               -3.47106598               38.95310613              -29.33612752
              23.82723183               -4.97982032               62.29191509                0.10451892                2.58065712                4.04796023               -7.16916590               -1.31013641               24.35125180              -28.37634905
              24.84792147               -6.42908548               61.75390325                0.59119495                2.06896455                6.29469035               -8.49007818               -0.11348988                3.78756049              -40.34730466
              16.12399728                9.15514125               65.19853387                0.64874966               -0.70107082               -1.23179768                3.53567601               -0.11033991                0.10340100                6.88338648
              17.11698657                7.74890400               64.55788131                0.10360342               -1.00891393               -0.16323523                1.13250826               -0.32250274                7.74721250               -6.66191974
              18.10381900                6.33464556               64.07050717                0.00010000               -1.32499503                0.33259401                1.85031223               -3.84723947               25.44812913              -16.60893746
              19.09048667                4.85959374               63.78877863                0.00010000               -0.63155678                0.25750956               -0.83539242               -7.37288290               34.67333004              -18.08660313
              20.09118787                3.38455762               63.48980705                0.00010000                0.71013837                0.03564977               -3.25966497               -7.96882529               33.41141293              -20.44873300
              21.10468944                1.90679460               63.18662357                0.00010000                1.90004024                0.22822180               -5.77636249               -8.33912131               33.09771886              -23.35785910
              22.12918867                0.42905954               62.88484794                0.00010000                2.99673564                0.81370070               -8.46195221               -7.93887835               33.72352830              -26.68560633
              23.16462415               -1.04149604               62.59713618                0.00010000                4.04200069                1.83293701              -11.42599418               -6.47869658               35.57119733              -30.71567212
              24.21002868               -2.49587898               62.33375170                0.01053021                4.58289757                3.35012637              -14.02244342               -3.80204554               36.64736351              -39.15280445
              25.25628210               -3.91978287               62.06597459                0.10581756                4.15606924                7.03274435              -17.60141769               -0.68282367               22.09003726              -54.18106756
              26.29315007               -5.33771095               61.50238809                0.59134626                3.68679665                9.70255737              -18.39100828                1.82428401                8.09421527              -65.34122855
              17.52386311               10.14370291               65.03243817                0.64464875               -0.51844634               -1.06338186                3.08466002               -0.10701348                0.11077410                6.98705030
              18.51867865                8.74821161               64.32465365                0.09843399               -0.94367891                0.03037804                0.36406932               -0.70455621               10.71574231               -6.40554760
              19.50498954                7.33713595               63.82927431                0.00010000               -1.52834127                0.38532167                2.05680055               -4.56850419               33.69000977              -13.92327094
              20.48811183                5.86567838               63.58729121                0.00010000               -0.98683791                0.88064437               -1.12041779               -8.02415512               45.42801635              -16.52859164
              21.48525278                4.39103104               63.33217137                0.00010000                0.37840139                1.13461112               -4.11800252               -8.48946519               44.09314006              -18.97428362
              22.49567985                2.91602935               63.06795394                0.00010000                1.66258587                1.56586386               -7.16550709               -8.60314754               43.18352810              -21.80355729
              23.51850449                1.44496738               62.79924028                0.00010000                2.87153580                2.35863878              -10.45784011               -8.06931071               42.67785304              -25.24084183
              24.55311057               -0.01465630               62.52918694                0.00010000                4.00248806                3.59249954              -14.08930564               -6.50224037               42.25231136              -29.91361755
              25.59855426               -1.45107940               62.25477390                0.01419124                5.11483780                5.50190835              -18.35871527               -2.88352228               41.22254308              -36.38287839
              26.65540732               -2.83916544               61.96287175                0.11046106                6.08545225                8.43077087              -23.74359995                0.16583697               23.83144085              -43.15266463
              27.72026330               -4.23503433               61.33023188                0.59402900                6.48559760               10.28176506              -25.40346724                2.07195725                7.75237214              -55.72066765
              18.91283962               11.13387361               64.86773342                0.64062241               -0.33772128               -0.90705176                2.64458479               -0.10557359                0.11752898                7.05794354
              19.90946241                9.74951156               64.09325439                0.09299616               -0.89287398                0.23234396               -0.39636501               -1.06545554               14.45113804               -6.25029550
              20.89498214                8.34235199               63.60565528                0.00010000               -1.66769621                0.66144979                2.22555084               -5.14597897               42.82318913              -12.34732728
              21.87610848                6.87720662               63.40514724                0.00010000               -1.19672724                1.38714668               -1.40604889               -8.41325442               56.23900254              -14.63172570
              22.87104760                5.40724985               63.19212064                0.00010000                0.12908300                1.98361312               -4.82580946               -8.75645061               54.76705876              -16.92366448
              23.87869014                3.93811188               62.96759280                0.00010000                1.37202555                2.71039360               -8.33590572               -8.57327976               53.37370324              -19.46605483
              24.89848811                2.47623231               62.73233545                0.00010000                2.59679905                3.75576397              -12.17050795               -7.68612079               52.01434790              -22.52670860
              25.93062612                1.03035395               62.48619983                0.00010000                3.91896323                5.21314098              -16.56939764               -5.62974117               50.63299262              -26.27982038
              26.97686737               -0.38584081               62.22745164                0.01769442                5.64638249                7.12942254              -21.84718128               -1.50654372               49.32222029              -30.48375676
              28.04355377               -1.75116746               61.95488078                0.11518449                7.47298183                9.08511661              -28.34188499                1.09997283               28.37057709              -34.05733518
              29.12632701               -3.13207565               61.26605461                0.59676394                8.27732340               10.38461471              -30.16178746                1.83541475                8.69668186              -45.93193624
              20.29047574               12.12556188               64.70373231                0.63671078               -0.15845821               -0.75925611                2.20677185               -0.10518751                0.12114097                7.06180826
              21.28889116               10.75285848               63.86294998                0.08812167               -0.80504235                0.44084029               -1.15104804               -1.41547816               18.88429553               -6.16074902
              22.27437489                9.35036495               63.39753529                0.00010000               -1.69711376                0.91086011                2.40685594               -5.54118789               52.86123838              -10.76955264
              23.25494888                7.89342132               63.24216667                0.00010000               -1.25781906                1.75545320               -1.60499017               -8.47524312               67.41934510              -12.57177835
              24.24921851                6.43070330               63.07429453                0.00010000                0.01414547                2.54483965               -5.34882040               -8.59899660               65.79817795              -14.38441173
              25.25523179                4.97023722               62.89270863                0.00010000                1.16607469                3.52127357               -9.21781648               -8.04836981               64.03764317              -16.40090461
              26.27254000                3.52008266               62.69641057                0.00010000                2.36785392                4.80493398              -13.50540204               -6.76255996               62.19322768              -18.73354927
              27.30258887                2.08960652               62.48489412                0.00010000                3.87023933                6.38893424              -18.49107288               -4.37701842               60.45187464              -21.35244988
              28.34994479                0.69150905               62.25945894                0.02151404                6.05263745                8.11004739              -24.48829231               -0.26167753               59.27820847              -23.96298193
              29.42364162               -0.65746310               62.02559570                0.12008884                8.44215924                9.54505024              -31.60368878                1.67468655               33.87595936              -25.93558524
              30.51878798               -2.02734204               61.28012691                0.59960527                9.51463578               10.66116676              -33.52038517                1.59154452                9.60421657              -37.83125348
              21.65614265               13.11868849               64.53968503                0.63260848                0.02071220               -0.61822040                1.77065370               -0.10597160                0.12701483                6.99179237
              22.65634977               11.75832837               63.63305932                0.08308572               -0.62735498                0.65671680               -1.90693705               -1.79607326               24.08186003               -6.12679786
              23.64359555               10.36056919               63.20553557                0.00010000               -1.50422523                1.04486481                2.58137694               -5.83539470               63.92595548               -9.00380394
              24.62626527                8.91231569               63.10033281                0.00010000               -1.06718962                1.83622729               -1.67780064               -8.20609091               79.11736795              -10.19677081
              25.62225176                7.45814664               62.98249656                0.00010000                0.10390584                2.72936401               -5.63085468               -7.90917092               77.35884671              -11.40157364
              26.62834339                6.00853735               62.84912735                0.00010000                1.08079258                3.93483059               -9.73540181               -6.95343801               75.32349110              -12.77357127
              27.64386761                4.57233099               62.69869471                0.00010000                2.16579896                5.43214486              -14.33305966               -5.38898685               73.21081465              -14.31282202
              28.67165937                3.15813264               62.53152607                0.00010000                3.74179151                7.12106119              -19.73265241               -2.98098017               71.35738542              -15.88888177
              29.71870344                1.77636014               62.35134314                0.02516054                6.21196145                8.71656653              -26.22917901                0.68994637               70.33657856              -17.24525045
              30.79589859                0.43973355               62.16632557                0.12467544                8.96061638                9.77439154              -33.55911866                1.92529177               39.84113455              -18.25496377
              31.89791577               -0.91885231               61.36334330                0.60234612               10.20171748               11.00558676              -35.54671363                1.25736809               10.39204694              -30.15705428
              23.00907655               14.11319747               64.37477898                0.62856477                0.20124366               -0.48116683                1.32997252               -0.10784363                0.16027901                6.93416192
              24.01108898               12.76599282               63.40303555                0.07800970               -0.26984361                0.87978516               -2.66598229               -2.30336385               30.17121727               -6.23197887
              25.00367968               11.37126224               63.03141088                0.00010000               -0.89196835                0.84042411                2.73878140               -6.10899398               76.24441766               -6.86432390
              25.99324962                9.93014586               62.98266942                0.00010000               -0.44331224                1.39174716               -1.61175823               -7.31314189               91.42765701               -7.37578355
              26.99481343                8.48529058               62.92045848                0.00010000                0.43645299                2.53431212               -5.63131891               -6.43938085               89.46518344               -7.98473061
              28.00197868                7.04893383               62.84080582                0.00010000                1.01757745                3.99952475               -9.81432751               -5.21027651               87.17300372               -8.75301113
              29.01516498                5.62872556               62.74262039                0.00010000                1.84807219                5.68030525              -14.54430471               -3.64307351               84.90706263               -9.60217591
              30.03894012                4.23202774               62.62774951                0.00010000                3.34889142                7.48504742              -20.16614986               -1.54441489               83.10358247              -10.33046925
              31.08214281                2.86584038               62.50224890                0.02897780                5.92098909                9.10227183              -26.97026079                1.27740656               82.09627819              -10.59521956
              32.15735990                1.53802473               62.37139669                0.12957411                8.94821243                9.80003650              -34.14361761                1.75182228               45.96518229              -10.62828164
              33.26110706                0.19276970               61.51027834                0.60501196               10.37471540               11.14384253              -36.23754061                0.80384211               10.98632522              -22.51120680
              24.34839507               15.10906515               64.20999040                0.62461431                0.38226493               -0.33995436                0.89149770               -0.10884422               -0.11526667                6.03513647
              25.35221772               13.77592407               63.17052703                0.07305738                0.44337796                1.10193575               -3.44231943               -3.18956034               37.31929766               -5.62323932
              26.35726263               12.37737768               62.87954590                0.00010000                0.68781867               -0.53424346                2.84008775               -5.07925576               90.15842750               -3.95838195
              27.36597410               10.94015063               62.89368190                0.00010000                0.87067702                0.59031837               -1.42508825               -4.91833283              104.28444424               -3.97080336
              28.37467617                9.50883288               62.89176589                0.00010000                0.73643911                2.19330789               -5.34090201               -3.74297482              101.95983969               -4.14977848
              29.38070288                8.08852785               62.87035269                0.00010000                0.66180300                3.92339355               -9.40062857               -2.80066918               99.38998749               -4.46589064
              30.38791223                6.68593710               62.82917729                0.00010000                1.14766827                5.71808816              -14.02959954               -1.71933698               96.97814925               -4.81725850
              31.40365624                5.30783359               62.77169975                0.00010000                2.51711770                7.53972177              -19.61918001               -0.34547730               95.33333955               -5.03370061
              32.43825459                3.95840557               62.70806522                0.03313574                5.01747406                9.21869533              -26.51868355                1.23308437               94.55860314               -4.72799905
              33.50400572                2.63573428               62.64016076                0.13416052                8.31240434                9.65440930              -33.21495105                1.21488659               52.25964685               -3.63169129
              34.60450267                1.30402454               61.71919773                0.60776070               10.04969487               10.76221998              -35.47369550                0.18989632               11.12092318              -13.62966397
              25.67318182               16.10639838               64.02744662                0.81090376                0.58034268               -0.26667701                0.36170225                0.64199077                2.73462140                5.13509016
              26.67898525               14.78803154               62.95202623                0.53507556                3.23430867                1.21074660               -4.15137882               -4.61429737               46.87700996               -4.88428328
              27.73786800               13.36057737               62.75912724                0.46154445                4.22212516               -1.68003032                2.81972941               -4.24342870              105.07986989               -2.08205831
              28.76342775               11.94195223               62.83874685                0.44425498                1.68543613                0.18015967               -1.22648431               -1.82566590              117.22974229               -1.86452774
              29.77157672               10.52915674               62.89963239                0.43853748                0.27166615                2.03238535               -4.79601377               -1.03747142              114.56445214               -1.92134007
              30.76886108                9.12740170               62.93945000                0.44272547               -0.50521109                3.88738574               -8.47512500               -0.48765080              111.72937519               -2.03568393
              31.76147250                7.74308732               62.95815085                0.45694401               -0.46494895                5.71502211              -12.70301251                0.12705033              109.05289261               -2.15003739
              32.75956210                6.38282218               62.95954492                0.48144851                0.87156525                7.49885891              -17.88929266                0.94693395              107.19210868               -2.14253992
              33.77890380                5.05021429               62.95529064                0.51794002                3.82382856                9.18087124              -24.46262615                1.47945863              106.74486612               -1.72061294
              34.83603867                3.73111291               62.95653641                0.56875383                7.47103285                9.53786344              -30.54965308                1.09328499               60.35620332                0.27875861
              35.92832446                2.40801410               62.01159049                0.80478568                9.22857911               10.39895560              -32.74424486                0.07229709               14.47876189               -7.86507279
              12.30813643                6.43908764               66.77020050                0.86387819               -1.35914168               -1.52625637                5.17900431               -0.38174124               -4.03336154                4.53480256
              13.29454501                4.93589013               66.27796233                0.62161521               -1.28888303               -0.89780982                3.51571018               -0.38559407               -5.70429021               -3.25962736
              14.28235877                3.42681812               65.75306823                0.51521523               -1.15520788               -0.48599887                1.70904392               -0.46089816               -5.87539827               -0.64737069
              15.27144086                1.90334083               65.25828339                0.46753677               -0.87741107               -0.01129205                0.00173113               -0.42822280               -3.63025687               -0.49689304
              16.26481055                0.36270446               64.77858302                0.44376109               -0.30660357                0.46556347               -1.75666589               -0.34861380               -2.23272962               -0.30397551
              17.26530879               -1.19255708               64.31134492                0.44253693                0.50025811                0.95343911               -3.55656405               -0.26286894               -1.36771728               -0.08134287
              18.27481571               -2.75531793               63.84796513                0.46349327                1.38725568                1.43712364               -5.36051577               -0.22430424               -1.47294004                0.14456881
              19.29305390               -4.31727213               63.37736367                0.50728768                2.17298749                1.90730087               -7.12459503               -0.23028731               -2.49636751                0.35882821
              20.31827546               -5.87244229               62.89211780                0.57553998                2.78869748                2.36600894               -8.84869627               -0.23985634               -4.20752512                0.44634497
              21.34882785               -7.41828920               62.38572712                0.67049063                3.27614716                2.81838371              -10.58740862               -0.24978636               -4.78340777                1.14416180
              22.38379840               -8.95520369               61.88718459                0.87342660                3.49705559                3.33992190              -12.29013937               -0.66440234               -4.29078035               -3.27180910
              13.80751654                7.42382508               66.57044917                0.68609638               -1.06927028               -1.53276378                4.54004749               -0.19584893                2.55369907                6.29764406
              14.79682383                5.92691203               66.07223904                0.17162797               -0.67460482               -0.69614064                2.88048916               -0.37907767                6.11518855               -5.92733488
              15.79402444                4.42195814               65.64580796                0.00010000                0.11958146                0.13893355                1.58015520               -1.51033320               10.00485655               -9.47274667
              16.79921546                2.90322790               65.22524021                0.00010000                0.76244634               -0.77932469                0.17806946               -2.92748472               11.07740221              -10.09228322
              17.80927337                1.36736009               64.82013528                0.00010000                1.12379149               -0.77326352               -1.23561503               -3.91360091               12.46692408              -11.55979611
              18.82169129               -0.18302269               64.42740067                0.00010000                1.28284123               -0.46793110               -2.69081650               -4.33407206               13.24947615              -13.53737480
              19.83493019               -1.74094670               64.03801179                0.00010000                1.38109551                0.02765028               -4.14146615               -4.09153781               13.03932989              -15.50679142
              20.84931320               -3.29819912               63.64085277                0.00010000                1.57276228                0.63189290               -5.55021280               -3.20647235               11.87537181              -16.49542597
              21.86638544               -4.84878220               63.22749079                0.07667298                1.91987421                1.57877004               -6.91421713               -1.67803653               10.36144466              -12.96848893
              22.88771069               -6.39010537               62.79891707                0.21781114                2.38417149                2.52468266               -8.28511437               -0.55936636                7.50874456                1.39446128
              23.91406887               -7.92180447               62.32696930                0.66596869                2.63581799                3.49802609               -9.79053669               -0.62395743                5.43578387               -8.24234593
              15.29804556                8.40843237               66.40680841                0.64284272               -0.92151508               -1.45306994                4.12304076               -0.13617688                0.19893920                7.61173432
              16.28883040                6.92196731               65.81359484                0.09803662               -1.11046632               -0.37325161                1.95583723               -0.25728828                7.26958994               -7.85107876
              17.27583623                5.42959680               65.36229974                0.00010000               -1.06705995                0.38611501                1.14968535               -3.66761253               18.73406286              -17.80841223
              18.26748921                3.88775433               65.00021990                0.00010000               -0.15235501               -0.87420203               -0.36378841               -7.07566446               23.00632851              -19.60479839
              19.27278913                2.34723919               64.63623315                0.00010000                0.97224644               -1.33072016               -2.33715861               -7.99272245               22.89642929              -22.74105228
              20.28693413                0.79808429               64.27368657                0.00010000                1.76861258               -1.19470546               -4.38171767               -8.63850813               23.02168077              -26.75578469
              21.30816138               -0.75476493               63.91409583                0.00010000                2.49129085               -0.68311186               -6.54537374               -8.18667199               23.65989189              -30.94610963
              22.33675995               -2.30463427               63.56601778                0.00010000                3.42297991                0.15420879               -8.89245812               -6.34614369               27.95937724              -34.19149780
              23.37662098               -3.84086689               63.29302519                0.00127077                3.69514213                1.49622564              -12.29481883               -3.75637617               41.55866397              -35.26153109
              24.41066279               -5.36779555               63.21529220                0.09221949                2.90482416                4.00169355               -8.37901220               -1.34631536               28.01546510              -35.87849648
              25.43471746               -6.88524317               62.66526673                0.58290770                2.40546681                6.36619481               -9.39907963                0.08372863                4.82668188              -47.89017432
              16.77772311                9.39476368               66.23440899                0.63800595               -0.72094670               -1.27576513                3.63707868               -0.11461783                0.10649962                7.21428877
              17.77051364                7.91944700               65.56935434                0.09194399               -1.14189682               -0.15736386                1.16270689               -0.64329936                9.41199391               -6.96566269
              18.75488517                6.42968044               65.09080830                0.00010000               -1.52269292                0.03773444                2.12192667               -4.27033430               26.93123029              -16.01390549
              19.74005978                4.88574386               64.78080065                0.00010000               -0.78981076                0.14836988               -0.79834149               -7.55595702               34.56885924              -18.69579521
              20.73908895                3.34074569               64.45679576                0.00010000                0.54327321               -0.00511391               -3.35307630               -8.24510737               33.47505272              -21.94519439
              21.75092524                1.79308320               64.12771818                0.00010000                1.74131796                0.23595380               -5.99608959               -8.67358180               33.04362738              -25.75104538
              22.77391531                0.24539106               63.79815855                0.00010000                2.87835202                0.84894083               -8.84808507               -8.34001810               33.41145850              -30.08090061
              23.80849229               -1.29511494               63.47939480                0.00010000                4.02519402                1.87811135              -12.06544485               -6.91206451               35.22350750              -35.26803353
              24.85441919               -2.81885768               63.18798349                0.00365772                4.83341873                3.39144880              -15.06591523               -4.13682601               35.80371735              -44.76253331
              25.90516066               -4.31007150               62.88024925                0.09378915                4.81097384                6.87681559              -19.35725257               -0.77476876               22.21787247              -65.47233866
              26.95063867               -5.79448057               62.30828654                0.58321563                4.54780111                9.68029497              -20.36524005                2.07948142                9.90613804              -77.49693353
              18.24638657               10.38291706               66.06374599                0.63407303               -0.53389067               -1.10073982                3.17619671               -0.10971032                0.11517505                7.33726015
              19.24104766                8.91882004               65.32833481                0.08704916               -1.11269473                0.03808733                0.37350705               -1.14181898               13.03236701               -6.70417125
              20.22413267                7.43035148               64.85157313                0.00010000               -1.78714251                0.25600667                2.25962247               -5.00556356               35.77281907              -13.72974264
              21.20530481                5.89072173               64.57640098                0.00010000               -1.17925131                0.81087676               -1.12526181               -8.08261888               45.17575173              -17.09694252
              22.20054765                4.34713691               64.29037190                0.00010000                0.17561552                1.15517390               -4.26205145               -8.63929805               44.00523511              -20.35631037
              23.20881712                2.80280337               63.99480954                0.00010000                1.45057555                1.65333256               -7.45412038               -8.82918240               42.97750972              -24.03412872
              24.22955916                1.26221389               63.69202597                0.00010000                2.69751440                2.49996639              -10.94758474               -8.36818792               42.16378112              -28.43915265
              25.26276741               -0.26707204               63.38393076                0.00010000                3.96409263                3.77096346              -14.88929923               -6.85543644               41.18425554              -34.28295633
              26.30884101               -1.77303791               63.06397049                0.00701385                5.40114488                5.67315464              -19.66127770               -3.22551730               39.12562504              -42.67229607
              27.37079031               -3.23025924               62.71310724                0.09815405                6.81421171                8.51883893              -25.89364843                0.06497715               23.06071659              -51.84025108
              28.44512525               -4.69163727               62.06214555                0.58574690                7.43349379               10.46392112              -27.99761469                2.26799890                8.93545435              -65.57385462
              19.70372296               11.37274888               65.89459826                0.63048968               -0.34801170               -0.93859013                2.72419160               -0.10860644                0.11860050                7.41357591
              20.70024284                9.92020874               65.08921446                0.08216803               -1.04253759                0.24391014               -0.40821875               -1.56690431               17.37556554               -6.54137002
              21.68287221                8.43480057               64.62917503                0.00010000               -1.93104310                0.63184761                2.28065142               -5.57718502               45.50008991              -12.16764518
              22.66162198                6.90196140               64.39110496                0.00010000               -1.43254263                1.40025228               -1.49195772               -8.35715517               55.96072530              -15.16747779
              23.65422135                5.36384917               64.14298361                0.00010000               -0.11786801                2.06803495               -5.03168482               -8.78262802               54.65693150              -18.15863118
              24.65926462                3.82614985               63.88242376                0.00010000                1.11028074                2.87448785               -8.68974550               -8.68394889               53.09821779              -21.48137204
              25.67642697                2.29539039               63.60752252                0.00010000                2.36853681                3.99490155              -12.74873856               -7.88834608               51.29483420              -25.46485669
              26.70663535                0.78030433               63.31533067                0.00010000                3.83345386                5.51710721              -17.51119412               -5.92664573               49.14337035              -30.40492878
              27.75309604               -0.70539459               63.00033909                0.01040194                5.92121032                7.47496572              -23.39979641               -1.84732947               46.57365429              -36.14679003
              28.82505956               -2.13969472               62.65558894                0.10258188                8.28293309                9.50887879              -31.11406466                1.02879744               27.35570303              -41.66226872
              29.91875471               -3.58520215               61.94652078                0.58843233                9.36951458               10.89274990              -33.47369409                2.13102343               10.12137170              -54.23176335
              21.14929472               12.36414526               65.72614462                0.62655244               -0.16368330               -0.78621310                2.27413396               -0.10775309                0.12677405                7.41957684
              22.14765789               10.92369824               64.85126344                0.07723654               -0.92292037                0.45776279               -1.18391447               -1.93673772               22.40550348               -6.45003061
              23.13083632                9.44298844               64.42206442                0.00010000               -1.92723901                0.96913879                2.25970992               -5.97704189               56.16832436              -10.56590496
              24.10911311                7.91872677               64.22570577                0.00010000               -1.50648391                1.84558575               -1.79588217               -8.34341904               67.21827190              -12.99642210
              25.10070664                6.38849761               64.01963913                0.00010000               -0.27580958                2.70026253               -5.62060389               -8.52041691               65.77509045              -15.42036198
              26.10359692                4.86029313               63.79845453                0.00010000                0.84655608                3.76033226               -9.62801912               -8.05272364               63.79151274              -18.13548277
              27.11763776                3.34211192               63.55787028                0.00010000                2.07112805                5.13951921              -14.15614491               -6.86650187               61.39657153              -21.31960580
              28.14501948                1.84327010               63.29413670                0.00010000                3.71278531                6.83238533              -19.56056381               -4.59456920               58.73842655              -25.00959573
              29.19189347                0.37646140               63.00446290                0.01401758                6.30771682                8.67771128              -26.31408337               -0.51472844               56.21893322              -28.97723527
              30.27117382               -1.04008166               62.69040874                0.10722160                9.34335581               10.27885842              -35.06396036                1.70260392               32.88727245              -32.48445027
              31.37876058               -2.47378227               61.92391565                0.59108717               10.75867659               11.46816988              -37.52721642                1.96271040               11.38003523              -44.95794507
              22.58246194               13.35702462               65.55769272                0.62285379                0.02029694               -0.64058222                1.82780887               -0.10817643                0.13057104                7.34936972
              23.58266491               11.92936400               64.61369401                0.07237552               -0.70795552                0.67883761               -1.96212256               -2.29934583               28.18668145               -6.42004835
              24.56830283               10.45418334               64.23082690                0.00010000               -1.67102427                1.17948587                2.19899381               -6.21227983               67.93374838               -8.79250351
              25.54924443                8.93887311               64.08257766                0.00010000               -1.30280845                1.99916419               -1.99151421               -8.01419641               79.11922825              -10.46449124
              26.54224666                7.41785442               63.92476057                0.00010000               -0.23242959                2.95689038               -5.96357877               -7.75133660               77.54465279              -12.18122556
              27.54459583                5.90135649               63.74952304                0.00010000                0.69366463                4.24570246              -10.18590274               -6.87232700               75.23740210              -14.15051286
              28.55611996                4.39818078               63.55165395                0.00010000                1.78993252                5.85257328              -15.03162179               -5.39253040               72.48324597              -16.42739202
              29.58039448                2.91695203               63.32787814                0.00010000                3.50166429                7.69647096              -20.89915217               -3.06960597               69.59504432              -18.94315563
              30.62615324                1.46815963               63.07781965                0.01739651                6.44804144                9.50362813              -28.29598470                0.58359202               67.21717158              -21.47729221
              31.70935531                0.06588245               62.80811792                0.11165737                9.96284434               10.80285585              -37.72875507                2.04112989               39.03923964              -23.65162154
              32.82541013               -1.35583875               61.98364592                0.59350778               11.60548144               12.13702689              -40.21935259                1.63681689               12.57088098              -36.10251276
              24.00245244               14.35133362               65.38831932                0.61899679                0.20598077               -0.49956283                1.37525402               -0.11120831                0.16700463                7.29045901
              25.00451225               12.93727499               64.37596670                0.06769567               -0.26854201                0.90791818               -2.74296898               -2.75704592               34.83152107               -6.53705010
              25.99708160               11.46657815               64.05681297                0.00010000               -0.96770706                1.05583322                2.07311265               -6.36396396               80.97901654               -6.66020044
              26.98515811                9.95871006               63.96504414                0.00010000               -0.69425384                1.63842645               -2.04500358               -7.07659919               91.78751872               -7.47082627
              27.98319653                8.44763542               63.86253823                0.00010000                0.03329549                2.83625704               -6.00883064               -6.24736217               90.00898908               -8.47385498
              28.98582402                6.94520718               63.74038703                0.00010000                0.54975434                4.37293741              -10.27870680               -5.08798042               87.42275187               -9.69962766
              29.99419161                5.45916338               63.59347364                0.00010000                1.39122420                6.16285238              -15.25078015               -3.57072640               84.44322076              -11.11783402
              31.01364850                3.99719952               63.41966858                0.00010000                3.02216377                8.14399772              -21.36687704               -1.49077469               81.49449319              -12.59602680
              32.05463489                2.56653397               63.22088371                0.02123974                6.11731492               10.05332852              -29.16058808                1.37884233               79.20219756              -13.82985997
              33.13599480                1.17597545               63.00457124                0.11604539               10.01522204               11.10858966              -38.95342788                1.96283917               45.55104976              -14.61903946
              34.25493933               -0.23104173               62.12129477                0.59615727               11.89445275               12.61482141              -41.50241550                1.11615913               13.60137211              -27.09657004
              25.40835503               15.34703337               65.21909041                0.61505961                0.39244277               -0.35435388                0.92548613               -0.11224960               -0.12318703                6.34776276
              26.41227946               13.94752236               64.13557256                0.06302932                0.56167278                1.13655580               -3.54376160               -3.55256992               42.50097376               -5.90571687
              27.41958848               12.47530001               63.90433891                0.00010000                0.71878618               -0.22849968                1.88019435               -5.18925232               95.67690763               -3.75135924
              28.42665518               10.97164164               63.87751659                0.00010000                0.56069084                0.93958819               -1.94505219               -4.72012004              105.17599746               -3.95187655
              29.43080230                9.47457956               63.83673261                0.00010000                0.23265380                2.56076654               -5.73144830               -3.59742613              103.06590934               -4.36362793
              30.43130826                7.98881524               63.77425138                0.00010000                0.09553903                4.34311759               -9.84096331               -2.70657396              100.22972734               -4.93734769
              31.43271308                6.52143782               63.68550584                0.00010000                0.59500759                6.23582147              -14.68720497               -1.64159974               97.07696735               -5.60763334
              32.44320841                5.07983199               63.56953770                0.00010000                2.11205363                8.22403583              -20.75495751               -0.22450172               94.18543856               -6.26468710
              33.47495415                3.66922620               63.43183560                0.02505546                5.14896938               10.19724079              -28.64500294                1.47367366               92.23328142               -6.59421640
              34.54618780                2.28805424               63.28160756                0.12075387                9.34067636               11.14653740              -38.31097914                1.49209196               52.41805637               -5.87232780
              35.66176768                0.89645767               62.33704824                0.59874862               11.55798860               12.38258253              -40.94557213                0.35339806               14.10689177              -16.36026006
              26.79922946               16.34424654               65.03117246                0.80625013                0.59647497               -0.27868253                0.38051568                0.66339966                2.87937987                5.40318145
              27.80519421               14.96000611               63.90987752                0.53014364                3.49739079                1.24837454               -4.27555807               -4.82044381               52.61612379               -5.13556890
              28.86917727               13.46200816               63.78299652                0.46033320                4.31409757               -1.32918492                1.72738267               -4.16633525              111.36684150               -1.84137463
              29.89147616               11.97750182               63.82443907                0.44403485                1.24485651                0.58601787               -1.76018344               -1.67577276              118.86595867               -1.84003818
              30.89407440               10.49885075               63.85023722                0.43851019               -0.33209429                2.42711879               -5.15499551               -0.94440440              116.54038893               -2.02993154
              31.88483427                9.03206953               63.85302182                0.44257852               -1.18657658                4.32542855               -8.84586136               -0.39594485              113.51506779               -2.29069791
              32.87034287                7.58387981               63.82847803                0.45595959               -1.17320925                6.24419895              -13.24020161                0.24351460              110.16772628               -2.57829021
              33.86137009                6.16168024               63.77583945                0.47932174                0.27716159                8.18482503              -18.82907613                1.14611654              107.08577382               -2.81177727
              34.87588610                4.77047878               63.70151471                0.51390501                3.86175408               10.12525786              -26.28124745                1.95449323              105.52058816               -2.77344802
              35.93860517                3.39890620               63.62628401                0.56186848                8.46571623               11.08519578              -35.31219997                1.54829427               61.30123177               -1.00008537
              37.04520043                2.01660992               62.65862083                0.80021953               10.65952589               12.01522441              -37.75197326                0.11364644               18.01861493               -9.47494266
              12.76753093                6.68823157               67.82271071                0.85639677               -1.39676203               -1.56824828                5.32063851               -0.39441285               -4.20103914                4.70564501
              13.75356331                5.11143964               67.31358053                0.61205014               -1.33034046               -0.91897987                3.60737776               -0.40701927               -5.94294559               -3.41203097
              14.74092412                3.52838596               66.77036017                0.51120855               -1.18641704               -0.49925411                1.75032720               -0.46871761               -6.13771841               -0.62051318
              15.72983497                1.93051040               66.25826704                0.46592182               -0.87681404               -0.00778135               -0.00332610               -0.43082816               -3.87041092               -0.50008812
              16.72338784                0.31549963               65.76074592                0.44355412               -0.27389187                0.48206451               -1.80860447               -0.35156866               -2.52379680               -0.30342766
              17.72435713               -1.31378085               65.27525446                0.44225074                0.55445148                0.98518067               -3.65614962               -0.27022939               -1.68656705               -0.08497320
              18.73447687               -2.95005206               64.79358668                0.46223796                1.45188805                1.48422427               -5.50895181               -0.23415292               -1.77860479                0.14118244
              19.75339489               -4.58508424               64.30508578                0.50380815                2.24488022                1.96891159               -7.32052340               -0.23879125               -2.76597500                0.35459457
              20.77937447               -6.21304083               63.80234385                0.56839435                2.87034870                2.44257159               -9.09502159               -0.24790581               -4.46622003                0.44746873
              21.81080187               -7.83151203               63.27835133                0.65806425                3.36932174                2.90940914              -10.88349390               -0.25885547               -5.03512624                1.15668647
              22.84676091               -9.44096952               62.76255008                0.86528566                3.59590424                3.44357112              -12.63675997               -0.67176251               -4.53010294               -3.42200952
              14.34037873                7.67254908               67.61646106                0.67305326               -1.09628069               -1.58089190                4.66139458               -0.20640326                2.71993061                6.58268134
              15.32941592                6.10224984               67.10140895                0.15611385               -0.68385804               -0.70501039                2.95376074               -0.40927436                6.46303803               -6.22544132
              16.32670157                4.52339342               66.66176143                0.00010000                0.12769676                0.04647607                1.61197728               -1.60305569               10.48561056               -9.56135618
              17.33196985                2.93043259               66.22695836                0.00010000                0.76581069               -0.88193072                0.16440499               -3.06167026               11.50393225              -10.44439950
              18.34201778                1.32032027               65.80749335                0.00010000                1.12304126               -0.83315579               -1.29413002               -4.07287069               12.86555332              -12.37225189
              19.35443068               -0.30392904               65.39994045                0.00010000                1.28846266               -0.50937214               -2.79953109               -4.51760449               13.63109114              -14.82872310
              20.36778703               -1.93520981               64.99581343                0.00010000                1.40353434               -0.01617630               -4.29800314               -4.30424456               13.44553171              -17.34650253
              21.38250137               -3.56539512               64.58430433                0.00010000                1.61611395                0.56986003               -5.75653194               -3.43980108               12.32007199              -19.00954144
              22.40010931               -5.18861511               64.15705568                0.06622032                1.98381454                1.46177884               -7.16902928               -1.90950492               10.82362921              -16.71237428
              23.42217766               -6.80241794               63.71456130                0.19960083                2.46957325                2.63947980               -8.58911644               -0.67104850                7.90027716               -0.07665752
              24.44950078               -8.40653381               63.22734613                0.65366987                2.73231191                3.63816576              -10.14075543               -0.52433018                5.76013033               -9.63079770
              15.90400135                8.65661373               67.44858019                0.63176106               -0.94678605               -1.50298219                4.23451370               -0.13453745                0.18350794                7.97684553
              16.89453349                7.09733944               66.83339863                0.08607628               -1.16605413               -0.36995354                2.00712510               -0.39435133                7.97751815               -8.22768920
              17.88068026                5.52931548               66.37461415                0.00010000               -1.14293870                0.08503213                1.31629107               -4.00859578               19.75526063              -17.43237465
              18.87167471                3.91287179               65.99670021                0.00010000               -0.21941028               -1.04679193               -0.36176225               -7.32862154               23.46115046              -20.28789170
              19.87629206                2.29883651               65.61252855                0.00010000                0.89302083               -1.44026411               -2.41059284               -8.25432361               23.13802711              -24.32962318
              20.88953513                0.67603171               65.22913021                0.00010000                1.67829978               -1.27101150               -4.52684265               -8.97217875               23.17464330              -29.28644979
              21.90985805               -0.95037558               64.84737839                0.00010000                2.42345212               -0.76394002               -6.78389175               -8.58822762               23.63207293              -34.54785229
              22.93800417               -2.57368703               64.47504773                0.00010000                3.41745690                0.03127156               -9.27254114               -6.83308380               27.25124451              -39.09475085
              23.97820719               -4.18380525               64.16709239                0.00010000                3.86477108                1.32700876              -12.79883215               -3.99480625               43.69037586              -41.48536559
              25.01529959               -5.77872243               64.12433485                0.08058981                3.31494299                3.76866220              -10.07754037               -1.31210528               31.46850976              -44.00839163
              26.04450605               -7.36820620               63.56592166                0.57492966                2.92064589                6.10026868              -10.65994272                0.33649680                6.29725496              -56.20708861
              17.45623657                9.64248944               67.27127545                0.62749540               -0.74094281               -1.31774452                3.73636365               -0.11448538                0.11072207                7.55954295
              18.44882714                8.09485077               66.58113544                0.08039274               -1.26196339               -0.15356883                1.19526214               -1.02150030               11.18818966               -7.27424415
              19.43099730                6.52509406               66.11294570                0.00010000               -1.64753714               -0.25705566                2.17881056               -4.68272695               28.51815118              -15.41700735
              20.41587640                4.90949675               65.77281180                0.00010000               -0.86129555                0.02817174               -0.84382037               -7.62128468               34.43453028              -19.31327014
              21.41377139                3.29151499               65.42274553                0.00010000                0.41614017               -0.05597649               -3.47285529               -8.40945805               33.55205356              -23.45053286
              22.42419920                1.67065073               65.06670178                0.00010000                1.59849168                0.23047442               -6.20211288               -8.89813798               32.99051086              -28.16765001
              23.44574122                0.04951139               64.70788624                0.00010000                2.75350810                0.85979672               -9.18017006               -8.63097845               33.05193444              -33.52295572
              24.47926936               -1.56476969               64.35582728                0.00010000                3.97536807                1.87178672              -12.58909364               -7.23696646               34.71013344              -39.90309353
              25.52524858               -3.16207494               64.03243339                0.00010000                5.05335719                3.34621638              -15.97225118               -4.42959603               34.61616839              -50.55268081
              26.58033650               -4.72704469               63.67882954                0.08180408                5.49748383                6.37061410              -20.68600175               -0.96532464               22.00540454              -76.85861699
              27.63519826               -6.28452843               63.09508329                0.57522659                5.48617549                9.17302648              -22.12960940                2.07111230               11.45722650              -90.31077256
              18.99698897               10.63025884               67.09596211                0.62379615               -0.54901175               -1.13714685                3.26333353               -0.11194497                0.11740809                7.69849595
              19.99149886                9.09426806               66.33212379                0.07597683               -1.23046125                0.04523791                0.38608362               -1.62573260               15.41136992               -7.00705428
              20.97237975                7.52417437               65.87446676                0.00010000               -1.93353828                0.17068645                2.14322675               -5.43683465               37.95476839              -13.61019956
              21.95282809                5.91343522               65.56478597                0.00010000               -1.27154145                0.75277647               -1.27004330               -8.04096867               44.95157359              -17.68350946
              22.94694892                4.29771698               65.24693034                0.00010000                0.03739411                1.16475013               -4.45158053               -8.68489948               43.95947386              -21.74883353
              23.95357597                2.68064119               64.91887154                0.00010000                1.28549892                1.70943617               -7.72854594               -8.94901225               42.79233655              -26.27600173
              24.97265890                1.06682035               64.58028859                0.00010000                2.56375961                2.57897427              -11.36380909               -8.55779181               41.61743452              -31.65795196
              26.00485117               -0.53625130               64.23140096                0.00010000                3.96156877                3.84095612              -15.53759969               -7.11468374               39.98341004              -38.69431460
              27.05189027               -2.11688092               63.86154835                0.00011579                5.67977158                5.64029557              -20.64514000               -3.61126213               36.71811234              -49.04136235
              28.11844660               -3.65131015               63.44499878                0.08601351                7.45027551                8.26651840              -27.33345135               -0.18575573               21.90559835              -60.81766877
              29.20089578               -5.18474567               62.77027959                0.57767663                8.24491871               10.30237105              -30.03479841                2.24107225                9.71859213              -76.05651059
              20.52597923               11.61974650               66.92221725                0.62030532               -0.35822741               -0.96999433                2.79752493               -0.10986751                0.12189954                7.78066661
              21.52239695               10.09575553               66.08509002                0.07100383               -1.14428930                0.25551348               -0.41416111               -2.08280733               20.27694286               -6.83821316
              22.50309344                8.52850779               65.65126831                0.00010000               -2.04412721                0.66102996                1.94623718               -6.01419767               48.23371159              -12.09880922
              23.48151441                6.92455228               65.37530809                0.00010000               -1.51130089                1.42924781               -1.75951827               -8.23931369               55.78298171              -15.73141846
              24.47286742                5.31480999               65.09148694                0.00010000               -0.26994133                2.14010571               -5.30116735               -8.73450935               54.62710238              -19.40050632
              25.47611558                3.70483945               64.79379789                0.00010000                0.93052276                2.98935467               -9.03244009               -8.72321010               52.87256780              -23.49863759
              26.49147788                2.10109087               64.47736068                0.00010000                2.22806897                4.13693819              -13.24109993               -8.03298259               50.56986496              -28.40976771
              27.52067696                0.51204943               64.13597595                0.00010000                3.83021543                5.65592180              -18.25508231               -6.22231425               47.53134245              -34.56216365
              28.56808219               -1.04926903               63.75945571                0.00327576                6.19045887                7.56823527              -24.54322521               -2.38013039               43.40826423              -41.93291627
              29.64448614               -2.56171432               63.33259948                0.09023031                8.94042837                9.58145304              -32.93842419                0.71378688               25.83535972              -49.80688420
              30.74689076               -4.07848101               62.59658073                0.58023627               10.24046157               11.05598002              -36.04031053                2.24728484               11.07158835              -63.36763700
              22.04277357               12.61085895               66.74921499                0.61672545               -0.16921479               -0.81226648                2.33755656               -0.10944886                0.13157101                7.79097979
              23.04108142               11.09937833               65.83927169                0.06665882               -0.97372598                0.47343060               -1.21123455               -2.44558577               25.79607767               -6.74632538
              24.02329905                9.53739497               65.44272948                0.00010000               -1.96709021                1.07313927                1.66758675               -6.35323605               59.48260688              -10.50758795
              25.00173962                7.94202018               65.20624903                0.00010000               -1.56637435                1.95676102               -2.19612554               -8.18370565               67.19937916              -13.46190701
              25.99197156                6.34051910               64.96188245                0.00010000               -0.44543617                2.84065170               -5.97171110               -8.41299404               65.87678743              -16.46320937
              26.99283089                4.74042829               64.70014824                0.00010000                0.64088500                3.93775730              -10.03407925               -8.04387584               63.62897588              -19.86758201
              28.00478926                3.14955912               64.41328767                0.00010000                1.89669426                5.35444618              -14.71567932               -6.99308014               60.61760014              -23.90876002
              29.03076478                1.57686714               64.09368284                0.00010000                3.66310808                7.08441089              -20.40958447               -4.91788761               56.89172605              -28.70928826
              30.07805142                0.03448378               63.73317727                0.00658185                6.55847722                8.98312546              -27.68238278               -1.09116602               52.54796708              -34.17114156
              31.16193432               -1.45968109               63.32431649                0.09466736               10.06617190               10.71264710              -37.49142901                1.41305632               31.23866086              -39.74031865
              32.27937486               -2.96362607               62.52958258                0.58255656               11.74405390               12.00996627              -40.76393541                2.17483320               12.70502313              -53.02164242
              23.54675150               13.60350117               66.57624121                0.61315451                0.01977209               -0.66249952                1.87864608               -0.11028694                0.13413770                7.71960852
              24.54694922               12.10522414               65.59381687                0.06194728               -0.66823145                0.69974694               -2.00911293               -2.76931272               32.03962054               -6.71998379
              25.53338687               10.54997058               65.24951545                0.00010000               -1.61165257                1.35756305                1.32559841               -6.53265635               71.88457163               -8.75660023
              26.51471617                8.96368750               65.06050253                0.00010000               -1.35937191                2.18851144               -2.52380942               -7.84062171               79.39879597              -10.79244658
              27.50619943                7.37162303               64.86322499                0.00010000               -0.42590616                3.16611710               -6.39203402               -7.62070719               77.90739344              -12.97140823
              28.50619805                5.78359460               64.64540929                0.00010000                0.44889979                4.48923229              -10.64467309               -6.83879098               75.27358576              -15.52466590
              29.51517743                4.20817980               64.39806228                0.00010000                1.55982496                6.14789356              -15.64585616               -5.49491798               71.80038904              -18.54616513
              30.53739455                2.65373765               64.11354302                0.00010000                3.38148312                8.07902556              -21.84695703               -3.35655905               67.67893161              -22.04679680
              31.58280709                1.13039348               63.78542345                0.00993523                6.67312880               10.03717257              -29.90436035                0.10168229               63.28234740              -25.91263506
              32.67085712               -0.34746138               63.41175047                0.09877412               10.77351503               11.59176936              -40.88196586                1.86801737               37.47054894              -29.86201715
              33.79827739               -1.83828169               62.55895625                0.58505088               12.74202703               13.05310234              -44.21509360                1.93359791               14.41475624              -43.04654792
              25.03712189               14.59760896               66.40228406                0.60948350                0.21038706               -0.51669530                1.41462029               -0.11279321                0.17500664                7.65997359
              26.03922576               13.11337327               65.34817617                0.05740251               -0.14696622                0.93373842               -2.81124542               -3.15116268               39.11958935               -6.85084177
              27.03418257               11.56454623               65.07287313                0.00010000               -0.79755145                1.30981816                0.94506933               -6.60564864               85.61893395               -6.66382237
              28.02327473                9.98579041               64.94176935                0.00010000               -0.72661226                1.90153344               -2.70681631               -6.91603095               92.53299885               -7.63497496
              29.01965032                8.40384144               64.80028187                0.00010000               -0.18882136                3.11191535               -6.49997202               -6.12586721               90.79395535               -8.97679071
              30.01949831                6.83021293               64.63523168                0.00010000                0.25487621                4.67757510              -10.77157498               -5.04991514               87.84192746              -10.64407298
              31.02474785                5.27251699               64.43760478                0.00010000                1.09608019                6.53001189              -15.89475992               -3.63887256               84.06419186              -12.63771409
              32.04141991                3.73844765               64.20041197                0.00010000                2.82681283                8.63156599              -22.37620344               -1.68245265               79.74271444              -14.90656559
              33.08128410                2.23522723               63.91903714                0.01346166                6.32749661               10.77483825              -30.96234462                1.08749563               75.27388056              -17.24141021
              34.16796984                0.77215430               63.59232814                0.10316140               10.92016658               12.20181632              -42.77936116                1.92529153               44.20948882              -19.39117607
              35.29968743               -0.70256403               62.68023003                0.58751074               13.17175921               13.88874849              -46.14496519                1.40225494               15.96412219              -32.60956865
              26.51296703               15.59316727               66.22850012                0.60584750                0.40216717               -0.36555309                0.95330012               -0.11496486               -0.13149009                6.67233991
              27.51698870               14.12389891               65.09965179                0.05342561                0.79448659                1.16684857               -3.63515954               -3.83712086               47.19522093               -6.19885949
              28.52885676               12.57616694               64.91714978                0.00010000                1.00558223                0.09442119                0.54158210               -5.28600177              101.05958257               -3.72872793
              29.53710034               11.00171817               64.85478086                0.00010000                0.52014014                1.27580423               -2.69995361               -4.60370548              106.57688310               -3.97967455
              30.53925956                9.43386134               64.77713693                0.00010000               -0.02880741                2.88537232               -6.25588204               -3.52103222              104.47763124               -4.58750030
              31.53652420                7.87714610               64.67353342                0.00010000               -0.25471484                4.69169637              -10.33898605               -2.68289960              101.29625904               -5.40564777
              32.53416527                6.33878003               64.53543320                0.00010000                0.22555266                6.65300646              -15.32266532               -1.67577873               97.32882092               -6.39855614
              33.54103525                4.82636897               64.35660060                0.00010000                1.83425436                8.77677362              -21.75874388               -0.30343975               92.96598511               -7.51941890
              34.57085035                3.34589025               64.13516516                0.01721825                5.30594821               11.00799383              -30.49143614                1.38964384               88.78899209               -8.57096755
              35.64715421                1.89657495               63.87394117                0.10728174               10.24543959               12.48019983              -42.62583373                1.52951906               51.66983168               -8.56222248
              36.77575914                0.43949328               62.90028628                0.58990392               12.86049315               13.89670498              -45.98083299                0.50861869               17.13285326              -19.63092669
              27.97335931               16.59029790               66.03505693                0.80166672                0.61243644               -0.28693679                0.39197790                0.68046171                3.02656518                5.68215994
              28.97948367               15.13671024               64.86651507                0.52523900                3.86419845                1.28113262               -4.38832410               -4.94366506               57.82683233               -5.39877298
              30.05064328               13.56643465               64.79367489                0.45921777                4.70112795               -0.97322869                0.30533753               -4.09153569              117.51843018               -1.79570478
              31.07350623               12.01130649               64.80354318                0.44379500                1.15792359                0.95883235               -2.51757432               -1.60369983              121.08657408               -1.86397743
              32.07380175               10.46154889               64.79653248                0.43858617               -0.62923075                2.76875502               -5.66331528               -0.90876292              118.86456008               -2.16463271
              33.06092161                8.92404686               64.76253277                0.44226040               -1.58961754                4.69007640               -9.31121516               -0.35884643              115.59417699               -2.56392351
              34.04200940                7.40557712               64.69334681                0.45502165               -1.63403577                6.67970834              -13.82030395                0.28122607              111.54831760               -3.03438248
              35.02824090                5.91398312               64.58296340                0.47714654               -0.15691956                8.76141477              -19.74049221                1.21106473              107.08164815               -3.53459812
              36.03887101                4.45538711               64.42966569                0.50987804                3.83581453               10.94968606              -27.96132352                2.19082416              103.41816728               -3.96923116
              37.10495719                3.02175830               64.25029241                0.55522122                9.25760647               12.51833507              -39.57680548                1.77944590               61.73269535               -2.58388834
              38.22402313                1.57537007               63.25655103                0.79576504               11.90659449               13.58767908              -42.58782686                0.18757674               22.10837778              -11.43317730
              13.24237600                6.94569984               68.87661327                0.84889624               -1.43393638               -1.60906127                5.45872679               -0.40638002               -4.37145909                4.87993104
              14.22803664                5.29199267               68.35010989                0.60252036               -1.37290595               -0.94075651                3.69799183               -0.42996754               -6.18463745               -3.56747565
              15.21491788                3.63160533               67.78807478                0.50749966               -1.21948769               -0.51282952                1.79399984               -0.47487556               -6.39973213               -0.59250888
              16.20364689                1.95595644               67.25821687                0.46450090               -0.87853446               -0.00496928               -0.00519028               -0.43168281               -4.10634377               -0.50295149
              17.19734720                0.26314105               66.74241093                0.44325404               -0.24551008                0.49913749               -1.85474288               -0.35373461               -2.81043416               -0.30078616
              18.19873668               -1.44362853               66.23822192                0.44206700                0.60325495                1.01556279               -3.74662880               -0.27880650               -2.00388643               -0.08893972
              19.20941229               -3.15694778               65.73778610                0.46115170                1.51202710                1.52793190               -5.64215126               -0.24297539               -2.08359791                0.13777211
              20.22897723               -4.86861734               65.23095321                0.50028674                2.31366111                2.02654447               -7.50149643               -0.24892367               -3.03581587                0.34727013
              21.25568552               -6.57291657               64.71021736                0.56154126                2.94709351                2.51383493               -9.32277560               -0.25635101               -4.72883214                0.44634020
              22.28791910               -8.26757543               64.16805724                0.64624602                3.45566633                2.99533847              -11.15926389               -0.26530298               -5.29152941                1.16835705
              23.32479884               -9.95323599               63.63444939                0.85727825                3.68797465                3.54439829              -12.96308087               -0.67575960               -4.77519338               -3.56494743
              14.89201937                7.92960922               68.66367706                0.66019330               -1.12351534               -1.62724731                4.78123552               -0.21727033                2.89208217                6.87779744
              15.88078422                6.28258510               68.13131426                0.14078586               -0.69160650               -0.71528180                3.02707338               -0.44110105                6.82062602               -6.52793868
              16.87818724                4.62647703               67.67804750                0.00010000                0.13889886               -0.09201482                1.64238647               -1.69781904               10.97462033               -9.57490268
              17.88356220                2.95590675               67.22852831                0.00010000                0.77075465               -0.99066944                0.15061916               -3.15968378               11.93299795              -10.79329965
              18.89360234                1.26813243               66.79425268                0.00010000                1.12154195               -0.88732547               -1.35456793               -4.18035863               13.26806803              -13.18816228
              19.90599303               -0.43347290               66.37141005                0.00010000                1.29373045               -0.53887491               -2.90521428               -4.64802067               14.01155465              -16.13119024
              20.91947694               -2.14166846               65.95205173                0.00010000                1.42396758               -0.04235047               -4.45282507               -4.47029821               13.84458498              -19.21267433
              21.93447239               -3.84835189               65.52572213                0.00010000                1.65620536                0.52825492               -5.95786462               -3.65080740               12.76129127              -21.59172048
              22.95260105               -5.54777822               65.08411020                0.05571127                2.04766951                1.34823300               -7.41975623               -2.19071467               11.28148446              -20.53043096
              23.97542578               -7.23762204               64.62713474                0.18162239                2.55503799                2.76719041               -8.88598327               -0.83645822                8.28727849               -2.37125738
              25.00370181               -8.91779201               64.12415419                0.64163414                2.82760346                3.80569485              -10.48586278               -0.38249166                6.08054524              -11.55807854
              16.53207884                8.91315489               68.49149869                0.62115546               -0.97320292               -1.55183011                4.34477752               -0.13687671                0.16482090                8.35478684
              17.52234681                7.27768703               67.85373734                0.07444037               -1.22194906               -0.36740769                2.06092225               -0.57834504                8.77211702               -8.60971031
              18.50763986                5.62976503               67.38862557                0.00010000               -1.17744969               -0.24946766                1.47149658               -4.30796909               20.81096393              -17.10819218
              19.49879782                3.93614305               66.99298465                0.00010000               -0.22600920               -1.22570237               -0.40503555               -7.44910587               23.85974520              -20.97043111
              20.50311967                2.24539454               66.58802129                0.00010000                0.83896709               -1.53995956               -2.49956800               -8.39556841               23.38385470              -25.92563807
              21.51557716                0.54559397               66.18314972                0.00010000                1.58828236               -1.32691151               -4.66760603               -9.17938075               23.32335023              -31.83236699
              22.53488532               -1.15779479               65.77841800                0.00010000                2.32468419               -0.81548941               -6.99540732               -8.86473291               23.56937722              -38.18778568
              23.56207084               -2.85805224               65.38056696                0.00010000                3.31280262               -0.05890770               -9.59302065               -7.22408556               26.50666826              -44.08256907
              24.60114137               -4.54595191               65.03704855                0.00010000                3.95664383                1.17054794              -13.16781560               -4.15200601               45.04561343              -47.91162846
              25.64120372               -6.21223162               65.01374139                0.06871835                3.81737841                3.48571367              -12.40201969               -1.19885504               34.41055273              -52.50656844
              26.67748894               -7.87712209               64.45206787                0.56709115                3.62852232                5.63690252              -12.43741381                0.68964701                8.33954947              -65.11677802
              18.16021755                9.89857262               68.30913626                0.61708770               -0.76103780               -1.36048527                3.83166585               -0.11694090                0.11308917                7.91246462
              19.15260718                8.27523695               67.59325958                0.06894343               -1.33228576               -0.14813266                1.23038660               -1.43306693               12.94376115               -7.58663346
              20.13357184                6.62148768               67.13438451                0.00010000               -1.68283047               -0.49700705                1.97614131               -5.04591212               30.14242134              -14.96612948
              21.11895057                4.93139270               66.76392424                0.00010000               -0.86658955               -0.07939000               -0.97629603               -7.55397799               34.34406130              -19.97249622
              22.11624005                3.23733324               66.38733865                0.00010000                0.33220919               -0.09878616               -3.62576303               -8.44359740               33.65117799              -24.97251597
              23.12559475                1.53998887               66.00367592                0.00010000                1.47942244                0.22966230               -6.40059233               -8.97915159               32.93679678              -30.59838614
              24.14582850               -0.15797825               65.61455515                0.00010000                2.62765243                0.86875961               -9.46097259               -8.75129033               32.65148172              -36.98413956
              25.17814780               -1.84953005               65.22761293                0.00010000                3.89559072                1.84726204              -13.00011500               -7.36420051               34.02476094              -44.56149694
              26.22374031               -3.52436726               64.86853846                0.00010000                5.22355295                3.25322182              -16.73111622               -4.49568296               33.21519009              -56.40990928
              27.28261886               -5.16790777               64.46652921                0.07027226                6.17676954                5.59245282              -21.59740125               -1.08596887               21.48709856              -87.56367771
              28.34727570               -6.80505396               63.86569435                0.56747593                6.46568437                8.14285839              -23.65186819                1.85770760               12.50109716             -103.02013374
              19.77641136               10.88594518               68.12901266                0.61368564               -0.56409528               -1.17316450                3.34489240               -0.11218778                0.11969091                8.06898746
              20.77077041                9.27472438               67.33605649                0.06463362               -1.29227514                0.05298152                0.40268197               -2.09984156               17.67187381               -7.31312831
              21.75056586                7.61982489               66.89443766                0.00010000               -1.94488567                0.15369887                1.70132674               -5.82062981               40.12499671              -13.60518299
              22.73187270                5.93455525               66.55100012                0.00010000               -1.24571517                0.72386347               -1.55080051               -7.91468298               44.85235339              -18.32656489
              23.72565156                4.24341882               66.20134029                0.00010000               -0.02835449                1.17768459               -4.69017478               -8.61672448               43.97189383              -23.15982986
              24.73130561                2.55018722               65.84023862                0.00010000                1.18634346                1.74557613               -7.99553206               -8.92954643               42.62258664              -28.52312666
              25.74937843                0.85958041               65.46474979                0.00010000                2.49351189                2.60871015              -11.70989406               -8.57382486               41.03487108              -34.87113009
              26.78117585               -0.82110700               65.07317877                0.00010000                4.01135040                3.81546087              -16.02412093               -7.17242518               38.69368439              -43.08312345
              27.82960544               -2.48088747               64.65106769                0.00010000                5.94975939                5.43427138              -21.27772484               -3.91890401               34.19411929              -55.27931646
              28.90017103               -4.10038256               64.16643822                0.07437471                7.96650171                7.63788291              -27.94545602               -0.56772870               20.40660139              -69.56169319
              29.98893547               -5.71426492               63.46144958                0.56982088                8.87644356                9.65980379              -31.19963663                1.85917744                9.89829917              -86.45475971
              21.38041541               11.87510933               67.95054876                0.61031160               -0.36847715               -1.00021447                2.86622757               -0.11120594                0.12609414                8.15976399
              22.37673064               10.27629658               67.08093124                0.06011961               -1.15435210                0.26602494               -0.41527224               -2.56265662               22.95528201               -7.13906075
              23.35732837                8.62456166               66.66809977                0.00010000               -1.98338306                0.73823215                1.25790699               -6.37406776               50.91253796              -12.17510423
              24.33706298                6.94586997               66.35591459                0.00010000               -1.45273875                1.48694703               -2.18359771               -8.07998514               55.79894446              -16.34859271
              25.32827359                5.26088693               66.03696026                0.00010000               -0.31103702                2.20382786               -5.63489845               -8.61389826               54.69303628              -20.65760562
              26.33084224                3.57490039               65.70177496                0.00010000                0.86863111                3.05714348               -9.37115438               -8.66126789               52.68362060              -25.51214052
              27.34564621                1.89419596               65.34270052                0.00010000                2.21624690                4.18273578              -13.64983096               -8.05222404               49.83253501              -31.33249560
              28.37516717                0.22677917               64.95022903                0.00010000                3.94957898                5.63121283              -18.78255591               -6.40446185               45.84670801              -38.66985556
              29.42463779               -1.41568183               64.50947459                0.00010000                6.47372799                7.39791547              -25.20383925               -2.96577794               40.08036496              -47.66725784
              30.50464173               -3.01515011               63.99682046                0.07831046                9.37930916                9.31717698              -33.61344006                0.15973209               23.85964739              -57.94151599
              31.61222398               -4.61185788               63.22571457                0.57216470               10.75822432               10.88371453              -37.43032684                1.99889265               11.28571738              -72.67994477
              22.97181275               12.86594089               67.77289575                0.60696799               -0.17477960               -0.83808013                2.39519056               -0.11070346                0.13477728                8.17359991
              23.97006495               11.28004488               66.82703875                0.05603458               -0.91508173                0.48816320               -1.23145446               -2.89494584               28.84090330               -7.04719168
              24.95351111                9.63458953               66.45541616                0.00010000               -1.80586145                1.21730187                0.73143437               -6.68852213               62.66911937              -10.63382952
              25.93394772                7.96429419               66.18178326                0.00010000               -1.45839706                2.08169442               -2.76262968               -8.03231610               67.44887338              -13.97805686
              26.92434317                6.28749538               65.90020490                0.00010000               -0.45882508                2.95699540               -6.39987044               -8.28749662               66.10921885              -17.52249976
              27.92477122                4.61133009               65.59777295                0.00010000                0.60559962                4.04396719              -10.44392712               -7.99361180               63.52816128              -21.59094260
              28.93645517                2.94323512               65.26355669                0.00010000                1.90965891                5.43722006              -15.18644440               -7.07325190               59.84417082              -26.46713312
              29.96296440                1.29151726               64.88594502                0.00010000                3.78819962                7.12538992              -21.00891993               -5.23597560               54.95451191              -32.36592479
              31.01221916               -0.33292916               64.45081525                0.00010000                6.82886605                8.98644487              -28.47892411               -1.83006645               48.58550781              -39.36447389
              32.09954172               -1.91403902               63.94058016                0.08222666               10.50548532               10.78902853              -38.52253204                0.84651450               29.01860048              -47.25074254
              33.22232886               -3.49659063               63.10863694                0.57444281               12.27871430               12.22203593              -42.65819202                2.09832462               13.25324659              -61.56002022
              24.54999338               13.85834773               67.59526564                0.60360604                0.01897066               -0.68333566                1.92417944               -0.11100841                0.13911528                8.10136018
              25.55018308               12.28605984               66.57351175                0.05195219               -0.53423837                0.71891782               -2.04872940               -3.15950109               35.41726054               -7.02569109
              26.53930861               10.64890769               66.25733887                0.00010000               -1.33361357                1.55389194                0.15605720               -6.80999995               75.59437874               -8.91076533
              27.52351081                8.98750386               66.03210147                0.00010000               -1.19104212                2.37190163               -3.22675336               -7.72096177               80.02588973              -11.18567845
              28.51548777                7.32002684               65.79691989                0.00010000               -0.41402768                3.33461411               -6.91008530               -7.52269982               78.43701245              -13.78480926
              29.51523026                5.65577973               65.53662958                0.00010000                0.42531198                4.64357507              -11.12158300               -6.82590230               75.40063640              -16.89025589
              30.52399401                4.00294036               65.23873682                0.00010000                1.56908454                6.29015322              -16.17967130               -5.63263810               71.13964883              -20.63224214
              31.54661195                2.36928697               64.89093900                0.00010000                3.47993704                8.22466858              -22.53790944               -3.73936285               65.65285644              -25.11323432
              32.59359275                0.76404706               64.47973245                0.00250422                6.93107729               10.24466092              -30.89460362               -0.63396685               58.84052442              -30.38971516
              33.68523349               -0.79936954               63.99047860                0.08629705               11.28504746               12.00001239              -42.48148557                1.39928702               35.13171530              -36.49322014
              34.81929370               -2.36741716               63.09934405                0.57676536               13.40602016               13.60137459              -46.82271967                1.99969382               15.42258535              -50.62165658
              26.11416835               14.85227418               67.41661173                0.60007248                0.21466139               -0.53202199                1.44753216               -0.11366970                0.18304591                8.04261815
              27.11631497               13.29442323               66.31974179                0.04742562                0.08493738                0.95732132               -2.87115010               -3.46278410               42.82918455               -7.17291227
              28.11586710               11.66566737               66.07571436                0.00010000               -0.39528093                1.55079981               -0.42495353               -6.81742728               89.94938692               -6.83407686
              29.10840935               10.01173223               65.91090781                0.00010000               -0.51268986                2.13852311               -3.52933758               -6.83924115               93.70261891               -7.88563222
              30.10561330                8.35418766               65.73253879                0.00010000               -0.15348459                3.32760545               -7.09711567               -6.07080180               91.79118311               -9.50963402
              31.10533965                6.70420159               65.52495553                0.00010000                0.23409332                4.88107320              -11.30646965               -5.07212810               88.38518407              -11.58312018
              32.11029517                5.06903819               65.27557844                0.00010000                1.08653918                6.73921565              -16.48467093               -3.79813224               83.73265862              -14.12732973
              33.12707044                3.45601063               64.97214451                0.00010000                2.89505811                8.88026035              -23.15378496               -2.04449648               77.86059114              -17.18166771
              34.16819633                1.87196405               64.60163682                0.00574695                6.59606240               11.15656210              -32.16576084                0.48756375               70.66210945              -20.69888335
              35.25899169                0.32596123               64.14898401                0.09034564               11.51108284               12.91075297              -44.96549172                1.63513068               42.00495098              -24.66484008
              36.39841799               -1.22456314               63.19839546                0.57910131               13.94263003               14.74676523              -49.36079038                1.56960477               17.59337289              -38.77173317
              27.66342188               15.84770729               67.23815641                0.59688912                0.41123313               -0.37490352                0.97365965               -0.11629533               -0.14113881                7.00510098
              28.66753421               14.30520627               66.06286937                0.04363118                1.11145958                1.19404283               -3.71516380               -4.04928329               51.24728509               -6.49714571
              29.68565107               12.67992369               65.91517055                0.00010000                1.53357455                0.36882408               -0.95087641               -5.41406398              106.12195150               -3.83151567
              30.69820570               11.03027432               65.82351751                0.00010000                0.79756485                1.54827002               -3.61060541               -4.57020185              108.47357281               -4.08003920
              31.70160237                9.38657895               65.71161497                0.00010000                0.03657345                3.12896664               -6.90755106               -3.50552037              106.14514169               -4.83517276
              32.69893717                7.75340120               65.56747166                0.00010000               -0.26900239                4.92953813              -10.91543840               -2.71452265              102.51726332               -5.87132349
              33.69622232                6.13772467               65.37905253                0.00010000                0.19294902                6.91633702              -15.95525684               -1.79627951               97.66063246               -7.16790149
              34.70279615                4.54689218               65.13436282                0.00010000                1.85855535                9.11260253              -22.59971511               -0.54663120               91.64645276               -8.74828532
              35.73339343                2.98717830               64.82200688                0.00941242                5.58335767               11.50645231              -31.84015689                1.03387264               84.48619979              -10.53445671
              36.81446330                1.45884552               64.42909088                0.09458340               10.91705510               13.42823674              -45.40428760                1.38609441               49.96427484              -11.73345831
              37.95173453               -0.07248186               63.41743158                0.58139632               13.72712246               14.99900131              -49.71823699                0.68890040               19.61052939              -23.53334527
              29.19684448               16.84477611               67.03901202                0.79729382                0.62684143               -0.29311772                0.39603444                0.69505839                3.17813681                5.96465557
              30.20311290               15.31830409               65.82211104                0.52063801                4.28366418                1.30978207               -4.48589613               -5.02874405               62.38729182               -5.66350605
              31.28251777               13.67304385               65.78910327                0.45812606                5.36185788               -0.68798366               -1.20709833               -4.09365342              123.39129979               -1.88548118
              32.31035005               12.04269763               65.77408759                0.44356059                1.49291253                1.24233049               -3.43652025               -1.59940761              123.83045665               -1.95387149
              33.31237602               10.41676699               65.73697091                0.43857638               -0.52232892                3.01880471               -6.32193770               -0.91789864              121.44703177               -2.33133010
              34.29990348                8.80279235               65.66679752                0.44217352               -1.57487091                4.93911535               -9.90471611               -0.37347260              117.83613422               -2.85342547
              35.28087860                7.20736493               65.55207196                0.45414925               -1.66096480                6.96402550              -14.48354737                0.23914455              113.03710809               -3.50061415
              36.26668418                5.63826268               65.38102961                0.47515487               -0.19790798                9.13705045              -20.62711794                1.12521181              107.07018081               -4.28249967
              37.27692044                4.10209310               65.14228824                0.50603329                3.98447781               11.49147953              -29.36033657                2.16586538              100.45208867               -5.18738374
              38.34637374                2.59452596               64.83474790                0.54856738                9.89651556               13.56804407              -42.63258953                1.85723258               61.31395038               -4.69348396
              39.47485075                1.07541688               63.80686429                0.79139931               12.84770140               14.78987413              -46.45038805                0.40071458               25.94349576              -14.07812355
              13.73310852                7.21170262               69.93188524                0.84167321               -1.46994603               -1.64829984                5.59192051               -0.41837628               -4.54233133                5.05408245
              14.71840906                5.47768140               69.38754036                0.59357140               -1.41430104               -0.96177801                3.78449519               -0.45072033               -6.42443200               -3.72339720
              15.70482249                3.73659033               68.80624016                0.50362815               -1.25185577               -0.52457528                1.83777454               -0.47690330               -6.65755770               -0.56493064
              16.69337194                1.97982849               68.25816324                0.46322685               -0.88241955               -0.00296763               -0.00357391               -0.43422616               -4.33914500               -0.50234910
              17.68717410                0.20580041               67.72365106                0.44314582               -0.22338516                0.51462521               -1.89342989               -0.35588909               -3.09307893               -0.29857139
              18.68890424               -1.58193589               67.20032189                0.44195943                0.64497629                1.04552475               -3.82606720               -0.28556619               -2.31450257               -0.08919175
              19.70007363               -3.37582788               66.68074365                0.45957223                1.56715354                1.57326792               -5.76906312               -0.25773676               -2.38613203                0.12958434
              20.72024731               -5.16767667               66.15505585                0.49693738                2.38100846                2.08333939               -7.67525552               -0.26144953               -3.30715793                0.34041438
              21.74769380               -6.95189970               65.61588834                0.55439486                3.02459704                2.58447801               -9.54290400               -0.26790246               -4.98834302                0.43872837
              22.78073925               -8.72629989               65.05516605                0.63452709                3.53894652                3.07726584              -11.42001012               -0.27491919               -5.54463866                1.17600671
              23.81847273              -10.49167806               64.50328846                0.84940091                3.77334809                3.63641986              -13.26361447               -0.67781045               -5.01750281               -3.70872997
              15.46294597                8.19521962               69.71208577                0.64798170               -1.14879801               -1.67261771                4.89489191               -0.23000354                3.06550803                7.17592895
              16.45145799                6.46806362               69.16195041                0.12595196               -0.69830296               -0.72407477                3.09650972               -0.47175730                7.18098315               -6.83030854
              17.44897992                4.73134458               68.69460916                0.00010000                0.14833225               -0.28878502                1.66765992               -1.77175325               11.46718703               -9.52276534
              18.45442464                2.97979881               68.22997074                0.00010000                0.77587445               -1.08806275                0.13873585               -3.21479854               12.36410112              -11.15898644
              19.46449740                1.21094666               67.78040199                0.00010000                1.12190406               -0.92813189               -1.41316615               -4.23247393               13.66773496              -14.01403141
              20.47686272               -0.57148064               67.34183617                0.00010000                1.29346244               -0.54728086               -3.00633841               -4.71703350               14.38961514              -17.43929083
              21.49036665               -2.36009520               66.90675692                0.00010000                1.44030004               -0.04034167               -4.60676860               -4.58039523               14.24586759              -21.09214387
              22.50566872               -4.14684328               66.46514704                0.00010000                1.69798658                0.52237283               -6.15892328               -3.83500202               13.20343378              -24.20526553
              23.52432638               -5.92605492               66.00866056                0.04529963                2.11052584                1.27168055               -7.67069477               -2.52163648               11.74309189              -24.37610493
              24.54787924               -7.69552724               65.53684164                0.16380909                2.63732018                2.90258116               -9.17556800               -1.07534362                8.67839359               -5.85329694
              25.57707279               -9.45531386               65.01762888                0.62980786                2.91935504                3.97980678              -10.81411484               -0.17009505                6.39855825              -14.35671095
              17.18282045                9.17825026               69.53547574                0.61070846               -0.99715034               -1.59974317                4.44546810               -0.13974978                0.14434034                8.73752609
              18.17284895                7.46319990               68.87461707                0.06308511               -1.25841094               -0.36323278                2.11315283               -0.82197566                9.63565912               -8.99096524
              19.15765223                5.73081463               68.40404408                0.00010000               -1.16875310               -0.56926023                1.57164274               -4.54657572               21.86391914              -16.92961398
              20.14947389                3.95806724               67.98859950                0.00010000               -0.19240742               -1.38837263               -0.49308876               -7.40990102               24.18705103              -21.68824182
              21.15380408                2.18723777               67.56253719                0.00010000                0.80657723               -1.61004922               -2.60696351               -8.42014422               23.63640820              -27.54137753
              22.16560543                0.40711849               67.13577809                0.00010000                1.50121383               -1.34626274               -4.80630307               -9.25082823               23.46760351              -34.39135755
              23.18382836               -1.37663471               66.70747024                0.00010000                2.19507766               -0.82039992               -7.18021252               -8.99402550               23.48180797              -41.84415994
              24.20950698               -3.15722922               66.28318731                0.00010000                3.10583325               -0.08840780               -9.85871574               -7.48594164               25.75343272              -49.10651117
              25.24594503               -4.92646608               65.90373608                0.00010000                3.94921683                1.08813276              -13.46530756               -4.23546705               45.27586056              -54.47802136
              26.28849132               -6.66824827               65.87629446                0.05745511                4.43495247                3.22560831              -15.43269454               -1.02862419               36.52261515              -61.20761661
              27.33464408               -8.41208192               65.31717338                0.55935505                4.61527546                5.05005236              -14.96455344                1.10749237               11.04130885              -74.56639068
              18.89025170               10.16322476               69.34790876                0.60711209               -0.77975928               -1.40120875                3.91945386               -0.11884475                0.11491833                8.27223764
              19.88245411                8.46079896               68.60574318                0.05766006               -1.35353186               -0.14330331                1.26703100               -1.83014969               14.54121248               -7.89857028
              20.86318107                6.71995938               68.15246853                0.00010000               -1.63253167               -0.62295908                1.55321733               -5.32418894               31.71496200              -14.77664292
              21.84980348                4.95203136               67.75328588                0.00010000               -0.80689010               -0.15768318               -1.18733763               -7.38575234               34.36554582              -20.70718778
              22.84704326                3.17874568               67.35023026                0.00010000                0.29575822               -0.11694966               -3.81171379               -8.35465276               33.77353538              -26.52604510
              23.85571864                1.40159410               66.93868993                0.00010000                1.38952932                0.24805681               -6.59462609               -8.91180529               32.88076544              -33.04707732
              24.87483385               -0.37650320               66.51866679                0.00010000                2.50313097                0.89435431               -9.69330242               -8.68088606               32.21673804              -40.45399482
              25.90578126               -2.14861144               66.09582498                0.00010000                3.79011234                1.83496755              -13.30500934               -7.24445451               33.17386526              -49.21237982
              26.95063610               -3.90429226               65.69781107                0.00010000                5.35706654                3.15313550              -17.36278584               -4.29177250               31.67772479              -62.23011713
              28.01292259               -5.63101507               65.24688151                0.05893443                6.81269199                4.77065084              -22.18668671               -1.11575699               20.64486700              -96.81274220
              29.08688994               -7.35431281               64.62204592                0.55997223                7.39673457                6.91104137              -24.89798349                1.37997431               12.82452049             -114.65657972
              20.58529515               11.15022609               69.16285996                0.60383258               -0.57838133               -1.20830283                3.41981871               -0.11500306                0.12037572                8.44735529
              21.57951133                9.46033384               68.34017743                0.05392313               -1.26795468                0.05965452                0.42303377               -2.51865813               19.65627359               -7.61971357
              22.55993605                7.71835545               67.90849329                0.00010000               -1.82693992                0.20339184                1.02507828               -6.11202409               42.17014418              -13.75478926
              23.54297254                5.95491357               67.53376996                0.00010000               -1.13938819                0.73829584               -1.93524836               -7.73136688               44.93462846              -19.05022079
              24.53714829                4.18489878               67.15312685                0.00010000               -0.01771664                1.20237915               -4.97209982               -8.45047123               44.04378870              -24.60922010
              25.54261820                2.41207963               66.75896090                0.00010000                1.16339433                1.77341077               -8.25686525               -8.76586590               42.45660440              -30.78577810
              26.56041618                0.64125237               66.34609070                0.00010000                2.48943770                2.60686271              -11.98763104               -8.38844157               40.41384530              -38.07635092
              27.59240696               -1.12052987               65.91091854                0.00010000                4.10485168                3.72487555              -16.34855534               -6.97999754               37.35078405              -47.41029537
              28.64251321               -2.86340337               65.43599385                0.00010000                6.18948881                5.09652589              -21.56923350               -3.99217150               31.76892620              -61.22451735
              29.71619673               -4.57283525               64.88608966                0.06272461                8.31629180                6.81642437              -27.85707369               -0.89706066               18.78461784              -77.60684170
              30.80883905               -6.27386110               64.14628686                0.56209515                9.26423128                8.75227714              -31.47782892                1.29376261                9.61346965              -95.98354974
              22.26773615               12.13905870               68.97954180                0.60046308               -0.37845650               -1.03060104                2.93002220               -0.11226684                0.13010163                8.54731661
              23.26395159               10.46199205               68.07678457                0.04980535               -1.06876510                0.27600756               -0.41172280               -2.95818716               25.24016926               -7.44166164
              24.24636085                8.72402721               67.67642645                0.00010000               -1.76593874                0.85619131                0.35917785               -6.65969506               53.36317628              -12.40166186
              25.22863281                6.96679728               67.33163613                0.00010000               -1.27465317                1.56792979               -2.71371376               -7.91390740               56.05426212              -17.03840004
              26.22086778                5.20279326               66.97878897                0.00010000               -0.22925398                2.26053460               -6.02038320               -8.43584983               54.84013102              -21.95437380
              27.22404773                3.43706232               66.60637481                0.00010000                0.94033641                3.08375965               -9.70551725               -8.48675395               52.50803466              -27.53575701
              28.23967451                1.67563406               66.20436406                0.00010000                2.33946645                4.14638889              -13.97490506               -7.90459042               49.07086929              -34.23001024
              29.27083706               -0.07411393               65.76032483                0.00010000                4.17117716                5.46842673              -19.08764845               -6.39031464               44.13418398              -42.68399147
              30.32309806               -1.80236174               65.25537892                0.00010000                6.73010198                7.01699088              -25.37269353               -3.39797145               36.86998198              -53.18760900
              31.40543910               -3.49468658               64.66033068                0.06651853                9.58594071                8.72405853              -33.23802820               -0.43088100               21.67657712              -65.67997544
              32.51481687               -5.17926727               63.84797419                0.56428679               10.93777709               10.27025721              -37.52915302                1.51629055               10.86416396              -81.68936762
              23.93718311               13.12961407               68.79711880                0.59740532               -0.18040301               -0.86231516                2.44702116               -0.11073598                0.13837488                8.56723078
              24.93537908               11.46585399               67.81464260                0.04586802               -0.76230906                0.50076160               -1.24507192               -3.24325853               31.39247466               -7.35197358
              25.92193693                9.73547928               67.45735817                0.00010000               -1.47253696                1.37149310               -0.35661477               -6.96289696               65.55151907              -10.89947417
              26.90592834                7.98627217               67.15099644                0.00010000               -1.18853352                2.20260509               -3.42949581               -7.91748329               67.98689943              -14.58335335
              27.89816626                6.23010947               66.83388504                0.00010000               -0.29430037                3.03998485               -6.88674647               -8.14867794               66.44481883              -18.62213314
              28.90004233                4.47375482               66.49126970                0.00010000                0.76671769                4.07722890              -10.85523815               -7.87916077               63.45125088              -23.31948194
              29.91350061                2.72418015               66.10955878                0.00010000                2.12770665                5.39395754              -15.56627219               -7.04648406               59.04815552              -28.98816369
              30.94259646                0.98883867               65.67350444                0.00010000                4.08129146                6.96936982              -21.34652258               -5.43123583               52.97466669              -35.93003793
              31.99512644               -0.72306356               65.16359879                0.00010000                7.09440883                8.70696746              -28.65882276               -2.51064166               44.65399762              -44.39705983
              33.08448464               -2.39835408               64.55386585                0.07008880               10.65998958               10.44784713              -38.17507662                0.15241672               26.41538432              -54.58448530
              34.20832623               -4.06845595               63.67641874                0.56642556               12.38415901               11.93969616              -42.97688250                1.69888044               12.94568072              -70.08937941
              25.59304159               14.12181240               68.61472480                0.59450049                0.01796098               -0.70217546                1.96195043               -0.11353222                0.14147803                8.49167513
              26.59322120               12.47200728               67.55284228                0.04167164               -0.31784333                0.73517078               -2.07881117               -3.45137850               38.22437096               -7.33477237
              27.58668473               10.75145708               67.25263659                0.00010000               -0.87841275                1.72768696               -1.07754987               -7.05452730               78.97099149               -9.21326257
              28.57565295                9.01084938               66.99596746                0.00010000               -0.81365771                2.51947747               -4.02294236               -7.66448868               80.98053729              -11.67345878
              29.57041157                7.26359296               66.72502328                0.00010000               -0.16295563                3.44221028               -7.49496565               -7.44912374               79.09583381              -14.64354577
              30.57239384                5.51860689               66.42297763                0.00010000                0.66247048                4.69768126              -11.61264380               -6.79798735               75.56199964              -18.25892407
              31.58366098                3.78351321               66.07446885                0.00010000                1.85311082                6.27372679              -16.62940018               -5.73109971               70.45410166              -22.67423579
              32.60945605                2.06527347               65.66278484                0.00010000                3.82084960                8.12759020              -22.94934858               -4.08793567               63.54832548              -28.08528899
              33.66007798                0.37177761               65.16753137                0.00010000                7.22118874               10.10193450              -31.19071235               -1.42213807               54.29366468              -34.74368097
              34.75387983               -1.28572964               64.56212076                0.07400796               11.44601186               11.92996503              -42.34714534                0.72873118               32.21908782              -43.10729211
              35.88899821               -2.94047335               63.62250185                0.56866975               13.51183847               13.61848627              -47.51719482                1.74591728               15.37349069              -58.34259586
              27.23452269               15.11557056               68.43123470                0.59096331                0.21841393               -0.54716991                1.47363988               -0.11747881                0.18944209                8.43199149
              28.23670683               13.48055740               67.29075317                0.03770200                0.37407974                0.97897337               -2.92032484               -3.69192414               45.89810433               -7.49746969
              29.24200428               11.77003302               67.06437406                0.00010000                0.18979256                1.73453196               -1.78128522               -6.99663839               93.88887576               -7.13883794
              30.24050268               10.03666172               66.87118260                0.00010000               -0.02890083                2.30441152               -4.43259322               -6.83024532               95.23751309               -8.22840015
              31.24142627                8.29895368               66.65833956                0.00010000                0.18298284                3.45663980               -7.77290436               -6.05782994               92.93838624              -10.09093976
              32.24416234                6.56770844               66.40910229                0.00010000                0.53928857                4.96353713              -11.87852834               -5.11304649               88.97183662              -12.52579095
              33.25221204                4.84965469               66.10791137                0.00010000                1.42055076                6.77076393              -17.01624347               -3.97460997               83.37187615              -15.57254566
              34.27257335                3.15139047               65.73733627                0.00010000                3.27373752                8.86223482              -23.66858738               -2.45628273               75.86132932              -19.36115128
              35.31768679                1.47897513               65.27572192                0.00010000                6.93684327               11.13860437              -32.63606102               -0.26884742               65.76044632              -24.04965421
              36.41131022               -0.15975478               64.69301830                0.07781339               11.75225998               13.09357641              -45.24572366                1.10369105               39.05247154              -30.05609837
              37.55273199               -1.79608623               63.69301422                0.57091706               14.14217714               15.04154493              -50.60037800                1.48136209               18.10968780              -45.14958397
              28.86071833               16.11086900               68.24797331                0.58778562                0.42019300               -0.38453836                0.98587102               -0.11815880               -0.15016165                7.34666470
              29.86492026               14.49158675               67.02534852                0.03408261                1.49646561                1.21996890               -3.78407061               -4.21449264               54.62888390               -6.79997446
              30.89064765               12.78614771               66.89813226                0.00010000                2.26035593                0.54132856               -2.37413237               -5.50803502              110.77412808               -4.01657836
              31.91012738               11.05693761               66.78256875                0.00010000                1.37803010                1.72135993               -4.59013176               -4.58384582              110.75641189               -4.25639393
              32.91820825                9.33272576               66.63898591                0.00010000                0.46522583                3.26283570               -7.65726721               -3.52268962              107.97159899               -5.11894512
              33.91943190                7.61787764               66.45522465                0.00010000                0.11392549                5.03090942              -11.56574696               -2.77081758              103.77406397               -6.34091836
              34.92048676                5.91892849               66.21632806                0.00010000                0.57890280                6.99356463              -16.58163670               -1.95260177               97.94699452               -7.90777241
              35.93100995                4.24251817               65.90460630                0.00010000                2.26797630                9.18045379              -23.24341803               -0.87619557               90.17042137               -9.90270013
              36.96584628                2.59454969               65.49836202                0.00191228                6.00025267               11.60507896              -32.52483381                0.50657076               79.70949544              -12.41520451
              38.05101501                0.97614189               64.96585542                0.08169928               11.27210277               13.81646803              -46.22584409                1.05788954               47.40194832              -15.01254790
              39.19128834               -0.63964245               63.90592154                0.57290819               14.02733307               15.55142056              -51.51725443                0.71798107               21.06546793              -27.53970705
              30.47072401               17.10787979               68.04297762                0.79278045                0.64142510               -0.29892066                0.39382883                0.70826626                3.33793411                6.25619273
              31.47713826               15.50495678               66.77679715                0.51567113                4.78843580                1.33700289               -4.57507965               -5.12921060               66.29835641               -5.93281253
              32.56649272               13.78085959               66.76953292                0.45705682                6.25547313               -0.52881260               -2.63241339               -4.10888539              128.89955306               -2.04503685
              33.60224772               12.07108892               66.73481278                0.44335393                2.17698623                1.41513052               -4.43358320               -1.62042583              126.94507615               -2.10623226
              34.61003245               10.36421039               66.67009372                0.43861328                0.01477666                3.14846368               -7.10827920               -0.95569402              124.15164234               -2.53003523
              35.60254325                8.66832663               66.56443845                0.44202167               -1.07564881                5.04489967              -10.62413768               -0.42308500              120.05806098               -3.15485139
              36.58851947                6.98952598               66.40367587                0.45336467               -1.15575112                7.05974947              -15.22728938                0.13691721              114.41478711               -3.96239851
              37.57942823                5.33499955               66.17042104                0.47307588                0.28375057                9.24813804              -21.45573126                0.91936432              106.82198667               -5.00076611
              38.59419448                3.71107671               65.84245895                0.50208488                4.36159587               11.65270180              -30.32610873                1.91357148               96.93008261               -6.38555480
              39.66666015                2.11657458               65.39764062                0.54222983               10.22328987               14.04326891              -43.97885624                1.75778785               60.18007943               -6.92013089
              40.79866028                0.51494219               64.32754327                0.78717876               13.20001314               15.45846335              -48.68393321                0.57395511               29.06848454              -16.78429665
              14.24021913                7.48638043               70.98845168                0.83474579               -1.50260548               -1.68431242                5.71507413               -0.42946958               -4.71207989                5.22225295
              15.22519308                5.66870462               70.42579979                0.58463839               -1.45376379               -0.98023981                3.86451113               -0.47184445               -6.66006378               -3.87717706
              16.21114386                3.84356872               69.82483027                0.49983751               -1.28699940               -0.53509057                1.87974662               -0.48382778               -6.90900539               -0.53742030
              17.19945309                2.00229446               69.25814539                0.46190690               -0.89084428               -0.00037010                0.00136355               -0.43521648               -4.56471171               -0.49799361
              18.19332697                0.14366778               68.70454233                0.44291041               -0.20495238                0.52978996               -1.92641734               -0.36030580               -3.36671774               -0.29681286
              19.19535404               -1.72844093               68.16170058                0.44176436                0.68143577                1.07260067               -3.89795581               -0.29488438               -2.62399903               -0.09084935
              20.20695569               -3.60638263               67.62240483                0.45858932                1.61676707                1.61447056               -5.88547996               -0.26475106               -2.68984388                0.12497415
              21.22768938               -5.48199142               67.07744810                0.49340152                2.44263882                2.14027594               -7.83870521               -0.27038559               -3.57816582                0.33288386
              22.25580846               -7.34968644               66.51935928                0.54769684                3.09684097                2.65383783               -9.75423369               -0.27476918               -5.25062421                0.43091877
              23.28962620               -9.20740647               65.93965704                0.62297112                3.61977510                3.15900799              -11.67084403               -0.28033687               -5.79617670                1.18327209
              24.32820396              -11.05609142               65.36917710                0.84165062                3.85777617                3.72802733              -13.55461678               -0.67904237               -5.25431088               -3.85411620
              16.05360024                8.46953730               70.76157490                0.63578236               -1.17197542               -1.71490062                4.99893136               -0.24031557                3.24128544                7.47296994
              17.04188049                6.65890222               70.19324445                0.11136940               -0.70447916               -0.73148288                3.16068575               -0.50104583                7.54261083               -7.13025919
              18.03951066                4.83821781               69.71140070                0.00010000                0.15854536               -0.51276666                1.69298973               -1.84097540               11.96556334               -9.44351546
              19.04505139                3.00229076               69.23130303                0.00010000                0.77904735               -1.16156923                0.12642301               -3.23297483               12.80034145              -11.56215181
              20.05509161                1.14896568               68.76598935                0.00010000                1.11895027               -0.94645304               -1.46770445               -4.23317002               14.06717992              -14.85954511
              21.06743040               -0.71771492               68.31128328                0.00010000                1.29959082               -0.53230083               -3.10386267               -4.72807350               14.76333221              -18.75576970
              22.08108342               -2.59023792               67.85991636                0.00010000                1.46035147               -0.01026087               -4.75024317               -4.63585870               14.64030263              -22.96631556
              23.09663743               -4.46058866               67.40254366                0.00010000                1.73424355                0.55655081               -6.35641666               -3.98629275               13.64208334              -26.82542652
              24.11576829               -6.32314806               66.93069630                0.03553943                2.16939484                1.25117930               -7.91481120               -2.87423729               12.20362849              -28.21678044
              25.14002533               -8.17581639               66.44362338                0.14675038                2.71651011                3.04913217               -9.46022796               -1.35352899                9.07616767              -10.86312695
              26.17009850              -10.01881115               65.90787189                0.61834761                3.00731687                4.16122359              -11.13315789                0.11818878                6.72832290              -18.45461994
              17.85668298                9.45208242               70.58040805                0.60059994               -1.01913279               -1.64520735                4.53999916               -0.13840243                0.12430555                9.12578708
              18.84649165                7.65407496               69.89600040                0.05187543               -1.28735842               -0.35985197                2.16208625               -1.08889302               10.52567996               -9.36947437
              19.83093581                5.83331338               69.42005842                0.00010000               -1.12229619               -0.83561017                1.57530989               -4.70970855               22.87381503              -16.94109743
              20.82404573                3.97906308               68.98312288                0.00010000               -0.11332814               -1.51061371               -0.62078860               -7.25631574               24.45757230              -22.48370969
              21.82866925                2.12473872               68.53588202                0.00010000                0.79752213               -1.63715002               -2.73191893               -8.34674611               23.90067086              -29.19640278
              22.83999617                0.26091306               68.08702366                0.00010000                1.42215021               -1.32102834               -4.94338466               -9.19917126               23.61605723              -36.96812469
              23.85711225               -1.60658785               67.63481375                0.00010000                2.04387450               -0.77203404               -7.34054900               -8.99143401               23.38613258              -45.49990672
              24.88087366               -3.47086040               67.18339264                0.00010000                2.82195941               -0.04601033              -10.07326953               -7.61158058               25.01663855              -54.12884497
              25.91355144               -5.32466285               66.76774240                0.00010000                3.86725264                1.09603381              -13.73500180               -4.25467160               44.05469787              -61.15714856
              26.95821871               -7.14642382               66.70508750                0.04624348                5.15029107                3.09292853              -18.91386180               -0.84740416               37.39707088              -69.95587342
              28.01655726               -8.97286695               66.15277681                0.55189562                5.83385491                4.57560621              -18.28737436                1.52262700               14.16901562              -84.34442128
              19.64684710               10.43663316               70.38752534                0.59706550               -0.79754372               -1.44115801                4.00114341               -0.11774974                0.11718573                8.63794592
              20.63887166                8.65170518               69.61860020                0.04724903               -1.32593600               -0.13931265                1.30503370               -2.16783265               15.88839307               -8.20918293
              21.62032838                6.82150561               69.16544886                0.00010000               -1.51859549               -0.62710975                1.02649475               -5.50931480               33.16582956              -14.91355898
              22.60849975                4.97207849               68.74017749                0.00010000               -0.70108367               -0.19312461               -1.45828635               -7.16984745               34.54005934              -21.54326680
              23.60630670                3.11622268               68.31110438                0.00010000                0.31368943               -0.10315031               -4.02483607               -8.17734124               33.92584102              -28.13217702
              24.61477354                1.25586451               67.87178340                0.00010000                1.33607507                0.29368618               -6.78387370               -8.72118067               32.83005915              -35.52414729
              25.63302820               -0.60567860               67.42068910                0.00010000                2.38536416                0.94719792               -9.87879865               -8.43939728               31.76966846              -43.93333975
              26.66248082               -2.46150887               66.96151274                0.00010000                3.66050380                1.85238279              -13.51109049               -6.90670294               32.16743984              -53.83717719
              27.70623828               -4.30122738               66.52128275                0.00010000                5.44002615                3.08585864              -17.87485800               -3.80937757               30.08010304              -67.94049308
              28.77128134               -6.11395782               66.02279548                0.04801772                7.35995046                4.02276292              -22.59661419               -0.93599856               19.57429787             -104.05443369
              29.85343729               -7.92729902               65.36773468                0.55252226                8.21559451                5.65013797              -25.89060132                0.87853946               12.49085602             -124.41853068
              21.42418393               11.42325926               70.19740904                0.59404029               -0.59213823               -1.24181715                3.49000257               -0.11281446                0.12351976                8.83323923
              22.41826255                9.65128871               69.34451716                0.04307821               -1.19038576                0.06464950                0.44607955               -2.83551751               21.27549004               -7.92630944
              23.40037622                7.82077119               68.91493923                0.00010000               -1.61654175                0.30789655                0.27650569               -6.33380855               43.98382797              -14.06045321
              24.38593171                5.97520058               68.51229515                0.00010000               -0.95199094                0.78985045               -2.37757399               -7.54047687               45.21913506              -19.88634132
              25.38133640                4.12267571               68.10189829                0.00010000                0.07710623                1.24092891               -5.28390635               -8.21914841               44.17391523              -26.12073133
              26.38747384                2.26678678               67.67510132                0.00010000                1.21806465                1.80059663               -8.50856221               -8.48326467               42.29590833              -33.08314251
              27.40569769                0.41235611               67.22499717                0.00010000                2.54072704                2.59031409              -12.19718254               -8.02570776               39.76969604              -41.28357290
              28.43828838               -1.43381275               66.74620766                0.00010000                4.20575746                3.60111547              -16.51780971               -6.54733092               36.01953465              -51.66345726
              29.48981284               -3.26294568               66.21968302                0.00010000                6.36410039                4.70942173              -21.56768839               -3.81812572               29.56011747              -66.75010980
              30.56557039               -5.06596857               65.60929674                0.05150313                8.54988151                5.87160055              -27.32714484               -1.13109252               17.17214818              -84.75606970
              31.66081047               -6.85986419               64.83189300                0.55456195                9.52400826                7.57609556              -31.10787762                0.64958455                9.01425467             -104.27125494
              23.18853190               12.41179681               70.00914920                0.59102612               -0.38825204               -1.05783730                2.98776960               -0.11242781                0.13292358                8.94345952
              24.18464937               10.65299817               69.07269678                0.03928518               -0.93957814                0.28294914               -0.40345973               -3.23603716               27.07539829               -7.74451049
              25.16974033                8.82766354               68.67528333                0.00010000               -1.44318415                0.98093564               -0.54557038               -6.86556172               55.52223426              -12.76782719
              26.15578569                6.98787549               68.30164032                0.00010000               -0.97013974                1.65476074               -3.29252423               -7.76975800               56.53567412              -17.83114764
              27.15033754                5.14104125               67.91655259                0.00010000               -0.01789249                2.30713500               -6.43452346               -8.21845799               55.05696630              -23.31787315
              28.15542784                3.29187645               67.50766461                0.00010000                1.13880204                3.07754214              -10.02653133               -8.21324544               52.33475384              -29.59350223
              29.17311358                1.44612768               67.06320242                0.00010000                2.57040743                4.05054727              -14.21300051               -7.59385795               48.29374509              -37.11754580
              30.20683599               -0.38948656               66.56847606                0.00010000                4.44590015                5.21346218              -19.17985065               -6.15186368               42.47030719              -46.59081144
              31.26203158               -2.20703895               66.00202071                0.00010000                6.93710084                6.49614328              -25.11373037               -3.59571910               33.98300799              -58.40835000
              32.34557801               -3.99652581               65.33205989                0.05501517                9.60943250                7.92248818              -32.12550890               -0.96395495               19.52649619              -72.72241053
              33.45422023               -5.77577711               64.47513151                0.55667673               10.86422242                9.34791550              -36.57457128                0.84118064               10.02205963              -89.89763469
              24.93953265               13.40210251               69.82183617                0.58820219               -0.18575734               -0.88657398                2.49112548               -0.11267787                0.13887581                8.96488141
              25.93767508               11.65694769               68.80213731                0.03569245               -0.56724959                0.51278272               -1.25151830               -3.48016384               33.42586745               -7.65476982
              26.92818766                9.84038990               68.44828386                0.00010000               -1.02581201                1.49815075               -1.38575155               -7.13944838               68.08316882              -11.29485454
              27.91715884                8.00829580               68.11319335                0.00010000               -0.76106880                2.29865121               -4.12697811               -7.83111567               68.76723422              -15.29134247
              28.91296629                6.16881841               67.76246998                0.00010000                0.04818330                3.08300778               -7.40083533               -7.99507224               66.85564321              -19.79049784
              29.91812251                4.32833762               67.38066818                0.00010000                1.11086252                4.04461083              -11.25311583               -7.69272587               63.37098142              -25.07803212
              30.93518354                2.49336706               66.95223125                0.00010000                2.51476116                5.24876897              -15.84737961               -6.88629357               58.22352717              -31.48722328
              31.96841773                0.67045649               66.45901456                0.00010000                4.48770841                6.66179616              -21.42611757               -5.43549621               51.02752324              -39.38921162
              33.02493770               -1.13302281               65.87763879                0.00010000                7.33058629                8.20446273              -28.28823435               -2.99383793               41.05167688              -49.18104688
              34.11502945               -2.90751880               65.17707862                0.05854422               10.55994971                9.79289858              -36.73932539               -0.54081523               23.73356888              -61.33754035
              35.23613670               -4.67290588               64.24909929                0.55863798               12.11072435               11.24562762              -41.79000959                1.05034625               11.97365978              -77.97140683
              26.67658797               14.39406533               69.63450465                0.58499441                0.01707369               -0.72185052                1.99273897               -0.11177023                0.14878287                8.88913840
              27.67675871               12.66325383               68.53193553                0.03178072               -0.04923541                0.75099554               -2.10070338               -3.64880831               40.46881089               -7.64456166
              28.67560326               10.85762655               68.23578787                0.00010000               -0.30119170                1.85025249               -2.20026845               -7.21888955               81.94744746               -9.62453355
              29.67073487                9.03384852               67.95164262                0.00010000               -0.26044960                2.61335664               -4.82486068               -7.64449369               82.18386473              -12.26513630
              30.67039427                7.20270141               67.64702057                0.00010000                0.31449029                3.47939145               -8.10825033               -7.37924025               79.83230713              -15.57064621
              31.67702468                5.37276866               67.30437670                0.00010000                1.14372838                4.65505641              -12.09674339               -6.72581395               75.70940501              -19.65279652
              32.69326884                3.55110306               66.90614882                0.00010000                2.37456285                6.11805045              -16.98050456               -5.73520592               69.71476903              -24.68485320
              33.72451593                1.74374936               66.43195203                0.00010000                4.34306416                7.82548232              -23.07567772               -4.29920037               61.43014492              -30.94500921
              34.78013012               -0.04294969               65.85591820                0.00010000                7.50644189                9.65815688              -30.82599835               -2.08158399               50.02857956              -38.86671069
              35.87464477               -1.80066783               65.14353570                0.06195028               11.29355980               11.43116978              -40.77669658               -0.00977535               29.10568337              -49.25981389
              37.00600132               -3.55086456               64.14900015                0.56065960               13.13565431               13.09656844              -46.31659302                1.20448755               14.47575981              -65.57472212
              28.39892026               15.38766550               69.44608453                0.58214298                0.22174340               -0.55838364                1.49298184               -0.11577621                0.19642306                8.83032050
              29.40113769               13.67196761               68.26133529                0.02839331                0.71474607                0.99544846               -2.95963699               -3.85381555               48.37488724               -7.82658917
              30.41321518               11.87739495               68.04008865                0.00010000                0.90282091                1.84033522               -2.95942978               -7.15472688               97.40803395               -7.53219699
              31.41919411               10.06056293               67.82225595                0.00010000                0.66230778                2.38338736               -5.32623208               -6.86216484               97.01648729               -8.66258639
              32.42646134                8.23840624               67.57708070                0.00010000                0.80052338                3.48722338               -8.48271808               -6.05700013               94.15749329              -10.73506780
              33.43520458                6.42143875               67.28738496                0.00010000                1.15186895                4.92390049              -12.45974492               -5.13132771               89.52389479              -13.48936830
              34.44949872                4.61572807               66.93525357                0.00010000                2.06409453                6.63508322              -17.46666275               -4.09804429               82.91977423              -16.98226063
              35.47648647                2.82696614               66.49877276                0.00010000                3.91122536                8.60020189              -23.89869447               -2.79665284               73.78532401              -21.42472659
              36.52772322                1.06014033               65.94891560                0.00010000                7.31311737               10.75434364              -32.37852230               -0.98287263               61.01501239              -27.17654390
              37.62274882               -0.67889541               65.24406954                0.06573376               11.64483405               12.73200397              -43.77798877                0.45915672               35.69264718              -35.15500823
              38.76061990               -2.41097451               64.18638790                0.56276051               13.78710867               14.65297594              -49.65857963                1.13760573               17.50287975              -51.22466180
              30.10566823               16.38289766               69.25787383                0.57902893                0.42847092               -0.38870764                0.99077340               -0.12129388               -0.15955393                7.69487546
              31.10995294               14.68316280               67.98718796                0.02497452                1.91225817                1.23914851               -3.84086399               -4.35386864               57.40754118               -7.10893311
              32.14391340               12.89443326               67.86768790                0.00010000                3.12636732                0.59734155               -3.57804164               -5.61842570              114.97239143               -4.26163298
              33.17248029               11.08151627               67.73171488                0.00010000                2.22325248                1.77609984               -5.55438688               -4.62453577              113.26254834               -4.49259292
              34.18837845                9.27244588               67.55846962                0.00010000                1.22980037                3.27722079               -8.45520583               -3.54738688              109.84295051               -5.44651671
              35.19707630                7.47124667               67.33615672                0.00010000                0.87010576                4.99144879              -12.25396835               -2.81815913              104.94927689               -6.82576630
              36.20578056                5.68380472               67.04741980                0.00010000                1.35471606                6.88466366              -17.16693480               -2.09001167               98.07126455               -8.62398180
              37.22417062                3.91575340               66.66949446                0.00010000                3.02768262                8.98258694              -23.64749809               -1.19065913               88.52044177              -10.97577533
              38.26633421                2.17213718               66.17151020                0.00010000                6.53860638               11.30239029              -32.50057414               -0.06009333               74.87626164              -14.11672973
              39.35494274                0.45397225               65.50457400                0.06941361               11.32887142               13.57241767              -45.10421604                0.60999868               44.17196454              -18.17944803
              40.49291164               -1.25780504               64.38708649                0.56472007               13.79688973               15.37310086              -51.01628105                0.61203341               21.19206042              -31.40254140
              31.79596411               17.37989135               69.04688860                0.78839350                0.65606144               -0.30063154                0.38312575                0.71551046                3.49623926                6.55652208
              32.80252472               15.69675058               67.73060944                0.51125488                5.32645450                1.35877770               -4.65225369               -5.27030009               69.61589744               -6.21221882
              33.90249320               13.88934178               67.73645500                0.45593682                7.30830277               -0.50914762               -3.85103267               -4.17530211              133.95127247               -2.24777437
              34.94869078               12.09608493               67.68541592                0.44311547                3.16449966                1.45686624               -5.43061193               -1.64850748              130.24617245               -2.29794085
              35.96578319               10.30395065               67.59480533                0.43866359                0.93958868                3.15047773               -7.97161315               -1.00038546              126.83107050               -2.75520144
              36.96748255                8.52126773               67.45431477                0.44181852               -0.12957200                5.00210548              -11.42394710               -0.48584017              122.09303120               -3.46438306
              37.96319175                6.75342134               67.24752617                0.45240759               -0.15708627                6.96166178              -15.99410871                0.00862670              115.47450833               -4.40704645
              38.96434083                5.00661788               66.95191498                0.47099266                1.25553804                9.08644773              -22.14719416                0.65536060              106.19354706               -5.66626005
              39.98830251                3.28618813               66.53576607                0.49829754                5.02750936               11.40509509              -30.73014813                1.49358330               93.00110948               -7.44042630
              41.06489101                1.59255295               65.95517078                0.53582569               10.40563174               13.85807019              -43.58114122                1.50979557               58.10812349               -9.14129912
              42.19641515               -0.10351249               64.83318562                0.78302154               13.15241339               15.42925477              -49.01105453                0.74380633               30.76223476              -19.50838090
              14.76417070                7.76990125               72.04618672                0.82764661               -1.53415038               -1.71785977                5.83121034               -0.43908319               -4.88136417                5.39241002
              15.74882919                5.86524854               71.46483059                0.57570917               -1.49369560               -0.99907152                3.94074742               -0.49448833               -6.89369137               -4.03110093
              16.73429679                3.95270106               70.84383510                0.49607433               -1.32317765               -0.54549407                1.92158755               -0.49117809               -7.15462577               -0.50866496
              17.72236564                2.02355335               70.25819051                0.46043204               -0.90061118                0.00249474                0.00778258               -0.43883000               -4.78052977               -0.49332159
              18.71628456                0.07697011               69.68512272                0.44257592               -0.19019432                0.54459587               -1.95599581               -0.36596223               -3.63288981               -0.29377810
              19.71856176               -1.88291828               69.12236277                0.44160320                0.71223373                1.09991605               -3.96445359               -0.30201704               -2.92374611               -0.09263430
              20.73052924               -3.84835144               68.56303405                0.45735161                1.65838933                1.65210195               -5.98669895               -0.27628382               -2.99025744                0.11926154
              21.75172954               -5.81121013               67.99828175                0.49014418                2.49715688                2.19137706               -7.98637168               -0.28010602               -3.85464032                0.32241174
              22.78047237               -7.76595536               67.42080367                0.54105729                3.16341764                2.71817236               -9.94712848               -0.28316505               -5.51357333                0.42254002
              23.81499789               -9.71056715               66.82174917                0.61169125                3.69369997                3.23469064              -11.90319180               -0.28681890               -6.05026820                1.18568751
              24.85434637              -11.64614996               66.23219612                0.83418821                3.93484798                3.81439980              -13.83028671               -0.67869570               -5.49904415               -3.99631214
              16.66443258                8.75272265               71.81206440                0.62362148               -1.19481703               -1.75428432                5.09836518               -0.24892459                3.42342210                7.77648549
              17.65248441                6.85525783               71.22516413                0.09675049               -0.70999866               -0.73969402                3.22296990               -0.52967748                7.91213669               -7.43104771
              18.65023260                4.94724612               70.72846896                0.00010000                0.16792052               -0.73782660                1.71894367               -1.89851313               12.47205473               -9.39595428
              19.65584282                3.02357829               70.23249920                0.00010000                0.78140750               -1.20173823                0.11419776               -3.21969818               13.24113201              -12.02215599
              20.66586075                1.08241607               69.75104790                0.00010000                1.11797730               -0.93877088               -1.52011701               -4.19326271               14.47297976              -15.73321172
              21.67820236               -0.87191912               69.27975891                0.00010000                1.30257859               -0.49129240               -3.19740558               -4.69066976               15.14225520              -20.07831310
              22.69191232               -2.83183042               68.81175206                0.00010000                1.47640397                0.04729276               -4.88354162               -4.63622245               15.02680735              -24.83379588
              23.70773044               -4.78929636               68.33801871                0.00010000                1.77034545                0.62174656               -6.53871114               -4.08808264               14.06938747              -29.42996383
              24.72731923               -6.73877364               67.85036433                0.02561705                2.22482814                1.28799312               -8.14554154               -3.20260662               12.66224742              -32.06024755
              25.75222700               -8.67822024               67.34763708                0.13013584                2.79114971                3.20146546               -9.73058811               -1.64159437                9.47316159              -17.51506436
              26.78314223              -10.60800596               66.79496572                0.60708766                3.09152237                4.36584121              -11.43883943                0.43639831                7.05809920              -24.22548070
              18.55412186                9.73481556               71.62627572                0.59065267               -1.04096838               -1.68699838                4.63064098               -0.13543473                0.10183357                9.52042016
              19.54371218                7.85045466               70.91785880                0.04059598               -1.30579024               -0.35796427                2.21037421               -1.35284930               11.38603804               -9.74540910
              20.52800606                5.93794453               70.43555028                0.00010000               -1.04552245               -1.02193665                1.46675885               -4.81241544               23.85107675              -17.17281491
              21.52280173                3.99951858               69.97618373                0.00010000               -0.00446678               -1.57922701               -0.77395315               -7.03217533               24.71644217              -23.38936066
              22.52791672                2.05819470               69.50789881                0.00010000                0.80965630               -1.61650987               -2.86850023               -8.20846444               24.18743627              -30.91142067
              23.53899485                0.10725587               69.03691039                0.00010000                1.36326544               -1.25236935               -5.07786656               -9.05337686               23.77898498              -39.56566076
              24.55518203               -1.84740559               68.56065926                0.00010000                1.89581254               -0.67614966               -7.47851722               -8.87227571               23.30707465              -49.14901097
              25.57691110               -3.79877520               68.08172192                0.00010000                2.50810482                0.05631802              -10.23705793               -7.59919721               24.30502508              -59.12083483
              26.60534413               -5.74019550               67.62903604                0.00010000                3.72436127                1.18654482              -13.98863325               -4.20632270               41.31433574              -67.93219709
              27.65139833               -7.64653784               67.49801722                0.03550714                5.86508265                3.09536273              -22.31618965               -0.64540099               36.72411687              -78.76560957
              28.72264578               -9.55883313               66.95142590                0.54467225                7.12474485                4.31031700              -22.28511779                1.95479233               17.18291503              -94.43157351
              20.43044569               10.71898269               71.42793163                0.58730201               -0.81472343               -1.47742785                4.07775702               -0.11704273                0.12117246                9.00861193
              21.42229845                8.84809854               70.63184385                0.03649635               -1.27626577               -0.13717978                1.34279942               -2.41982645               16.96676575               -8.51587267
              22.40492037                6.92680739               70.17299843                0.00010000               -1.36746550               -0.53163057                0.51565579               -5.61381081               34.46248077              -15.35419940
              23.39494914                4.99199375               69.72412015                0.00010000               -0.54831003               -0.18973331               -1.75898776               -6.95635329               34.87180144              -22.50023119
              24.39395417                3.05008587               69.26973354                0.00010000                0.38929812               -0.05793782               -4.25292679               -7.95282764               34.12284151              -29.80964644
              25.40273511                1.10303350               68.80301246                0.00010000                1.32718549                0.36398455               -6.96519110               -8.44983261               32.80390335              -38.03992166
              26.42049788               -0.84535341               68.32109081                0.00010000                2.29006516                1.02365896              -10.02047561               -8.08408835               31.34344282              -47.41975776
              27.44853641               -2.78817000               67.82560317                0.00010000                3.52287693                1.90064352              -13.62831206               -6.42443136               31.05740539              -58.42657479
              28.49095542               -4.71504274               67.34031391                0.00010000                5.47101052                3.05259798              -18.23853738               -3.14303185               28.43576378              -73.48428732
              29.55795662               -6.61631299               66.79494923                0.03729232                7.79366225                3.46583882              -22.93064861               -0.53627476               18.31216621             -109.18638166
              30.64682867               -8.52179962               66.10423390                0.54524991                8.88720457                4.60750518              -26.67341337                0.51562907               11.60530877             -131.88500570
              22.29354930               11.70526701               71.23266001                0.58458004               -0.60583507               -1.27409641                3.55509808               -0.11290550                0.12316639                9.22503013
              23.28749094                9.84771107               70.34909902                0.03275986               -1.08573347                0.06915749                0.47158347               -3.04640565               22.53463493               -8.23159565
              24.27183463                7.92731192               69.91402340                0.00010000               -1.35473845                0.42593237               -0.39635788               -6.45227609               45.55740258              -14.52250946
              25.26039618                5.99572392               69.48621848                0.00010000               -0.70071003                0.86411871               -2.82649159               -7.35740486               45.68020957              -20.84821063
              26.25782043                4.05703594               69.04744872                0.00010000                0.25206575                1.28891204               -5.60468134               -7.95798534               44.36991220              -27.71337273
              27.26543749                2.11453557               68.58878965                0.00010000                1.34416648                1.82959553               -8.74274929               -8.13052354               42.15844313              -35.43083593
              28.28470375                0.17306759               68.10214705                0.00010000                2.63371561                2.57012377              -12.34077161               -7.55289006               39.14329136              -44.50284123
              29.31811180               -1.76076233               67.58056235                0.00010000                4.29613608                3.47164701              -16.54839031               -5.96613151               34.77060291              -55.83739192
              30.37062648               -3.67914354               67.00464009                0.00010000                6.46589553                4.32791117              -21.35258800               -3.41198874               27.67156435              -71.83649067
              31.44742971               -5.57722106               66.33954676                0.04051321                8.66525750                4.96981556              -26.56181346               -1.13189428               15.75161488              -90.90589490
              32.54393163               -7.46668303               65.52412931                0.54735376                9.65019133                6.36866835              -30.32515756                0.16811109                8.31271246             -111.08261865
              24.14329946               12.69350076               71.03929719                0.58166632               -0.39740326               -1.08553790                3.03793509               -0.11145447                0.13532660                9.34198643
              25.13932543               10.84948169               70.06871538                0.02914608               -0.77187310                0.29043919               -0.39035587               -3.41084655               28.49551695               -8.04405342
              26.12786200                8.93532604               69.66551504                0.00010000               -1.06242017                1.08828612               -1.32436129               -6.97479593               57.38516465              -13.26149627
              27.11807703                7.00927613               69.26578565                0.00010000               -0.59395920                1.73595504               -3.85228154               -7.63855932               57.19273672              -18.73684877
              28.11598282                5.07586412               68.85009850                0.00010000                0.30079776                2.33977994               -6.84763250               -7.98334322               55.33822180              -24.76785588
              29.12409298                3.13962541               68.40584418                0.00010000                1.43775783                3.04732632              -10.31954537               -7.87759301               52.17598419              -31.70541937
              30.14473797                1.20604906               67.92010405                0.00010000                2.86659648                3.92108472              -14.36301477               -7.17207231               47.54177098              -40.01107391
              31.18142491               -0.71873706               67.37672782                0.00010000                4.72182038                4.91703966              -19.08851552               -5.74529970               40.94399148              -50.39540149
              32.23917438               -2.62848452               66.75310432                0.00010000                7.07166574                5.92807798              -24.55035847               -3.53550891               31.56885291              -63.30885554
              33.32285823               -4.51691667               66.01782050                0.04377839                9.49702219                7.03201837              -30.61898425               -1.28379641               17.65420282              -78.93933040
              34.42911482               -6.39442625               65.11648277                0.54922234               10.62565983                8.24651528              -34.94858121                0.24036577                9.07912279              -97.01443458
              25.97935834               13.68355625               70.84694131                0.57901410               -0.19096045               -0.90769742                2.52826319               -0.11083788                0.14262152                9.36834347
              26.97744873               11.85351985               69.78961224                0.02588017               -0.34070349                0.52181899               -1.25151148               -3.62449184               35.00547809               -7.95661748
              27.97254427                9.94907764               69.42964314                0.00010000               -0.51809126                1.59177905               -2.23728559               -7.25061246               70.27012195              -11.80035422
              28.96708691                8.03044302               69.06845687                0.00010000               -0.23699934                2.36039622               -4.78266848               -7.76127921               69.71151339              -16.10437573
              29.96780428                6.10383154               68.68586834                0.00010000                0.53068876                3.08525982               -7.90388287               -7.83100518               67.32037490              -21.04486863
              30.97770068                4.17548209               68.26620738                0.00010000                1.59102448                3.96043889              -11.61470417               -7.44907706               63.28807988              -26.88862868
              31.99962477                2.25148929               67.79261119                0.00010000                3.00193509                5.03723817              -16.02246066               -6.61302799               57.40471692              -33.98491569
              33.03773939                0.33757847               67.24498209                0.00010000                4.92355717                6.26760728              -21.27758972               -5.26033019               49.21365955              -42.75259589
              34.09809592               -1.56058198               66.59783410                0.00010000                7.49780669                7.58255508              -27.50981078               -3.21338216               38.00189520              -53.67544180
              35.18769552               -3.43658069               65.81907934                0.04705452               10.28310910                8.94999206              -34.69812928               -1.05587127               21.34400546              -67.34032007
              36.30375810               -5.30175272               64.84061855                0.55115886               11.60625773               10.25849237              -39.59697095                0.40628091               10.82432736              -84.89281044
              27.80115550               14.67534681               70.65457958                0.57611121                0.01586962               -0.73742292                2.01898940               -0.11330994                0.15301441                9.29460322
              28.80131420               12.85991807               69.51082822                0.02249453                0.23855393                0.76266693               -2.11631038               -3.77167385               42.22945014               -7.95611906
              29.80592658               10.96716162               69.20863123                0.00010000                0.33916720                1.92057053               -3.10370074               -7.33669894               84.52956650              -10.11730493
              30.80809754                9.05648405               68.89947025                0.00010000                0.41985271                2.64473575               -5.56428529               -7.64194194               83.53047546              -12.95317230
              31.81432364                7.13756931               68.56285827                0.00010000                0.96780727                3.44858688               -8.70288877               -7.30035168               80.60278410              -16.57938719
              32.82745369                5.21883418               68.18104277                0.00010000                1.80287003                4.53294824              -12.54143094               -6.60044049               75.82584404              -21.09295225
              33.85038104                3.30679382               67.73485876                0.00010000                3.04179417                5.86246068              -17.21540694               -5.63120724               68.94180358              -26.68680395
              34.88828957                1.40661509               67.20127128                0.00010000                4.93424297                7.38875212              -22.93695473               -4.33744125               59.40795706              -33.70354080
              35.94906590               -0.47683342               66.55101141                0.00010000                7.73109859                9.02171150              -29.94431568               -2.49687891               46.34375489              -42.70758623
              37.04291155               -2.33791683               65.74658682                0.05048097               10.92593023               10.63437198              -38.35462707               -0.62138275               26.21952630              -54.70861435
              38.16758450               -4.18925641               64.69616999                0.55302320               12.46729567               12.15434600              -43.78169714                0.58578060               13.20506539              -71.92181614
              29.60794962               15.66880779               70.46109434                0.57321505                0.22508321               -0.56921849                1.50426403               -0.11628545                0.20130147                9.23475679
              30.61020045               13.86877319               69.23156043                0.01881499                1.06473454                1.01079341               -2.98921913               -3.96879615               50.36223974               -8.15627443
              31.62924431               11.98748905               69.00518546                0.00010000                1.68199631                1.86935442               -3.88355850               -7.28967431              100.50331994               -7.97046010
              32.64384038               10.08333773               68.76465796                0.00010000                1.51014046                2.37208629               -6.14090268               -6.90933468               98.90366593               -9.18147526
              33.65944712                8.17280328               68.48868520                0.00010000                1.63134934                3.42507418               -9.17197068               -6.04474498               95.37966995              -11.44893844
              34.67646736                6.26614106               68.15990739                0.00010000                1.98863029                4.77991613              -13.00611688               -5.10256010               89.99996783              -14.49122434
              35.69921972                4.36873850               67.75857811                0.00010000                2.90752192                6.36912136              -17.80311076               -4.12971366               82.37128200              -18.37915584
              36.73461780                2.48535351               67.25936238                0.00010000                4.67352679                8.16226762              -23.84549934               -2.99237206               71.73350775              -23.38653637
              37.79269026                0.61985225               66.62815148                0.00010000                7.65365269               10.10990245              -31.51815645               -1.50103444               56.80771940              -30.04410611
              38.88769085               -1.22389325               65.81745853                0.05375937               11.27312970               11.96842607              -41.15618421               -0.12757959               32.42278320              -39.61804703
              40.01815285               -3.05866580               64.69984263                0.55480730               13.04619982               13.73827048              -46.99287129                0.64874824               16.27052285              -56.45173983
              31.39889900               16.66396244               70.26778878                0.57065207                0.43580153               -0.39135449                0.98885136               -0.11997612               -0.16827715                8.04451866
              32.40325702               14.88013394               68.94853124                0.01561961                2.33347758                1.25481199               -3.88517774               -4.48621904               59.70373572               -7.41685835
              33.44556855               13.00454870               68.82657142                0.00010000                4.06698052                0.54404238               -4.50632370               -5.73703863              118.74135403               -4.53377561
              34.48459663               11.10392578               68.67148101                0.00010000                3.25284299                1.71951392               -6.43631691               -4.67487206              115.82850284               -4.78312828
              35.51062541                9.20607080               68.46988179                0.00010000                2.24353175                3.18158391               -9.23937108               -3.55926882              111.66734354               -5.81929161
              36.52946726                7.31443251               68.21014529                0.00010000                1.89744498                4.82909130              -12.92152053               -2.83394349              105.97182742               -7.33689934
              37.54857431                5.43417625               67.87298936                0.00010000                2.39305601                6.62169023              -17.65554982               -2.16911832               97.99146075               -9.33431638
              38.57732838                3.56986044               67.43165634                0.00010000                3.98588296                8.57398945              -23.77891774               -1.41850713               86.75190007              -11.98125201
              39.62829197                1.72536463               66.84835054                0.00010000                7.07748133               10.69521048              -31.83773313               -0.50690676               70.44536982              -15.64153675
              40.71887801               -0.09854831               66.06377110                0.05730307               11.09062974               12.82241477              -42.56251520                0.19282880               40.82299396              -20.92092767
              41.85010457               -1.91449100               64.88559592                0.55663902               13.12265576               14.56210538              -48.52905862                0.39185323               20.38303200              -34.61790434
              33.17320710               17.66098070               70.05064014                0.78430667                0.66827062               -0.29817380                0.36424207                0.71968217                3.65306978                6.85369296
              34.17988980               15.89386943               68.68375208                0.50682528                5.87522996                1.37354894               -4.70922920               -5.46726148               72.44744516               -6.48944685
              35.29071170               13.99836990               68.69251227                0.45483753                8.44655209               -0.61788057               -4.80340894               -4.29275660              138.56326600               -2.46169475
              36.34882084               12.11772801               68.62620054                0.44281594                4.35216586                1.38022318               -6.36469955               -1.67432555              133.55889223               -2.50962401
              37.37775501               10.23643495               68.51066146                0.43865557                2.14310963                3.03641584               -8.84217801               -1.03729637              129.38126679               -2.99810850
              38.39168304                8.36272288               68.33595951                0.44153047                1.13272050                4.82903759              -12.22678108               -0.54155490              123.84489814               -3.77827698
              39.40040942                6.50117231               68.08379369                0.45161360                1.16881196                6.69960548              -16.69209698               -0.11096818              116.13115879               -4.83234579
              40.41505928                4.65683330               67.72747716                0.46897804                2.52757268                8.69728572              -22.59733164                0.40229712              105.14926855               -6.26385560
              41.45096088                2.83375646               67.22785599                0.49471898                5.81718919               10.83918274              -30.54327842                1.05297765               89.06064799               -8.33382498
              42.53140306                1.03255504               66.52601779                0.52975981               10.34572041               13.11033530              -41.66253088                1.19349724               55.43346335              -11.01183794
              43.65787528               -0.76742370               65.34732218                0.77903014               12.64722249               14.70672991              -47.33042930                0.77919809               30.98194336              -21.72719398
              15.30530412                8.06247328               73.10507589                0.82096862               -1.56332463               -1.74952676                5.93827496               -0.44926703               -5.05100086                5.55839383
              16.28967088                6.06741552               72.50461474                0.56740108               -1.53063529               -1.01624575                4.01056365               -0.51250092               -7.12223885               -4.18343779
              17.27469142                4.06412770               71.86326202                0.49251372               -1.35580005               -0.55441498                1.95989674               -0.48771659               -7.39038778               -0.47921542
              18.26255488                2.04381065               71.25830105                0.45928199               -0.90972513                0.00437710                0.01619674               -0.43527036               -4.98999784               -0.48512333
              19.25649691                0.00594185               70.66542242                0.44239906               -0.17935479                0.55834997               -1.97912456               -0.36537036               -3.89099791               -0.28890564
              20.25896778               -2.04508590               70.08241151                0.44137694                0.73673210                1.12570937               -4.02093855               -0.30840674               -3.21729799               -0.09246908
              21.27123156               -4.10143341               69.50267086                0.45616124                1.69295932                1.68943604               -6.07973721               -0.28373812               -3.28805806                0.11150683
              22.29282697               -6.15501710               68.91772066                0.48700086                2.54190105                2.23889893               -8.11714903               -0.28758375               -4.13055825                0.31284037
              23.32206958               -8.20035697               68.32041671                0.53466286                3.22007063                2.77715840              -10.11594538               -0.29004231               -5.77733186                0.40973908
              24.35722838              -10.23546853               67.70159320                0.60039550                3.76297955                3.30828086              -12.12014534               -0.29411508               -6.30553429                1.18617735
              25.39732917              -12.26155685               67.09257137                0.82689969                4.01007896                3.90063194              -14.09330660               -0.68142917               -5.74740601               -4.13907469
              17.29586922                9.04497802               72.86354220                0.61191867               -1.21505576               -1.79248502                5.19090622               -0.26002651                3.60648809                8.08003767
              18.28371866                7.05725306               72.25770385                0.08258484               -0.71262670               -0.74642281                3.27921795               -0.55637428                8.28251635               -7.72888643
              19.28161668                5.05858355               71.74577958                0.00010000                0.17882175               -0.94000394                1.74119435               -1.92288194               12.97552137               -9.43276147
              20.28729510                3.04385442               71.23358699                0.00010000                0.78374011               -1.20778709                0.10265172               -3.17935162               13.67931684              -12.54444498
              21.29729149                1.01152535               70.73558701                0.00010000                1.11381231               -0.90585965               -1.56761638               -4.12444176               14.87470205              -16.63861672
              22.30957134               -1.03382881               70.24733517                0.00010000                1.30341446               -0.42839010               -3.28452729               -4.61083811               15.51750084              -21.40834103
              23.32335978               -3.08453905               69.76224553                0.00010000                1.49207831                0.12632955               -5.01202177               -4.57943218               15.41403848              -26.68189563
              24.33941291               -5.13262811               69.27176944                0.00010000                1.80175480                0.70777660               -6.70604439               -4.11379585               14.49210888              -31.99985329
              25.35939487               -7.17258538               68.76778547                0.01612653                2.27371315                1.35503000               -8.35958548               -3.41421665               13.11579801              -35.89329466
              26.38488717               -9.20238573               68.24901162                0.11390697                2.86041621                3.32101853               -9.98905027               -1.84411667                9.87861331              -25.62806548
              27.41660320              -11.22255053               67.67909510                0.59626290                3.17160249                4.53951288              -11.73818740                0.78697130                7.40044914              -31.98592432
              19.27555350               10.02662358               72.67302087                0.58089335               -1.06156441               -1.72784523                4.71280188               -0.13480755                0.07731154                9.91823461
              20.26493786                8.05248706               71.94020788                0.02985998               -1.29605439               -0.35527767                2.25854556               -1.59372223               12.15849907              -10.11802858
              21.24963242                6.04532762               71.44939360                0.00010000               -0.94559093               -1.13175277                1.26727266               -4.85735729               24.77098785              -17.57726031
              22.24602604                4.01965491               70.96764381                0.00010000                0.10294460               -1.59076567               -0.93017819               -6.77986980               25.00597312              -24.42724362
              23.25169131                1.98782466               70.47851202                0.00010000                0.83946874               -1.55227571               -3.00884937               -8.03644353               24.50122247              -32.69764506
              24.26281542               -0.05365370               69.98546633                0.00010000                1.33754549               -1.14921854               -5.20797310               -8.84042408               23.96734550              -42.18864754
              25.27844222               -2.09890682               69.48524340                0.00010000                1.78909842               -0.55112511               -7.59686887               -8.66306494               23.26237169              -52.77525389
              26.29859738               -4.14086157               68.97865148                0.00010000                2.25503209                0.18736624              -10.35758220               -7.46783123               23.63159016              -64.05473958
              27.32354286               -6.17325637               68.48796973                0.00010000                3.58569058                1.30341059              -14.18215978               -4.09869821               37.25263343              -74.75333798
              28.37031120               -8.16904816               68.25876371                0.02505304                6.49276757                3.15853663              -24.91794573               -0.43963590               34.26615240              -87.67259229
              29.45339821              -10.17076660               67.70707445                0.53767118                8.30870154                4.24239933              -26.45261561                2.34670339               19.13536245             -104.83588467
              21.24144611               11.01042111               72.46908048                0.57795982               -0.83059289               -1.51146413                4.14701721               -0.11657410                0.12322556                9.38019856
              22.23314018                9.05014751               71.64545619                0.02640591               -1.20722098               -0.13508949                1.37946925               -2.59093151               17.80497870               -8.81671967
              23.21730169                7.03594849               71.17576197                0.00010000               -1.19697599               -0.37616156                0.08921485               -5.66680031               35.60180381              -16.00830597
              24.20920066                5.01203911               70.70499773                0.00010000               -0.37152313               -0.15420170               -2.05380372               -6.76920535               35.33201653              -23.58083777
              25.20987123                2.98047984               70.22604584                0.00010000                0.51468372                0.01093181               -4.47974547               -7.71900626               34.37395443              -31.56862230
              26.21949434                0.94318682               69.73247958                0.00010000                1.37175580                0.44960204               -7.13433370               -8.14562185               32.82083391              -40.59596552
              27.23730634               -1.09556155               69.22027959                0.00010000                2.24557487                1.10964332              -10.12539584               -7.68595021               30.97164155              -50.90481205
              28.26440583               -3.12888079               68.68894650                0.00010000                3.41505799                1.95881698              -13.66902085               -5.91728002               29.91146829              -62.96186855
              29.30560750               -5.14651717               68.15651200                0.00010000                5.45994241                3.03952346              -18.41739874               -2.48086799               26.77317126              -78.84724460
              30.37360468               -7.13921499               67.56418251                0.02651269                8.06833123                3.10452125              -23.14869691               -0.01915538               16.94876614             -112.48857437
              31.46697413               -9.13770255               66.83426641                0.53835852                9.33694468                3.85005800              -27.12922307                0.37631577               10.37798289             -136.92472671
              23.19376923               11.99639430               72.26851100                0.57540628               -0.61773814               -1.30329377                3.60898036               -0.11310565                0.12221902                9.61636393
              24.18759185               10.04978527               71.35394883                0.02286269               -0.96822114                0.07281926                0.49936164               -3.16941145               23.49215358               -8.52923737
              25.17440481                8.03780439               70.90701207                0.00010000               -1.07406291                0.54326935               -0.92338318               -6.50713654               46.90181756              -15.11291997
              26.16611059                6.01657088               70.45576532                0.00010000               -0.41206692                0.94305083               -3.23441224               -7.19523970               46.26653022              -21.92667315
              27.16616347                3.98804329               69.98980466                0.00010000                0.49168873                1.33923407               -5.91114744               -7.70301617               44.63319650              -29.39284596
              28.17594437                1.95533834               69.50024633                0.00010000                1.53136770                1.85817519               -8.95093013               -7.76548004               42.06920087              -37.83186275
              29.19679082               -0.07671395               68.97818174                0.00010000                2.76315197                2.55018083              -12.42571847               -7.06322740               38.58193073              -47.72956291
              30.23120740               -2.10168523               68.41523985                0.00010000                4.37344421                3.35332269              -16.46974211               -5.37211127               33.66958738              -59.92591855
              31.28425971               -4.11246590               67.79263126                0.00010000                6.49530295                4.00535512              -20.99934962               -2.92820305               26.13161937              -76.51273405
              32.36111346               -6.10695774               67.07806047                0.02969269                8.68199640                4.21850019              -25.72536838               -0.98103028               14.59241691              -96.20876101
              33.45789964               -8.09376544               66.22538985                0.54005470                9.67861714                5.25737508              -29.38442120               -0.10556823                7.65459198             -116.71300857
              25.13240205               12.98435524               72.06990791                0.57253837               -0.40601886               -1.11036547                3.08175174               -0.11143385                0.13807608                9.74384923
              26.12834187               11.05160389               71.06488967                0.01934785               -0.60143494                0.29586175               -0.37388837               -3.50251955               29.57597971               -8.33953909
              27.12037336                9.04681388               70.64879610                0.00010000               -0.66424522                1.17311222               -1.91745170               -7.01815561               58.95920361              -13.85326376
              28.11505696                7.03090013               70.22459469                0.00010000               -0.16649572                1.79764048               -4.34455428               -7.52480219               57.95790724              -19.74919611
              29.11704344                5.00726452               69.77959994                0.00010000                0.69425093                2.35589877               -7.22892025               -7.75449975               55.67747895              -26.30791065
              30.12894198                2.98035033               69.30127371                0.00010000                1.80109611                3.00140631              -10.57020314               -7.53127814               52.05897330              -33.87636263
              31.15306536                0.95544207               68.77594213                0.00010000                3.18867873                3.78139926              -14.43147854               -6.72261571               46.87094355              -42.91271213
              32.19271555               -1.06181433               68.18670575                0.00010000                4.96252948                4.62731703              -18.86250978               -5.27957658               39.63882652              -54.09927971
              33.25231595               -3.06641007               67.51101355                0.00010000                7.12840293                5.40135805              -23.81914093               -3.32060038               29.68531607              -67.89665297
              34.33528361               -5.05484499               66.71968021                0.03294421                9.30811026                6.19331076              -29.03983641               -1.40666628               16.19255208              -84.43820071
              35.43847816               -7.03255505               65.77615989                0.54180499               10.31945450                7.16580614              -33.11374726               -0.18874582                8.26241560             -103.18235919
              27.05704324               13.97418699               71.87240144                0.57015246               -0.19604258               -0.92754301                2.55943724               -0.11100194                0.14459137                9.77675378
              28.05508281               12.05570251               70.77710708                0.01593918               -0.11488896                0.52896817               -1.24575841               -3.69830820               36.22597391               -8.25639591
              29.05474546               10.06126663               70.40353815                0.00010000                0.00405472                1.64621269               -2.87094967               -7.29998088               72.13502291              -12.37982379
              30.05516391                8.05252369               70.01753998                0.00010000                0.34389057                2.38419306               -5.34784729               -7.70224951               70.73729687              -17.01868639
              31.06162327                6.03516127               69.60439232                0.00010000                1.09886723                3.05161460               -8.35887359               -7.66616147               67.82447398              -22.38722055
              32.07714125                4.01536647               69.14837410                0.00010000                2.14399475                3.84296411              -11.91797423               -7.18240722               63.22802248              -28.75847159
              33.10450317                1.99891403               68.63178204                0.00010000                3.51633773                4.79789946              -16.09369606               -6.28471622               56.65553084              -36.48996531
              34.14746801               -0.00913889               68.03346277                0.00010000                5.31875945                5.85562965              -20.95683186               -4.97729483               47.64266374              -46.02553099
              35.21087836               -2.00443874               67.32744258                0.00010000                7.58285532                6.94956388              -26.50294075               -3.22894573               35.59983823              -57.87920053
              36.29912511               -3.98309152               66.48311604                0.03581985                9.93332376                8.08128417              -32.52489140               -1.37087372               19.44158154              -72.63587411
              37.40954483               -5.95044931               65.45715987                0.54365658               11.04197173                9.20150404              -37.07458575               -0.11287251                9.80887320              -90.88316378
              28.96715098               14.96580438               71.67488444                0.56748946                0.01450775               -0.75177782                2.03728431               -0.11356866                0.15518598                9.69934887
              29.96729606               13.06218326               70.48960932                0.01277766                0.52007876                0.77182937               -2.12221543               -3.84288483               43.62279533               -8.26260110
              30.97755256               11.07973813               70.17371386                0.00010000                0.99106362                1.93894605               -3.75957817               -7.40803414               86.76855429              -10.66118821
              31.98711733                9.07858399               69.84035691                0.00010000                1.16624363                2.61994867               -6.19602815               -7.64187674               84.92241252              -13.72875837
              33.00087743                7.06829681               69.47296280                0.00010000                1.72118683                3.36213425               -9.23569156               -7.20961746               81.38293062              -17.66897462
              34.02154107                5.05720961               69.05354808                0.00010000                2.54994802                4.35726400              -12.91470531               -6.43634938               75.93002616              -22.58830809
              35.05187639                3.05140005               68.56184068                0.00010000                3.74906791                5.55501571              -17.32623614               -5.44725730               68.20233788              -28.69553520
              36.09652243                1.05529826               67.97321293                0.00010000                5.49066409                6.89946222              -22.58555623               -4.23517977               57.61604865              -36.37526159
              37.16168967               -0.92741879               67.25703189                0.00010000                7.86771427                8.31789071              -28.75598393               -2.68072308               43.39781689              -46.26499195
              38.25387671               -2.89321931               66.37644315                0.03900033               10.46233068                9.73254508              -35.68284686               -1.03589806               23.86083376              -59.42624508
              39.37093629               -4.84852497               65.27336621                0.54549645               11.70595733               11.05070376              -40.70434885                0.05530023               12.00107380              -77.30464592
              30.86201411               15.95915143               71.47616981                0.56474521                0.22772538               -0.57810696                1.50854781               -0.11789458                0.20707385                9.63887385
              31.86429136               14.07113909               70.20155091                0.00969124                1.40849698                1.02253640               -3.00715500               -4.05784660               51.98361793               -8.48259337
              32.89018405               12.10004555               69.96241748                0.00010000                2.47381687                1.83464042               -4.54936074               -7.39891471              103.23244181               -8.43448575
              33.91376770               10.10492266               69.69943789                0.00010000                2.43106272                2.28635667               -6.83414915               -6.95094765              100.78664588               -9.76661978
              34.93880530                8.10240395               69.39364129                0.00010000                2.57716606                3.28934856               -9.78992191               -6.01136496               96.56657926              -12.22931536
              35.96531102                6.10251175               69.02726263                0.00010000                2.93320342                4.56234808              -13.47274480               -5.02627027               90.40761291              -15.54019998
              36.99746937                4.11001435               68.57919135                0.00010000                3.81361199                6.02513782              -18.00100818               -4.07195291               81.78942503              -19.78324098
              38.04158326                2.12885036               68.02186278                0.00010000                5.41560461                7.63576616              -23.54493472               -3.03851271               69.85694118              -25.27472978
              39.10578146                0.16191908               67.31855247                0.00010000                7.89650334                9.35103608              -30.26625850               -1.79269022               53.38496820              -32.65483220
              40.19951333               -1.78844062               66.42094586                0.04196598               10.77403464               11.01068652              -38.11495273               -0.55368955               29.66705187              -43.38622886
              41.32126215               -3.72943524               65.24653048                0.54723544               12.17488285               12.54411451              -43.53166629                0.19985592               14.97653035              -60.75688093
              32.74081777               16.95424224               71.27765086                0.56213931                0.44272388               -0.39444712                0.97930840               -0.12144940               -0.17963602                8.39673131
              33.74524501               15.08263398               69.90948440                0.00681300                2.74864635                1.26904342               -3.91703290               -4.62505823               61.63886201               -7.72273380
              34.79579070               13.11643094               69.77756143                0.00010000                5.02474839                0.40903217               -5.17920082               -5.85984280              122.11923059               -4.81777140
              35.84573998               11.12431112               69.60298854                0.00010000                4.36351729                1.57653691               -7.19062927               -4.71977136              118.33077893               -5.11134640
              36.88306105                9.13408378               69.37368220                0.00010000                3.38326457                3.00125948               -9.95014822               -3.55051462              113.39322273               -6.23353176
              37.91340527                7.14845657               69.07772631                0.00010000                3.05188384                4.57809977              -13.50683987               -2.81218536              106.83962733               -7.88015356
              38.94409872                5.17190281               68.69430880                0.00010000                3.52210871                6.25757075              -17.99692904               -2.18075386               97.76131254              -10.05453070
              39.98384745                3.20801358               68.19391610                0.00010000                4.95140627                8.04243871              -23.63742845               -1.53101215               85.02680947              -12.94896240
              41.04312685                1.25960193               67.53475554                0.00010000                7.51548960                9.92908217              -30.70516834               -0.79128937               66.72693978              -17.00632508
              42.13415724               -0.67300558               66.65332370                0.04522061               10.68978950               11.81317108              -39.40163075               -0.13319170               37.82866453              -23.17567610
              43.25692264               -2.59764268               65.41650532                0.54898121               12.27654006               13.39631786              -45.00728414                0.14544497               19.20755527              -37.15388910
              34.60280163               17.95126249               71.05417344                0.78015646                0.67998669               -0.29797441                0.34080321                0.72413224                3.81739434                7.15181875
              35.60960149               16.09651996               69.63642486                0.50243226                6.42542145                1.38859792               -4.75502185               -5.71616683               74.91414896               -6.76131589
              36.73131005               14.10822620               69.64038682                0.45375148                9.60589704               -0.82047453               -5.50887368               -4.45139288              142.75292595               -2.66215768
              37.80171943               12.13645340               69.55812193                0.44265499                5.61697524                1.21422767               -7.18392310               -1.69190733              136.75564266               -2.72589184
              38.84364956               10.16242914               69.41796177                0.43872259                3.47644243                2.83453633               -9.64913064               -1.06013152              131.75298429               -3.24951667
              39.87124828                8.19407374               69.20977915                0.44138914                2.53238602                4.56171703              -12.95044690               -0.57886800              125.31694348               -4.09337281
              40.89429728                6.23516576               68.91368423                0.45078093                2.60078085                6.32629514              -17.23287782               -0.19887484              116.44602488               -5.23993888
              41.92326390                4.28969913               68.49996835                0.46705864                3.83387775                8.16855469              -22.74169821                0.20839318              103.86529304               -6.80225406
              42.97097483                2.36050072               67.92490050                0.49107356                6.54150993               10.08987905              -29.80689796                0.69098207               85.48426816               -9.07904588
              44.05409410                0.44782280               67.12192016                0.52379434               10.12352094               12.08283752              -38.91597778                0.89320591               52.66468371              -12.41637269
              45.17344525               -1.46150888               65.88657704                0.77501844               11.93511562               13.61337942              -44.40973975                0.71909346               30.30133578              -23.29571450
              15.86407298                8.36413651               74.16495222                0.81440446               -1.58746906               -1.77580794                6.03091269               -0.45688724               -5.21607943                5.72135528
              16.84819829                6.27540157               73.54504186                0.55852867               -1.56351258               -1.03146172                4.07256853               -0.53283627               -7.34437592               -4.33423556
              17.83280273                4.17808164               72.88303303                0.48884426               -1.38965002               -0.56223274                1.99777712               -0.50041184               -7.61773678               -0.44698661
              18.82040529                2.06327900               72.25851445                0.45783653               -0.92242927                0.00676240                0.02687010               -0.43929921               -5.18765645               -0.47820894
              19.81435414               -0.06913719               71.64554022                0.44227771               -0.17189653                0.56913289               -1.99535553               -0.36945211               -4.14227329               -0.28284206
              20.81696736               -2.21461498               71.04194400                0.44122918                0.75523909                1.14742215               -4.06590263               -0.31402139               -3.50678200               -0.09293857
              21.82945892               -4.36527064               70.44143931                0.45496327                1.72025804                1.72297632               -6.15932909               -0.29180469               -3.58294509                0.10472223
              22.85137252               -6.51305087               69.83593877                0.48393060                2.57971385                2.28266287               -8.22926944               -0.29535741               -4.40296466                0.30315226
              23.88105320               -8.65249810               69.21848476                0.52824611                3.26800178                2.83055497              -10.26426050               -0.29749717               -6.04489656                0.39067391
              24.91673255              -10.78168044               68.57934626                0.58994290                3.81943566                3.37283832              -12.30674106               -0.29833229               -6.57253793                1.18791009
              25.95744191              -12.90197892               67.95032999                0.81979729                4.07093600                3.97513924              -14.31315432               -0.67561449               -6.01089117               -4.27147930
              17.94823904                9.34637843               73.91588252                0.60062020               -1.23416840               -1.82472645                5.27085394               -0.26809324                3.78709843                8.38247166
              18.93589736                7.26508695               73.29074849                0.06926139               -0.71895739               -0.75299131                3.32796418               -0.58039851                8.65448622               -8.01969474
              19.93385989                5.17245932               72.76329284                0.00010000                0.18621782               -1.08323582                1.76384259               -1.92765867               13.48766432               -9.58743366
              20.93962171                3.06334663               72.23455223                0.00010000                0.78733584               -1.18580204                0.08899839               -3.12538505               14.12096551              -13.12587609
              21.94960661                0.93655413               71.71969557                0.00010000                1.11360770               -0.85399198               -1.60941950               -4.03614338               15.27195749              -17.57803533
              22.96189387               -1.20314076               71.21406837                0.00010000                1.30761069               -0.35232551               -3.36170296               -4.49759954               15.88533863              -22.74515947
              23.97575882               -3.34804088               70.71151162                0.00010000                1.50694013                0.21629598               -5.12879742               -4.46490525               15.79553489              -28.50779944
              24.99203267               -5.49022425               70.20389782                0.00010000                1.83170939                0.80019119               -6.86275727               -4.03538037               14.90906613              -34.52055886
              26.01239301               -7.62419255               69.68317262                0.00680153                2.32284852                1.42546570               -8.55913137               -3.42482213               13.56136766              -39.68194440
              27.03848964               -9.74795206               69.14785607                0.09800328                2.92956164                3.32599350              -10.22746075               -1.85754357               10.27159307              -34.58730524
              28.07098424              -11.86222753               68.56020197                0.58575340                3.24946041                4.56283924              -12.01126681                1.13693479                7.72682381              -41.58919700
              20.02129406               10.32764198               73.72053176                0.57156148               -1.07846298               -1.76409513                4.78238431               -0.13403672                0.05239297               10.31581198
              21.01050943                8.26034175               72.96302971                0.01987804               -1.26520888               -0.35318773                2.30213565               -1.77029381               12.80496166              -10.48068280
              21.99598988                6.15641693               72.46089573                0.00010000               -0.83533316               -1.17182604                1.03603242               -4.86118858               25.59484534              -18.11348953
              22.99380277                4.03956296               71.95758016                0.00010000                0.20643869               -1.55455648               -1.07670625               -6.54750342               25.34689751              -25.59365411
              24.00011866                1.91378297               71.44772182                0.00010000                0.89038072               -1.45666750               -3.14450510               -7.84398227               24.83733805              -34.55803038
              25.01161038               -0.22166149               70.93275093                0.00010000                1.35628253               -1.02625311               -5.33119117               -8.58517584               24.18235064              -44.83386953
              26.02724431               -2.36094472               70.40872189                0.00010000                1.76030980               -0.41735550               -7.70127309               -8.38402966               23.25449342              -56.36740219
              27.04681658               -4.49704705               69.87457028                0.00010000                2.15201317                0.31142535              -10.44264151               -7.22716841               22.99894590              -68.89813916
              28.07028457               -6.62398878               69.34539285                0.00010000                3.54000412                1.37716955              -14.27527511               -3.96618476               32.39842599              -81.51390144
              29.11761666               -8.71516057               68.99965831                0.01463993                6.92234866                3.12854095              -25.98675248               -0.30227292               30.05926053              -96.63018147
              30.20873154              -10.81072213               68.42237358                0.53077208                9.11148834                4.18089869              -29.67351168                2.60565764               18.99478391             -115.44595461
              22.08015877               11.31109652               73.51087198                0.56883026               -0.84422390               -1.54375602                4.20458434               -0.11613482                0.12313394                9.74980684
              23.07171653                9.25802320               72.65943324                0.01599255               -1.13719326               -0.13244515                1.41549031               -2.68751076               18.44979334               -9.10990875
              24.05741491                7.14902279               72.17478272                0.00010000               -1.02054640               -0.21987675               -0.22308639               -5.68515475               36.58829497              -16.77523335
              25.05130560                5.03225550               71.68304408                0.00010000               -0.17317464               -0.09847307               -2.31636814               -6.62352943               35.87375419              -24.77643410
              26.05395141                2.90742078               71.18013863                0.00010000                0.68062181                0.09209759               -4.69004033               -7.50183153               34.67523393              -33.40440906
              27.06491804                0.77633418               70.66032578                0.00010000                1.47561893                0.53828365               -7.28720944               -7.84873610               32.88822429              -43.18288839
              28.08346379               -1.35638799               70.11858290                0.00010000                2.28076600                1.18792593              -10.20184838               -7.31126892               30.66928495              -54.36686647
              29.11053336               -3.48399574               69.55222276                0.00010000                3.38595224                2.00035534              -13.65021738               -5.50118561               28.79566012              -67.40645055
              30.15118284               -5.59664916               68.97196593                0.00010000                5.43220854                3.00445089              -18.37484673               -2.06159131               25.11226432              -84.00788497
              31.21917753               -7.68538124               68.33197529                0.01649580                8.15188414                2.91332951              -23.15287981                0.34712023               15.56915739             -114.59988101
              32.31422052               -9.77860955               67.56164943                0.53144083                9.50429883                3.39427264              -27.13437765                0.35882749                9.05590528             -139.82204259
              24.12511801               12.29676686               73.30483961                0.56622824               -0.62850679               -1.33046094                3.65572579               -0.11046704                0.12510732               10.00968268
              25.11883295               10.25769284               72.35908625                0.01292209               -0.85317610                0.07547279                0.52800240               -3.22535853               24.22579707               -8.82108746
              26.10805449                8.15201939               71.89555574                0.00010000               -0.79493789                0.63559431               -1.29123414               -6.50865993               48.04755316              -15.79092016
              27.10293419                6.03759350               71.42153024                0.00010000               -0.10255755                1.01310253               -3.57482193               -7.06343753               46.91915934              -23.10590132
              28.10600334                3.91562492               70.92922577                0.00010000                0.77551234                1.38487314               -6.18341437               -7.47936764               44.95617661              -31.14927831
              29.11844443                1.78910418               70.40977105                0.00010000                1.76727537                1.88181026               -9.12666301               -7.43994497               42.04445485              -40.27232850
              30.14134885               -0.33718621               69.85363268                0.00010000                2.93047983                2.52912546              -12.46403158               -6.64415586               38.11863087              -50.94087366
              31.17705403               -2.45703994               69.25116750                0.00010000                4.45446983                3.25250860              -16.31584503               -4.90584497               32.74670023              -63.90509955
              32.23043824               -4.56389977               68.58465309                0.00010000                6.47327142                3.77101303              -20.57481244               -2.55653177               24.92431438              -80.84334126
              33.30651946               -6.65689398               67.82503940                0.01921077                8.59632368                3.73224928              -24.89950217               -0.82757617               13.71134551             -100.83070404
              34.40236472               -8.74283668               66.93644088                0.53308105                9.58452584                4.43830470              -28.42208507               -0.23510717                7.10342045             -121.48119490
              26.15609746               13.28448731               73.10093223                0.56381964               -0.41406328               -1.13260331                3.11903630               -0.10942224                0.13797060               10.14827607
              27.15195683               11.25953266               72.06123761                0.00984485               -0.43782051                0.29897189               -0.35428474               -3.53770368               30.41153648               -8.62932216
              28.14734105                9.16173468               71.62716601                0.00010000               -0.27627507                1.22720080               -2.32163779               -7.01288828               60.30484654              -14.51912177
              29.14643133                7.05251755               71.17889456                0.00010000                0.27561623                1.83567817               -4.74602488               -7.42859702               58.76730972              -20.85126875
              30.15285338                4.93511825               70.70552010                0.00010000                1.12494690                2.35496776               -7.55538149               -7.55454307               56.06917856              -27.92476512
              31.16893027                2.81397039               70.19444012                0.00010000                2.19357137                2.94670506              -10.76920419               -7.22483734               52.00928469              -36.09202905
              32.19672480                0.69419452               69.63147448                0.00010000                3.50998781                3.64888155              -14.43330168               -6.33090404               46.32783280              -45.80375438
              33.23913002               -1.41894557               68.99947762                0.00010000                5.15907181                4.38003026              -18.55874290               -4.87726617               38.60067412              -57.68874349
              34.29990624               -3.52122890               68.27672150                0.00010000                7.12164510                4.98577179              -23.04666896               -3.08947600               28.30785398              -72.19039987
              35.38156292               -5.61073625               67.43702377                0.02196949                9.07487674                5.54164294              -27.59750159               -1.41620821               15.15413444              -89.35862948
              36.48140377               -7.68984346               66.45420782                0.53476287                9.98408510                6.31071812              -31.40012593               -0.43656130                7.65759484             -108.60873894
              28.17283887               14.27411479               72.89813006                0.56132454               -0.20073720               -0.94609466                2.58341717               -0.10865083                0.14757983               10.18500439
              29.17083150               12.26367228               71.76469707                0.00657575                0.09864828                0.53447826               -1.23409190               -3.72837626               37.19103612               -8.54978607
              30.17481183               10.17656341               71.37222415                0.00010000                0.50735913                1.66619211               -3.29919397               -7.30780983               73.73982224              -13.01372829
              31.18097868                8.07430706               70.96149993                0.00010000                0.93239021                2.37467104               -5.80157164               -7.64868027               71.77744744              -18.01241980
              32.19345964                5.96272427               70.51869087                0.00010000                1.69463681                2.99113017               -8.73955197               -7.51655351               68.36238081              -23.80356442
              33.21487142                3.84803829               70.02784790                0.00010000                2.70935402                3.71045552              -12.14933601               -6.93433917               63.22467193              -30.67554771
              34.24764672                1.73579143               69.47073727                0.00010000                4.00303529                4.56396417              -16.07618044               -5.97197415               56.04153555              -38.99068752
              35.29493212               -0.36943934               68.82584545                0.00010000                5.63963457                5.48277084              -20.53512202               -4.68432170               46.38889154              -49.19861611
              36.36043941               -2.46418433               68.06777528                0.00010000                7.59388674                6.39928731              -25.44325779               -3.13680057               33.84104609              -61.80686964
              37.44680986               -4.54606112               67.16858151                0.02499011                9.57042445                7.32323508              -30.52845391               -1.51035063               18.07330968              -77.33320117
              38.55184790               -6.61662232               66.09912683                0.53646013               10.50380430                8.25617623              -34.69895808               -0.43831458                9.05275832              -96.09772002
              30.17480947               15.26556541               72.69532526                0.55890481                0.01312205               -0.76479707                2.04856159               -0.10981823                0.15914718               10.10722913
              31.17494069               13.27022222               71.46838391                0.00374772                0.78703026                0.77869782               -2.11973274               -3.88566260               44.75755127               -8.56602930
              32.19055007               11.19505852               71.13343966                0.00010000                1.61780840                1.91941812               -4.20217032               -7.45084637               88.72155701              -11.23816607
              33.20729686                9.10001097               70.77554968                0.00010000                1.91205052                2.55333242               -6.69906805               -7.63734320               86.28938669              -14.56945473
              34.22879108                6.99494085               70.37814444                0.00010000                2.49397367                3.23866467               -9.67654909               -7.11685691               82.16562759              -18.82500366
              35.25717633                4.88817950               69.92274866                0.00010000                3.29859308                4.15602703              -13.19627233               -6.26344560               76.06238864              -24.13051390
              36.29476294                2.78547380               69.38833404                0.00010000                4.41215067                5.24070694              -17.32292866               -5.23541460               67.58044259              -30.70805377
              37.34541934                0.69070985               68.74956016                0.00010000                5.95145339                6.42975401              -22.09886201               -4.06267829               56.16328331              -38.96376708
              38.41379201               -1.39324315               67.97589173                0.00010000                7.91872782                7.66081411              -27.47607533               -2.70571352               41.21644857              -49.55731735
              39.50379390               -3.46427155               67.03292989                0.02774522                9.99839306                8.87813737              -33.18636187               -1.26163782               22.13072367              -63.51747221
              40.61375987               -5.52471993               65.88208302                0.53815364               10.99659742                9.98398909              -37.73485780               -0.31152243               11.08096081              -81.87805015
              32.16132889               16.25881885               72.49126529                0.55650225                0.22962470               -0.58359887                1.50796771               -0.11577512                0.21254904               10.04310169
              33.16362514               14.27924624               71.17141733                0.00076700                1.73386363                1.02915459               -3.01511308               -4.13420402               53.34567987               -8.80537611
              34.19600616               12.21495177               70.91419825                0.00010000                3.23621760                1.75827065               -5.00323088               -7.49867855              105.64807170               -8.91222401
              35.22834949               10.12537371               70.62797498                0.00010000                3.34739052                2.15019234               -7.38698150               -6.98298134              102.59489764              -10.39733048
              36.26295397                8.02749757               70.29288676                0.00010000                3.53600327                3.10694143              -10.30112398               -5.96269364               97.70879670              -13.06227073
              37.29906955                5.93115883               69.89045250                0.00010000                3.87270511                4.30667094              -13.82933507               -4.92175610               90.79252748              -16.63143392
              38.34040807                3.84060556               69.39855795                0.00010000                4.66629776                5.65594801              -18.05829288               -3.95776288               81.27533090              -21.19975767
              39.39239551                1.75915574               68.78846368                0.00010000                6.04492345                7.10328839              -23.06790987               -2.97875619               68.30316564              -27.10655825
              40.46130654               -0.31096805               68.02282631                0.00010000                8.03291878                8.60666275              -28.86314563               -1.90114783               50.81931794              -35.04428931
              41.55305388               -2.36849838               67.05515947                0.03088728               10.26038352               10.06177060              -35.20858049               -0.80334341               27.59041529              -46.53457831
              42.66651421               -4.41694254               65.82920930                0.53988443               11.34603294               11.35522978              -40.09104073               -0.13778832               13.90896834              -64.25036240
              34.13163919               17.25389344               72.28737495                0.55406076                0.44844960               -0.39234676                0.96330927               -0.12264982               -0.18964255                8.74794298
              35.13612369               15.29080531               70.87019058                0.00010000                3.14049175                1.27579778               -3.93479300               -4.76676191               63.31456445               -8.02810377
              36.19444903               13.23022394               70.72298741                0.00010000                5.94838720                0.22620920               -5.64828182               -5.98617579              125.15396062               -5.10397458
              37.25509143               11.14301481               70.52766843                0.00010000                5.46515339                1.37848398               -7.79917543               -4.75674954              120.69924495               -5.46267484
              38.30375209                9.05707968               70.27087882                0.00010000                4.52708888                2.76939598              -10.54419732               -3.52491932              115.01240375               -6.67908465
              39.34563321                6.97431292               69.94000849                0.00010000                4.19293383                4.27954663              -13.96611152               -2.76285129              107.60792805               -8.45272918
              40.38761077                4.89859276               69.51305078                0.00010000                4.58923105                5.85085521              -18.16940694               -2.14023276               97.50530385              -10.79089716
              41.43741783                2.83277562               68.95890777                0.00010000                5.79062004                7.47639909              -23.26872273               -1.54746484               83.53520458              -13.89696292
              42.50342317                0.77889011               68.23424717                0.00010000                7.81418444                9.14268383              -29.33996822               -0.92119364               63.88903593              -18.25239666
              43.59370152               -1.26303614               67.27573849                0.03389864               10.22346280               10.77665180              -36.25332833               -0.32695670               35.49059629              -24.97879050
              44.70789243               -3.29761534               65.98545024                0.54138926               11.41909087               12.17305560              -41.31369383               -0.05421812               18.09726037              -39.07604780
              36.08505214               18.25097191               72.05745620                0.77618719                0.69072597               -0.29215205                0.31189973                0.72032228                3.97375834                7.45218584
              37.09195940               16.30476219               70.58865164                0.49825834                6.95105033                1.39568793               -4.78736003               -5.99122714               77.10789401               -7.03816044
              38.22407314               14.21947595               70.58233480                0.45291782               10.71996778               -1.07479822               -6.01847670               -4.62852835              146.56153771               -2.83809568
              39.30635875               12.15294339               70.48252208                0.44234005                6.85421698                0.99285765               -7.86192892               -1.70279125              139.76675123               -2.93577114
              40.36115748               10.08288549               70.31767885                0.43879845                4.79703457                2.58058067              -10.33824555               -1.06914269              133.95127122               -3.50098953
              41.40229944                8.01674976               70.07695057                0.44122159                3.89916160                4.24368434              -13.53518527               -0.59651737              126.59136602               -4.40598322
              42.43914072                5.95762267               69.73913614                0.44992969                3.94247120                5.90299065              -17.57001877               -0.25030733              116.59273224               -5.63247914
              43.48114887                3.90868372               69.27264319                0.46516011                4.97768562                7.59081051              -22.58532705                0.08625183              102.61875061               -7.29659462
              44.53869443                1.87188563               68.63171803                0.48752412                7.09356620                9.29955242              -28.69917670                0.44467248               82.58530566               -9.70691810
              45.62302019               -0.15296534               67.74769824                0.51788813                9.79469088               11.00708008              -35.94799760                0.66351465               50.24697956              -13.42203491
              46.73458825               -2.17348142               66.45912738                0.77128785               11.15680533               12.41339136              -41.01942335                0.61797331               29.26031254              -24.33703738
              16.44080326                8.67503979               75.22569414                0.80803564               -1.61007112               -1.79918808                6.11124120               -0.46462540               -5.37604085                5.88151123
              17.42470255                6.48931755               74.58606611                0.55074048               -1.59695824               -1.04462307                4.12450076               -0.54902159               -7.55645271               -4.48442003
              18.40886410                4.29466834               73.90321756                0.48567570               -1.42039977               -0.56961618                2.03326059               -0.48711962               -7.83404967               -0.41149774
              19.39629455                2.08217090               73.25883845                0.45649853               -0.93211008                0.01002857                0.03918363               -0.43298846               -5.37787078               -0.47090631
              20.39022189               -0.14802568               72.62551531                0.44195477               -0.16807506                0.58087301               -2.00681146               -0.36895455               -4.38381465               -0.27533908
              21.39293305               -2.39119341               72.00109346                0.44110257                0.76779947                1.16544798               -4.10047621               -0.31999486               -3.79029867               -0.09427188
              22.40557788               -4.63948359               71.37948427                0.45400034                1.73945864                1.75059813               -6.22012186               -0.29762356               -3.87463617                0.09770864
              23.42772223               -6.88487216               70.75313527                0.48084516                2.60931352                2.32013572               -8.31919352               -0.30068050               -4.67540440                0.29039142
              24.45776415               -9.12191922               70.11513150                0.52206398                3.31050797                2.87868586              -10.39188455               -0.30290815               -6.31026970                0.36956904
              25.49393239              -11.34872995               69.45545838                0.57949443                3.86898641                3.42860789              -12.45754398               -0.30482915               -6.82591241                1.18629601
              26.53514388              -13.56673040               68.80630828                0.81284754                4.12114973                4.03523306              -14.48474688               -0.66964519               -6.25498898               -4.40613407
              18.62187925                9.65704791               74.96895928                0.58965674               -1.24811901               -1.85447131                5.33794786               -0.27754910                3.96940494                8.68321760
              19.60939806                7.47887132               74.32426313                0.05607015               -0.71565126               -0.75644448                3.37012893               -0.60525811                9.03094398               -8.30595761
              20.60756623                5.28897218               73.78105643                0.00010000                0.19568098               -1.15501945                1.77953573               -1.92426830               13.99671830               -9.85563321
              21.61331168                3.08227118               73.23536695                0.00010000                0.78241377               -1.14404564                0.07766294               -3.06728919               14.55937970              -13.75792818
              22.62321450                0.85778305               72.70339862                0.00010000                1.10751894               -0.78766654               -1.64996072               -3.93823526               15.67315118              -18.54726551
              23.63546206               -1.37953893               72.18010111                0.00010000                1.31132599               -0.26975496               -3.42809313               -4.36156741               16.24746932              -24.08995526
              24.64944102               -3.62197761               71.65966958                0.00010000                1.52355870                0.30787303               -5.23112373               -4.29985068               16.16290164              -30.30855290
              25.66593323               -5.86167080               71.13451429                0.00010000                1.86114754                0.88614329               -7.00599647               -3.84858158               15.30995041              -36.97904554
              26.68666397               -8.09313236               70.59660285                0.00010000                2.36782248                1.47957550               -8.74324522               -3.20569393               13.99827021              -43.36670047
              27.71328968              -10.31444388               70.04446241                0.08250988                2.98919506                3.14794719              -10.44698573               -1.63312122               10.66549131              -43.48388602
              28.74644787              -12.52637807               69.43886977                0.57532378                3.31581905                4.27986229              -12.25308772                1.44255334                8.05725756              -52.23999000
              20.79160547               10.63795037               74.76866855                0.56236539               -1.09323444               -1.79692592                4.84003975               -0.13081978                0.02706328               10.71142817
              21.78067312                8.47418866               73.98625060                0.00958010               -1.23133008               -0.34892661                2.33983973               -1.87775886               13.32747091              -10.83365807
              22.76697887                6.27156795               73.47011425                0.00010000               -0.72676114               -1.15941817                0.83660358               -4.85040772               26.34045508              -18.78357144
              23.76613790                4.05928998               72.94610969                0.00010000                0.31442171               -1.48554131               -1.20728780               -6.36694051               25.74448975              -26.86787622
              24.77326730                1.83622099               72.41562192                0.00010000                0.96622316               -1.34476712               -3.26702316               -7.64993965               25.19072266              -36.48364887
              25.78546236               -0.39658851               71.87884250                0.00010000                1.42227195               -0.89760663               -5.44358307               -8.30973093               24.41589441              -47.49548104
              26.80171274               -2.63332613               71.33121794                0.00010000                1.82214890               -0.29160339               -7.79274517               -8.06033671               23.27025071              -59.91142381
              27.82190534               -4.86714929               70.76979865                0.00010000                2.23553069                0.40318882              -10.49511232               -6.89994059               22.39515301              -73.61465086
              28.84642335               -7.09232771               70.20246423                0.00010000                3.63051628                1.35986200              -14.23762205               -3.85927174               27.49015847              -88.07255702
              29.89451567               -9.28577101               69.73902866                0.00461593                7.07199892                2.89250851              -25.26451014               -0.33953986               24.66142255             -105.38626646
              30.98786333              -11.48113315               69.11360422                0.52416251                9.33476643                3.90836846              -30.70934259                2.57858941               16.48765748             -125.87901463
              22.94678627               11.62110939               74.55317217                0.55978699               -0.85609698               -1.57113307                4.25324738               -0.11302935                0.12546399               10.12103099
              23.93822530                9.47189279               73.67376600                0.00618503               -1.06647619               -0.13147555                1.45020853               -2.73035206               18.96107567               -9.39480329
              24.92545675                7.26578381               73.17130025                0.00010000               -0.84527335               -0.09826240               -0.42594225               -5.66997037               37.44947028              -17.60029363
              25.92131983                5.05256036               72.65867037                0.00010000                0.03187263               -0.03438092               -2.53216303               -6.51051303               36.44596431              -26.06195710
              26.92609420                2.83088770               72.13224504                0.00010000                0.87473624                0.17276374               -4.87256258               -7.31362652               35.01453333              -35.29999068
              27.93881456                0.60250894               71.58673539                0.00010000                1.63504343                0.61829714               -7.41896658               -7.58666002               32.99856944              -45.78125894
              28.95879507               -1.62780968               71.01624262                0.00010000                2.40607190                1.24515614              -10.25490006               -7.00308568               30.42854714              -57.77605597
              29.98693600               -3.85360702               70.41594215                0.00010000                3.46525949                2.00536034              -13.58418643               -5.24548905               27.75857866              -71.71140916
              31.02810026               -6.06593512               69.78901507                0.00010000                5.41841656                2.91197097              -18.10774564               -2.02679674               23.47740683              -88.92236637
              32.09530433               -8.25659371               69.10112491                0.00632468                8.03218425                2.85753521              -22.83543491                0.33806703               14.24283557             -116.28657229
              33.18874394              -10.44821070               68.29157886                0.52499576                9.34396149                3.25927140              -26.64332530                0.30338792                7.86860397             -141.27610754
              25.08777810               12.60652771               74.34162552                0.55751046               -0.63864341               -1.35395406                3.69716344               -0.10863445                0.12531661               10.40555284
              26.08139166               10.47155915               73.36450888                0.00345277               -0.74331042                0.07569250                0.55643556               -3.24057452               24.80599420               -9.10639759
              27.07291189                8.26960270               72.88118739                0.00010000               -0.52839572                0.69896123               -1.52554687               -6.48000982               49.03586345              -16.53142232
              28.07082375                6.05860236               72.38426888                0.00010000                0.20671493                1.06723514               -3.83936501               -6.95986073               47.58742261              -24.35734454
              29.07704619                3.83967626               71.86613638                0.00010000                1.08013994                1.42082067               -6.40899666               -7.30188369               45.32290771              -32.96041369
              30.09242655                1.61577743               71.31771307                0.00010000                2.03603992                1.89619787               -9.26607355               -7.18702682               42.08496938              -42.72537242
              31.11776699               -0.60842301               70.72890111                0.00010000                3.13472264                2.50360381              -12.46709342               -6.35150347               37.76056185              -54.10036633
              32.15512100               -2.82704208               70.08892295                0.00010000                4.55535580                3.16699353              -16.11730106               -4.65596288               31.99094519              -67.73756288
              33.20887410               -5.03408829               69.38113501                0.00010000                6.42157925                3.62974311              -20.12109822               -2.43758020               23.98094574              -84.88477456
              34.28355259               -7.22862031               68.58007043                0.00921740                8.41454861                3.55170049              -24.12785898               -0.81418926               13.05676716             -104.94824771
              35.37716507               -9.41594772               67.65694815                0.52641382                9.36124888                4.03974608              -27.52105180               -0.30684094                6.67421667             -125.73020765
              27.21455070               13.59403031               74.13228863                0.55529652               -0.42118820               -1.15168330                3.14629869               -0.10823156                0.13686061               10.55118083
              28.21033882               11.47340664               73.05780397                0.00081948               -0.28686816                0.30006704               -0.33006817               -3.54247446               31.08253651               -8.91152570
              29.20881333                9.27976304               72.60236335                0.00010000                0.08551229                1.25578534               -2.57736683               -6.98372104               61.46618886              -15.23233231
              30.21204906                7.07390506               72.12967419                0.00010000                0.70340612                1.85089016               -5.05090658               -7.35182651               59.57321331              -22.01710407
              31.22288146                4.85930412               71.62849231                0.00010000                1.55621161                2.33946887               -7.81527595               -7.39977163               56.50245466              -29.59247433
              32.24317329                2.64043290               71.08588962                0.00010000                2.58515300                2.88847675              -10.91396868               -6.99399884               52.03953120              -38.32321911
              33.27458452                0.42226240               70.48727609                0.00010000                3.81543626                3.53318674              -14.38700053               -6.05653536               45.93172615              -48.64984213
              34.31948202               -1.79026715               69.81553089                0.00010000                5.31711807                4.19241681              -18.22788556               -4.62579161               37.82511672              -61.13698805
              35.38092688               -3.99334026               69.05008017                0.00010000                7.06989794                4.71709637              -22.32137004               -2.96017136               27.34624605              -76.19744439
              36.46087998               -6.18555970               68.16773018                0.01173205                8.81675405                5.14793233              -26.38905309               -1.41941718               14.45978907              -93.82792361
              37.55726196               -8.36741578               67.14815737                0.52794788                9.63819816                5.78344083              -29.96908790               -0.56839375                7.24948752             -113.50170524
              29.32686082               14.58349404               73.92406978                0.55313670               -0.20513713               -0.96082947                2.60055523               -0.11005772                0.14872271               10.59017059
              30.32480945               12.47756049               72.75242525                0.00010000                0.29391125                0.53678866               -1.21725459               -3.73908786               37.98310059               -8.83495050
              31.33273905               10.29471841               72.33755427                0.00010000                0.97183448                1.66188357               -3.57093747               -7.29678662               75.13736798              -13.68133190
              32.34424614                8.09562017               71.90150854                0.00010000                1.48919361                2.34073926               -6.14213595               -7.60507716               72.78852133              -19.05942458
              33.36252292                5.88646564               71.42960128                0.00010000                2.26710769                2.91483635               -9.03432728               -7.39818233               68.92994567              -25.26721693
              34.38958829                3.67354697               70.90538738                0.00010000                3.24067040                3.57809189              -12.30672334               -6.73994796               63.30425084              -32.61243366
              35.42733633                1.46224072               70.31025843                0.00010000                4.43097646                4.35779512              -15.99391710               -5.73257430               55.60357940              -41.45842080
              36.47820782               -0.74319375               69.62276033                0.00010000                5.88134466                5.18359197              -20.08144739               -4.46193507               45.47201774              -52.24875952
              37.54496322               -2.93974636               68.81857742                0.00010000                7.55159690                5.98620485              -24.45781700               -3.03729381               32.63837239              -65.46883980
              38.62923976               -5.12566166               67.87254696                0.01442891                9.22730704                6.77064930              -28.86471746               -1.55563102               17.16880948              -81.56113045
              39.72950936               -7.30027891               66.76318071                0.52955548               10.02695998                7.56236681              -32.72243533               -0.61236029                8.55936112             -100.74794989
              31.42421664               15.57481372               73.71585567                0.55057765                0.01160452               -0.77651267                2.05367187               -0.11212148                0.16080032               10.51290869
              32.42433269               13.48414241               72.44721466                0.00010000                1.03006391                0.78322050               -2.10919784               -3.91752301               45.71385427               -8.86260498
              33.44481792               11.31300071               72.08967045                0.00010000                2.19337995                1.87674594               -4.48827872               -7.47868892               90.44242110              -11.83446215
              34.46820029                9.12071984               71.70637555                0.00010000                2.60865429                2.46185680               -7.07510976               -7.63344296               87.59362893              -15.45103277
              35.49699101                6.91760084               71.27943182                0.00010000                3.21994794                3.09792588              -10.01301748               -7.03721562               82.95363697              -20.02263866
              36.53259925                4.71199473               70.78962263                0.00010000                3.98413693                3.95381342              -13.38260871               -6.11402294               76.26414632              -25.69647494
              37.57667375                2.50941830               70.21538211                0.00010000                4.98155782                4.95308625              -17.23148381               -5.04807848               67.14257394              -32.70366933
              38.63223040                0.31340469               69.53123569                0.00010000                6.29875841                6.02826625              -21.55914442               -3.89320332               55.10006141              -41.45737896
              39.70264891               -1.87361616               68.70751038                0.00010000                7.90347490                7.12121060              -26.26891110               -2.65212916               39.72527655              -52.61232520
              40.79029990               -4.05014671               67.71271592                0.01733436                9.58001662                8.18604364              -31.08857457               -1.34267021               20.97806879              -67.12321027
              41.89424925               -6.21616844               66.51866905                0.53119560               10.39493456                9.12345980              -35.23889523               -0.51054801               10.47508365              -85.85039321
              33.50596102               16.56796379               73.50632916                0.54842428                0.23109834               -0.59017671                1.50213457               -0.11503806                0.21598770               10.44553098
              34.50827200               14.49322490               72.14124865                0.00010000                2.03134062                1.03475943               -3.01348425               -4.20596536               54.52627308               -9.12203349
              35.54658783               12.33225333               71.86235286                0.00010000                3.93525703                1.66070965               -5.30434358               -7.58967269              107.80644917               -9.39583666
              36.58697714               10.14485730               71.55169826                0.00010000                4.19579415                1.98953393               -7.80280422               -7.00979994              104.29838586              -11.05433291
              37.63050371                7.94842416               71.18761881                0.00010000                4.42566179                2.90545758              -10.69109684               -5.91280058               98.81787064              -13.92731600
              38.67549038                5.75262324               70.75067592                0.00010000                4.72305430                4.04545899              -14.06823122               -4.81645388               91.21297779              -17.74746230
              39.72496480                3.56130245               70.21802550                0.00010000                5.39439174                5.30441897              -17.99791670               -3.83099439               80.92529959              -22.61634088
              40.78337821                1.37737158               69.56050458                0.00010000                6.52536159                6.62450643              -22.50210280               -2.87499266               67.16088155              -28.88241913
              41.85547203               -0.79732215               68.74128956                0.00010000                8.07802098                7.96392144              -27.50755217               -1.89422145               49.06338432              -37.25243483
              42.94493863               -2.96194079               67.71677425                0.01987654                9.79349131                9.25132781              -32.73503164               -0.90106848               26.19417324              -49.21921966
              44.05134186               -5.11780971               66.44470966                0.53266707               10.64032251               10.35433654              -37.14298719               -0.32713789               13.19088375              -67.16982777
              35.57139366               17.56301019               73.29691704                0.54602540                0.45301836               -0.39100415                0.94371557               -0.12101439               -0.19789349                9.09571607
              36.57592384               15.50483760               71.83078854                0.00010000                3.49992029                1.28048688               -3.94075668               -4.90932571               64.80279092               -8.32660070
              37.64139206               13.34621490               71.66459579                0.00010000                6.79548100                0.02580885               -5.97091002               -6.11222692              127.90007113               -5.38965337
              38.71183346               11.16051052               71.44700503                0.00010000                6.47884995                1.15866860               -8.26440993               -4.78858214              122.91344781               -5.82438348
              39.77096906                8.97571000               71.16279825                0.00010000                5.57792070                2.51925761              -11.00310400               -3.49319165              116.54829264               -7.14297819
              40.82339188                6.79290391               70.79840408                0.00010000                5.21682281                3.97233361              -14.28497919               -2.70376926              108.35821958               -9.04380580
              41.87530552                4.61550668               70.33092066                0.00010000                5.49816373                5.45215101              -18.18801198               -2.07572977               97.36001882              -11.53660975
              42.93335515                2.44589482               69.72854165                0.00010000                6.43856663                6.94624065              -22.75713103               -1.50828048               82.42673323              -14.82839292
              44.00407685                0.28566227               68.94795618                0.00010000                7.97054715                8.43713898              -27.95401515               -0.94305507               61.94137142              -19.41079770
              45.09276609               -1.86512015               67.92825713                0.02297436                9.76837432                9.87016899              -33.52519686               -0.40291352               33.89504228              -26.45548677
              46.19944434               -4.00908171               66.59023144                0.53427704               10.66782444               11.11028995              -38.08658944               -0.17358743               17.30903245              -40.60676708
              37.61988592               18.56014370               73.06041143                0.77216923                0.69948606               -0.28664859                0.27851198                0.71831910                4.13182805                7.74781305
              38.62688078               16.51883464               71.54067766                0.49404331                7.43922267                1.39970391               -4.80279483               -6.27301648               79.09323271               -7.30801015
              39.76867037               14.33276950               71.52001729                0.45179476               11.74148153               -1.34453979               -6.38560089               -4.81236746              150.03181250               -2.99279230
              40.86171041               12.16803068               71.40088335                0.44211212                7.97880610                0.75201540               -8.39445585               -1.71031527              142.57941141               -3.13228497
              41.92824649                9.99880931               71.21119686                0.43879540                5.99539530                2.30993116              -10.88389961               -1.07029542              136.01685379               -3.74604829
              42.98161831                7.83206991               70.93907544                0.44105404                5.11064058                3.91659971              -13.95904038               -0.60054815              127.78535898               -4.71160619
              44.03045930                5.67034547               70.56228385                0.44917987                5.07193509                5.48387921              -17.71078077               -0.27329754              116.77218463               -6.01032784
              45.08305701                3.51629639               70.04826181                0.46329517                5.85832994                7.04015749              -22.20640011                0.02394445              101.66655896               -7.75673535
              46.14762590                1.37142063               69.35091696                0.48407418                7.42836630                8.57583616              -27.43594239                0.31321511               80.53954612              -10.25747567
              47.23162434               -0.76453741               68.40296021                0.51240702                9.40836599               10.05827463              -33.21397151                0.53459769               48.48939612              -14.14183846
              48.33579322               -2.89560391               67.06618857                0.76760510               10.41688807               11.34777970              -37.82455982                0.52823791               28.37315320              -25.02840192
              17.03580822                8.99523646               76.28717705                0.80203670               -1.62624099               -1.81680931                6.17399216               -0.47061216               -5.53324420                6.03160107
              18.01954582                6.70931913               75.62753187                0.54293710               -1.62294136               -1.05358143                4.16365973               -0.56579788               -7.75768847               -4.62595780
              19.00334940                4.41417396               74.92369824                0.48218503               -1.44978439               -0.57239898                2.06084736               -0.49165927               -8.03270216               -0.37559770
              19.99055013                2.10080386               74.25929812                0.45510795               -0.94632793                0.01129549                0.05238704               -0.43753015               -5.55861197               -0.45925174
              20.98442284               -0.23041061               73.60540399                0.44146980               -0.16788556                0.59128248               -2.01374727               -0.37471554               -4.61630350               -0.27001472
              21.98719242               -2.57451572               72.95993447                0.44093458                0.77507716                1.18268116               -4.12624890               -0.32583473               -4.06185074               -0.09370955
              22.99992438               -4.92368708               72.31703687                0.45283390                1.75123915                1.77414722               -6.26281968               -0.30633917               -4.15613325                0.08793305
              24.02221720               -7.27000109               71.66955490                0.47762583                2.63001590                2.35325488               -8.39173443               -0.30999516               -4.94678276                0.27199262
              25.05252470               -9.60804940               71.01064707                0.51617994                3.34101634                2.91901178              -10.48993737               -0.30951415               -6.57497454                0.34961350
              26.08903753              -11.93596257               70.33019538                0.56947219                3.90588113                3.47625169              -12.57257533               -0.30925631               -7.07800599                1.17805953
              27.13064232              -14.25522457               69.66063506                0.80631546                4.16047973                4.09013085              -14.62384306               -0.65896420               -6.49944233               -4.53673456
              19.31701943                9.97706837               76.02264148                0.57894334               -1.26003455               -1.87894035                5.39068412               -0.28535440                4.15006061                8.97782387
              20.30441909                7.69878332               75.35815107                0.04295212               -0.71644976               -0.75767068                3.40158956               -0.62755289                9.40075910               -8.58186798
              21.30269044                5.40844997               74.79888356                0.00010000                0.20240110               -1.18361395                1.79025164               -1.91380020               14.50028069              -10.20152929
              22.30846711                3.10091682               74.23610549                0.00010000                0.78225193               -1.09509235                0.07311875               -3.01564964               15.00007096              -14.43290356
              23.31833548                0.77550221               73.68669636                0.00010000                1.10525956               -0.71629056               -1.68763034               -3.84141375               16.07634314              -19.54166618
              24.33057230               -1.56268891               73.14550651                0.00010000                1.31340978               -0.18448349               -3.48924011               -4.21539936               16.61066389              -25.43757313
              25.34460367               -3.90594560               72.60688915                0.00010000                1.53630537                0.39704177               -5.32148099               -4.10054188               16.51839905              -32.08323641
              26.36129841               -6.24646854               72.06377789                0.00010000                1.89033154                0.96165792               -7.13556385               -3.58287644               15.69681295              -39.36421926
              27.38241030               -8.57885928               71.50830772                0.00010000                2.41170685                1.50986289               -8.90850957               -2.81992433               14.41516168              -46.87894591
              28.40953255              -10.90120006               70.93891636                0.06737762                3.04521843                2.82070838              -10.64726585               -1.23981886               11.04327836              -51.44129781
              29.44331467              -13.21432326               70.31514022                0.56545745                3.37821264                3.71065257              -12.47736511                1.62224272                8.38292946              -62.55960231
              21.58667124               10.95765765               75.81733255                0.55333770               -1.10580825               -1.82540925                4.88948642               -0.12614609                0.00112894               11.10890164
              22.57561316                8.69416572               75.00982650                0.00010000               -1.18656744               -0.34572325                2.37222172               -1.93825490               13.75555862              -11.17743379
              23.56293989                6.39050168               74.47762780                0.00010000               -0.62141344               -1.12530947                0.69364855               -4.82270997               27.02482960              -19.55643319
              24.56318489                4.07890202               73.93343441                0.00010000                0.41302014               -1.40298273               -1.31284474               -6.22125557               26.18116281              -28.22646213
              25.57120029                1.75526358               73.38238136                0.00010000                1.05736789               -1.22978503               -3.37023792               -7.46329134               25.55419808              -38.45781028
              26.58433225               -0.57820539               72.82387927                0.00010000                1.52464387               -0.77363276               -5.53883448               -8.03451362               24.65520057              -50.16085931
              27.60169317               -2.91574624               72.25286698                0.00010000                1.95705504               -0.18233350               -7.86599340               -7.71691169               23.29308180              -63.39443986
              28.62347335               -5.25076793               71.66466803                0.00010000                2.45822817                0.45601578              -10.50888765               -6.52359110               21.82139579              -78.17060248
              29.65085773               -7.57785214               71.06064040                0.00010000                3.81158882                1.25460105              -14.04737340               -3.78212845               23.22943952              -94.29139412
              30.69970512               -9.87954841               70.49436810                0.00010000                6.92379209                2.45228006              -23.17991636               -0.56107336               19.18060991             -113.57385316
              31.78933358              -12.18101151               69.80818673                0.51776708                8.96284526                3.34238126              -29.16099115                2.22219118               12.63924786             -135.57447684
              23.84148039               11.94056018               75.59593692                0.55107975               -0.86704198               -1.59481037                4.29514135               -0.10981424                0.12710800               10.49363127
              24.83280997                9.69186885               74.68843741                0.00010000               -0.99902234               -0.13194008                1.48247335               -2.74193027               19.38396244               -9.67121608
              25.82149994                7.38594378               74.16626388                0.00010000               -0.67649329               -0.00869171               -0.55020337               -5.64699089               38.20626494              -18.45082032
              26.81928010                5.07285716               73.63240082                0.00010000                0.23385604                0.02703858               -2.69640921               -6.42442513               37.01328520              -27.40733201
              27.82617706                2.75090651               73.08268738                0.00010000                1.08058737                0.24528941               -5.02019238               -7.16008618               35.37399881              -37.23197646
              28.84089185                0.42183843               72.51194645                0.00010000                1.83254572                0.68239484               -7.52412586               -7.37259707               33.13693441              -48.36836271
              29.86282797               -1.90959227               71.91348489                0.00010000                2.60203197                1.27596175              -10.28314460               -6.77648122               30.23200874              -61.10265036
              30.89293249               -4.23734822               71.28053903                0.00010000                3.63601201                1.96939951              -13.47429302               -5.15046508               26.83368523              -75.83305396
              31.93554821               -6.55376726               70.60981102                0.00010000                5.42689821                2.75958921              -17.65654361               -2.33771440               21.91869236              -93.55156264
              33.00147045               -8.85215446               69.87526659                0.00010000                7.75682481                2.85421038              -22.16295722               -0.07859161               12.99249926             -118.20755381
              34.09068471              -11.14747563               69.02878293                0.51844922                8.92142592                3.34960841              -25.74176971                0.10588455                6.90316372             -142.34101566
              26.08185762               12.92576145               75.37878288                0.54913388               -0.64666613               -1.37467618                3.72675757               -0.10727274                0.12241239               10.79503182
              27.07539096               10.69152692               74.37021496                0.00010000               -0.64229288                0.07584615                0.58583491               -3.23553613               25.28467325               -9.37935330
              28.06901176                8.39032784               73.86504480                0.00010000               -0.28286526                0.73886860               -1.66699781               -6.43947276               49.89818735              -17.30792680
              29.06973365                6.07944279               73.34474294                0.00010000                0.50027700                1.10393175               -4.03261176               -6.88359777               48.23663696              -25.65202317
              30.07901730                3.76016937               72.80104584                0.00010000                1.38227204                1.44486727               -6.58289934               -7.17451538               45.71371673              -34.79738867
              31.09737909                1.43544250               72.22444958                0.00010000                2.31664511                1.89966309               -9.36723137               -7.01755542               42.17931606              -45.15998992
              32.12535020               -0.89022701               71.60429082                0.00010000                3.36299698                2.47163143              -12.44181459               -6.19661778               37.49576206              -57.17160963
              33.16463903               -3.21137994               70.92882148                0.00010000                4.67797396                3.09127592              -15.89411081               -4.62687783               31.37026248              -71.38899323
              34.21890968               -5.52266036               70.18223113                0.00010000                6.36013154                3.55735326              -19.65642931               -2.60003023               23.21147247              -88.68271058
              35.29184166               -7.82246420               69.34248222                0.00010000                8.15919683                3.61916006              -23.41346300               -1.00739697               12.53795034             -108.71240713
              36.38209362              -10.11401935               68.38601985                0.52003340                9.02519554                4.06827545              -26.69694804               -0.41279335                6.33619554             -129.68028462
              28.30780399               13.91306666               75.16385820                0.54678935               -0.42711473               -1.17051416                3.16617728               -0.10584997                0.13951645               10.94899715
              29.30353285               11.69338578               74.05463625                0.00010000               -0.15046912                0.30178316               -0.30361285               -3.53637251               31.64359949               -9.18256018
              30.30479461                9.40072115               73.57561867                0.00010000                0.41168890                1.26509086               -2.73288801               -6.94929197               62.48092065              -15.97133030
              31.31176662                7.09493580               73.07787643                0.00010000                1.09462129                1.84872094               -5.26877289               -7.29744223               60.34616962              -23.21796168
              32.32668704                4.77980386               72.54921458                0.00010000                1.95852436                2.31355336               -8.00712509               -7.29708439               56.96311250              -31.27980930
              33.35093711                2.45983170               71.97616074                0.00010000                2.95155119                2.83070480              -11.00750738               -6.85216564               52.14707907              -40.53569178
              34.38571806                0.13984035               71.34373447                0.00010000                4.09455854                3.43719998              -14.30915937               -5.91796221               45.67569720              -51.41392918
              35.43282828               -2.17552270               70.63491991                0.00010000                5.44569060                4.06303025              -17.90316695               -4.55230489               37.27100501              -64.41629576
              36.49463187               -4.48262020               69.83029410                0.00010000                6.99266094                4.58345098              -21.68436311               -2.98690037               26.68545647              -79.92307265
              37.57268150               -6.77977126               68.90924271                0.00171215                8.54536324                5.00973638              -25.42347835               -1.48744163               14.00444083              -97.92695669
              38.66553914               -9.06611012               67.85482606                0.52132192                9.28576364                5.59631753              -28.84293684               -0.65018635                6.98816494             -117.99400393
              30.51910239               14.90235116               74.95014116                0.54476310               -0.20933727               -0.97512285                2.61205402               -0.10368362                0.15049456               10.99468314
              31.51700902               12.69756258               73.74035198                0.00010000                0.46867539                0.53804714               -1.19512774               -3.74256781               38.65831206               -9.11237424
              32.52847590               10.41562966               73.30080540                0.00010000                1.38465417                1.64247687               -3.73904949               -7.28511890               76.36976807              -14.36560483
              33.54470210                8.11641721               72.83865721                0.00010000                1.98519099                2.29323957               -6.38257198               -7.57738913               73.74898558              -20.13257269
              34.56817972                5.80644043               72.33800432                0.00010000                2.77985923                2.83333455               -9.24512656               -7.32154513               69.52161428              -26.74734621
              35.60029928                3.49205660               71.78171343                0.00010000                3.70828208                3.45648785              -12.39801054               -6.61757938               63.47687395              -34.53558743
              36.64234536                1.17851699               71.15085892                0.00010000                4.78771001                4.18964962              -15.87276898               -5.59463136               55.35040415              -43.85882117
              37.69605348               -1.13011933               70.42421651                0.00010000                6.05374347                4.96703625              -19.64653350               -4.35221564               44.86299492              -55.14922690
              38.76342023               -3.43099134               69.57861894                0.00010000                7.47646369                5.72092020              -23.61338837               -2.99823476               31.86880332              -68.87192159
              39.84558276               -5.72226947               68.59128716                0.00440105                8.91737000                6.44041064              -27.56638613               -1.57932779               16.61316066              -85.42103590
              40.94176763               -8.00209300               67.44467813                0.52309305                9.61848691                7.14266850              -31.20572361               -0.69154532                8.27296661             -105.00076149
              32.71530749               15.89356420               74.73639870                0.54244904                0.00955019               -0.78415328                2.05580646               -0.10638451                0.16596270               10.91693779
              33.71540299               13.70414672               73.42619995                0.00010000                1.24650570                0.78345543               -2.09304056               -3.94378172               46.54731179               -9.15191273
              34.74023760               11.43357069               73.04367409                0.00010000                2.70025393                1.82400185               -4.66989061               -7.50682469               91.97645728              -12.43914860
              35.76940807                9.14080059               72.63404749                0.00010000                3.21895685                2.36201837               -7.34029457               -7.63754885               88.82395164              -16.34983295
              36.80461674                6.83647055               72.17788409                0.00010000                3.85504463                2.95721884              -10.24974623               -6.98425648               83.75238499              -21.23412134
              37.84650896                4.52896145               71.65509649                0.00010000                4.56923124                3.76857661              -13.48533655               -6.01070341               76.56215153              -27.25626699
              38.89600137                2.22363335               71.04370436                0.00010000                5.43916687                4.71116011              -17.08582539               -4.92016889               66.91982706              -34.65280002
              39.95529230               -0.07618198               70.31837727                0.00010000                6.54079757                5.71603668              -21.03392468               -3.77697725               54.41805827              -43.83657678
              41.02681732               -2.36820179               69.45051351                0.00010000                7.84521511                6.72643987              -25.22931182               -2.59483654               38.79543814              -55.44941057
              42.11219660               -4.65096304               68.41115840                0.00689703                9.22689807                7.69227446              -29.45424650               -1.35602389               20.28087752              -70.38748217
              43.21135528               -6.92325675               67.17730511                0.52430572                9.91586759                8.50957561              -33.32761514               -0.59469988               10.13158219              -89.45545822
              34.89580967               16.88666810               74.52130798                0.54054828                0.23172280               -0.59193580                1.49143802               -0.11209935                0.21923270               10.84627799
              35.89812690               14.71323169               73.11114764                0.00010000                2.29379304                1.03487853               -3.00205228               -4.27303162               55.57555274               -9.43351366
              36.94168553               12.45210970               72.80811138                0.00010000                4.54621823                1.55978776               -5.50283856               -7.67888782              109.75279616               -9.87964412
              37.98905126               10.16365758               72.47191889                0.00010000                4.93240976                1.82707326               -8.09898311               -7.03875178              105.89731971              -11.71978673
              39.04033372                7.86558481               72.07906482                0.00010000                5.19355789                2.70857586              -10.96600996               -5.87636433               99.91278204              -14.80247650
              40.09292242                5.56742813               71.60908787                0.00010000                5.43758434                3.80379149              -14.20320768               -4.73391915               91.71684735              -18.86426303
              41.14908541                3.27274020               71.03859961                0.00010000                5.97133293                4.99844319              -17.85952714               -3.72772584               80.79987890              -24.00983388
              42.21234908                0.98420140               70.33842163                0.00010000                6.86095749                6.23162534              -21.92967838               -2.77890286               66.45186396              -30.58930512
              43.28630456               -1.29646254               69.47267526                0.00010000                8.05840822                7.46242689              -26.32195294               -1.84537922               47.99001420              -39.30565478
              44.37351724               -3.56842398               68.40045884                0.00949921                9.40782450                8.63156020              -30.80448587               -0.91542243               25.35917524              -51.61511192
              45.47446105               -5.83190148               67.08634956                0.52561915               10.09438093                9.60135835              -34.88389172               -0.40929135               12.78993149              -69.79965953
              37.05993832               17.88172549               74.30624926                0.53840698                0.45624352               -0.38643510                0.92104074               -0.12079111               -0.20790515                9.43899340
              38.06450076               15.72484429               72.79137545                0.00010000                3.81478183                1.27960324               -3.93444405               -5.04338724               66.14786211               -8.61998402
              39.13623396               13.46476644               72.60356921                0.00010000                7.53285826               -0.16662940               -6.19354868               -6.23420299              130.40240831               -5.67254096
              40.21515792               11.17734206               72.36238023                0.00010000                7.35424682                0.94417361               -8.60310331               -4.82041122              124.98545797               -6.18706349
              41.28331890                8.89064207               72.05081675                0.00010000                6.47586349                2.27912530              -11.33283183               -3.46680130              118.03607743               -7.61189144
              42.34467519                6.60503728               71.65430890                0.00010000                6.06773418                3.68733923              -14.47789297               -2.65213246              109.16489587               -9.63825330
              43.40467358                4.32360221               71.14929054                0.00010000                6.21208926                5.09747650              -18.09668676               -2.01370633               97.42679072              -12.27656072
              44.46891698                2.04845053               70.50376515                0.00010000                6.89307686                6.49536470              -22.19737703               -1.45288021               81.77547080              -15.73357290
              45.54253512               -0.21895325               69.67516687                0.00010000                8.02050590                7.86385410              -26.70210809               -0.91499894               60.77954336              -20.49736395
              46.62932710               -2.47833184               68.60523455                0.01199719                9.37946680                9.16078596              -31.38012528               -0.41285341               32.94774246              -27.74596993
              47.73012445               -4.73122959               67.22371845                0.52709541               10.07973562               10.29688825              -35.59890231               -0.23309809               16.85805631              -41.98587256
              39.20715624               18.87893940               74.06302644                0.76834001                0.70619521               -0.27860905                0.24439719                0.71022761                4.28305893                8.03715407
              40.21421820               16.73882375               72.49259574                0.49015275                7.86737290                1.39794645               -4.80356083               -6.53637062               80.91157065               -7.57260160
              41.36450370               14.44877711               72.45462278                0.45087365               12.62746088               -1.59893324               -6.65085103               -4.98716115              153.21113036               -3.12997163
              42.46676741               12.18254105               72.31463296                0.44182205                8.93993851                0.51989911               -8.79447127               -1.71954086              145.21283945               -3.31474501
              43.54330247                9.91116732               72.10000085                0.43869150                7.00761064                2.05252490              -11.28927725               -1.06994900              138.00118647               -3.98011313
              44.60691963                7.64117492               71.79776976                0.44094238                6.10477838                3.61376343              -14.23671515               -0.59943629              129.00519299               -5.00556901
              45.66539804                5.37468973               71.38492052                0.44847820                5.94636558                5.10875154              -17.70546513               -0.28086519              117.14130290               -6.37092022
              46.72584694                3.11410870               70.82851519                0.46143900                6.46944554                6.56581669              -21.71864786               -0.00076336              101.17239469               -8.18811220
              47.79478695                0.86081454               70.08299919                0.48071947                7.58447842                7.97677956              -26.21314581                0.25933529               79.35416641              -10.75751708
              48.87753651               -1.38520826               69.08341881                0.50691501                9.04038174                9.31235749              -30.97554521                0.48202789               47.45099109              -14.71910414
              49.97559459               -3.62596372               67.70263618                0.76399038                9.80580788               10.52658677              -35.24032689                0.47146766               27.85435520              -25.61024290
              17.64942872                9.32474295               77.34917399                0.79576924               -1.64011374               -1.82940702                6.22319863               -0.47503800               -5.68467503                6.18354971
              18.63302758                6.93556001               76.66933931                0.53500980               -1.64924555               -1.06206768                4.19587025               -0.58350219               -7.95026027               -4.76674451
              19.61644381                4.53678575               75.94443451                0.47880906               -1.48055100               -0.57737189                2.08546198               -0.49208426               -8.22275424               -0.33754878
              20.60341656                2.11937111               75.25988619                0.45414455               -0.95921713                0.01057078                0.06608637               -0.43144858               -5.72907093               -0.44454425
              21.59725947               -0.31601070               74.58524036                0.44129311               -0.16767021                0.59830605               -2.01217166               -0.37105030               -4.83737188               -0.26495555
              22.60006316               -2.76421166               73.91856848                0.44065919                0.77876635                1.19764727               -4.13934409               -0.32900105               -4.31965823               -0.09174851
              23.61283479               -5.21742949               73.25422788                0.45160300                1.75566089                1.79570376               -6.29231639               -0.31304893               -4.43086131                0.07660996
              24.63517638               -7.66787829               72.58530058                0.47475570                2.63946932                2.38099680               -8.43993776               -0.31348340               -5.21153536                0.25648438
              25.66562418              -10.11024825               71.90533276                0.51028726                3.36039498                2.95436342              -10.55464887               -0.31616568               -6.82514790                0.32844490
              26.70238428              -12.54261071               71.20400687                0.55947202                3.93257543                3.51681622              -12.65482256               -0.31751074               -7.31902788                1.16359265
              27.74427569              -14.96647541               70.51383142                0.79984022                4.18914126                4.13536215              -14.72522551               -0.64816433               -6.73952225               -4.66483838
              20.03386129               10.30644888               77.07677296                0.56852059               -1.26901236               -1.89549994                5.43160724               -0.29038352                4.33230598                9.27608712
              21.02117116                7.92493933               76.39229492                0.03054122               -0.71219351               -0.76031818                3.42579563               -0.64876912                9.77723504               -8.85123676
              22.01961741                5.53101203               75.81686146                0.00010000                0.21645711               -1.18633927                1.80519530               -1.90193844               15.01869423              -10.60696530
              23.02550030                3.11947682               75.23682933                0.00010000                0.78614680               -1.04528482                0.07030392               -2.97243178               15.43638822              -15.14050130
              24.03534035                0.68997236               74.66964602                0.00010000                1.09911193               -0.64577735               -1.71583292               -3.75325386               16.46541695              -20.55165971
              25.04748254               -1.75223519               74.11031631                0.00010000                1.30986331               -0.10169900               -3.54284527               -4.07136094               16.96650580              -26.78030538
              26.06153762               -4.19947245               73.55323996                0.00010000                1.54841914                0.48094062               -5.40333966               -3.89411550               16.86639493              -33.82361186
              27.07845092               -6.64406832               72.99180302                0.00010000                1.91455608                1.02779038               -7.24538802               -3.29243549               16.06790614              -41.65462605
              28.09982874               -9.08070462               72.41843266                0.00010000                2.44359127                1.52946779               -9.05371700               -2.38431713               14.81768953              -50.14319920
              29.12732275              -11.50744255               71.83151709                0.05291719                3.09150024                2.45062040              -10.82743533               -0.81099572               11.41137081              -57.98058849
              30.16165874              -13.92512179               71.18932247                0.55555676                3.43359930                3.01050065              -12.68065607                1.66884316                8.69889891              -71.34617949
              22.40664015               11.28683295               76.86645828                0.54494432               -1.11511025               -1.84585953                4.92637834               -0.12462176               -0.02775973               11.50411864
              23.39548905                8.92035364               76.03369503                0.00010000               -1.13863001               -0.34296650                2.39629609               -1.96837756               14.11672681              -11.50530960
              24.38386755                6.51305897               75.48398722                0.00010000               -0.52407245               -1.08308149                0.60114922               -4.79435041               27.64470569              -20.39612887
              25.38500760                4.09846542               74.91985279                0.00010000                0.50194233               -1.31858161               -1.39023779               -6.11617415               26.63356189              -29.64366036
              26.39390640                1.67107375               74.34821716                0.00010000                1.15365749               -1.11943329               -3.45103742               -7.30114333               25.91850469              -40.46035530
              27.40808075               -0.76624564               73.76806582                0.00010000                1.64396074               -0.65967174               -5.61210879               -7.78056174               24.89262289              -52.81278113
              28.42678561               -3.20781067               73.17389807                0.00010000                2.12395420               -0.09070366               -7.91263816               -7.38858938               23.31761116              -66.79874817
              29.45055983               -5.64732248               72.55962090                0.00010000                2.72632302                0.48233832              -10.47692191               -6.15077849               21.31357523              -82.53409558
              30.48131207               -8.07965889               71.92151676                0.00010000                4.00108513                1.10737594              -13.72304140               -3.71790120               20.03029834             -100.07167766
              31.53058154              -10.49359831               71.27543033                0.00010000                6.58494775                1.92918283              -20.56988185               -0.88734245               14.69890165             -120.91916495
              32.61301103              -12.90626540               70.53038439                0.51151886                8.24294916                2.61288335              -25.90669122                1.63908075                9.01298518             -144.08663486
              24.76432747               12.26953169               76.63907499                0.54263669               -0.87498713               -1.61629432                4.32347252               -0.10906756                0.12646022               10.85747337
              25.75557760                9.91808000               75.70341547                0.00010000               -0.93544164               -0.12902014                1.51030577               -2.74235650               19.74672396               -9.93308280
              26.74561864                7.50935040               75.16029618                0.00010000               -0.52077812                0.05152039               -0.62416702               -5.62473499               38.88087887              -19.30515444
              27.74516203                5.09310519               74.60474219                0.00010000                0.42049530                0.08104360               -2.81331067               -6.36094270               37.55548894              -28.78628583
              28.75402854                2.66758370               74.03184119                0.00010000                1.27968503                0.30637674               -5.13016954               -7.04131655               35.73738710              -39.17599362
              29.77075573                0.23457138               73.43625287                0.00010000                2.04070625                0.73044925               -7.59821202               -7.20915392               33.29056281              -50.92304774
              30.79484267               -2.20128652               72.81057973                0.00010000                2.82639201                1.28529480              -10.28226774               -6.62341090               30.07137066              -64.32622268
              31.82728358               -4.63442155               72.14645629                0.00010000                3.84519389                1.90598250              -13.32106978               -5.16222364               26.05107371              -79.75187036
              32.87174654               -7.05855710               71.43588419                0.00010000                5.44494154                2.57166583              -17.09404054               -2.81533014               20.52847549              -97.90453184
              33.93618241               -9.46885890               70.65786577                0.00010000                7.40139995                2.83768677              -21.21502196               -0.71828443               11.84870380             -120.70247324
              35.01977454              -11.87286412               69.77674346                0.51229543                8.35921368                3.53344233              -24.56957690               -0.21038782                6.13599782             -143.91311407
              27.10736218               13.25450707               76.41616067                0.54045391               -0.65389739               -1.39398578                3.74940428               -0.10050939                0.12417501               11.18371973
              28.10082321               10.91777324               75.37622558                0.00010000               -0.55072579                0.07692103                0.61500592               -3.22724769               25.69541772               -9.64370132
              29.09634767                8.51408937               74.84784743                0.00010000               -0.06338760                0.76127171               -1.75119323               -6.40570129               50.65849776              -18.09900911
              30.09955546                6.10008629               74.30361664                0.00010000                0.76331067                1.12631816               -4.16579778               -6.83367899               48.84916952              -26.96280032
              31.11161388                3.67720129               73.73447839                0.00010000                1.66062170                1.45828761               -6.70652409               -7.09460462               46.11150641              -36.63293071
              32.13276789                1.24836334               73.13036844                0.00010000                2.58482221                1.89419144               -9.43033811               -6.92334078               42.31335707              -47.54958847
              33.16331032               -1.18210478               72.48006481                0.00010000                3.59090238                2.43511131              -12.39117434               -6.15347713               37.30919816              -60.13035105
              34.20458594               -3.60920283               71.77104074                0.00010000                4.80662467                3.02167308              -15.65698002               -4.75309420               30.85958726              -74.84750347
              35.25944282               -6.02822558               70.98800642                0.00010000                6.29684690                3.51837858              -19.18753072               -2.95375421               22.55330783              -92.28407539
              36.33052287               -8.43684457               70.11180117                0.00010000                7.86854556                3.79775602              -22.73161119               -1.35582772               12.08319456             -112.25552317
              37.41681373              -10.83559655               69.12300919                0.51359692                8.62908526                4.34549948              -25.91649004               -0.57099755                6.05994489             -133.44846389
              29.43578493               14.24165198               76.19561218                0.53858020               -0.43345962               -1.18299339                3.18358781               -0.09901007                0.14061122               11.35100006
              30.43145034               11.91961842               75.05173172                0.00010000               -0.02966843                0.29880296               -0.27636359               -3.52939447               32.12771116               -9.44682488
              31.43519156                9.52457584               74.54770559                0.00010000                0.69631030                1.26307588               -2.82621934               -6.92526815               63.37724368              -16.71828659
              32.44537654                7.11563155               74.02429873                0.00010000                1.43339148                1.83556842               -5.41567772               -7.26774594               61.07324744              -24.42762976
              33.46385939                4.69674945               73.46834981                0.00010000                2.31092222                2.28239570               -8.13761226               -7.24456226               57.43729496              -32.95826083
              34.49159499                2.27245521               72.86573948                0.00010000                3.27399512                2.77680681              -11.05663586               -6.79152322               52.32038784              -42.70028038
              35.52933930               -0.15258430               72.20109290                0.00010000                4.33737525                3.35995936              -14.21213545               -5.89561409               45.53955595              -54.06964755
              36.57834249               -2.57398809               71.45746755                0.00010000                5.54869541                3.97835921              -17.60027984               -4.62417331               36.88835238              -67.51442664
              37.64031320               -4.98818953               70.61639290                0.00010000                6.90471679                4.54106871              -21.13927836               -3.15449383               26.22231246              -83.38498017
              38.71643683               -7.39290378               69.65926061                0.00010000                8.27726754                5.04232557              -24.65632075               -1.64218463               13.69138978             -101.71318192
              39.80585855               -9.78595413               68.57129863                0.51488753                8.94217278                5.64116850              -27.96585042               -0.73638383                6.82069058             -122.17154756
              31.74944909               15.23084720               75.97631086                0.53671015               -0.21376317               -0.98331591                2.61834630               -0.10236627                0.15165729               11.40085597
              32.74731146               12.92374930               74.72852269                0.00010000                0.61900428                0.53450325               -1.16860367               -3.74715515               39.24954099               -9.38343390
              33.76182917               10.53935089               74.26277328                0.00010000                1.73577357                1.61679596               -3.84163290               -7.28218391               77.46688075              -15.05191419
              34.78202693                8.13679766               73.77385710                0.00010000                2.40349031                2.24149749               -6.54280586               -7.57044574               74.65328125              -21.20847066
              35.80989898                5.72284920               73.24469875                0.00010000                3.21221204                2.75542356               -9.38387098               -7.28839288               70.13024641              -28.21633349
              36.84627117                3.30389948               72.65742717                0.00010000                4.09711784                3.35198740              -12.43732056               -6.56638852               63.73810111              -36.41556384
              37.89184134                0.88509441               71.99280305                0.00010000                5.07182663                4.06029526              -15.73521898               -5.55424570               55.26601439              -46.16456984
              38.94770770               -1.52963564               71.22982966                0.00010000                6.17136453                4.82280594              -19.25929490               -4.35293399               44.50767345              -57.88352006
              40.01526863               -3.93740420               70.34630965                0.00010000                7.38680452                5.57644178              -22.92638661               -3.04495350               31.40914598              -72.02649344
              41.09544379               -6.33599806               69.32121924                0.00010000                8.64590706                6.29178737              -26.59093573               -1.63399783               16.29026288              -88.97976054
              42.18818677               -8.72277318               68.13906624                0.51620755                9.27429770                6.95025482              -30.09411165               -0.74106694                8.12217083             -108.95944054
              34.04793340               16.22198566               75.75697180                0.53489207                0.00701362               -0.79042049                2.05421092               -0.10685354                0.16375316               11.31707314
              35.04800354               13.93030849               74.40535385                0.00010000                1.42830631                0.78149142               -2.07026703               -3.97028454               47.28801143               -9.43282848
              36.07649953               11.55691176               73.99627264                0.00010000                3.12328888                1.77072166               -4.78319427               -7.54018265               93.35883978              -13.04149349
              37.11046932                9.16046150               73.55956966                0.00010000                3.72450909                2.26655854               -7.51738552               -7.65553350               89.98356076              -17.24722525
              38.15098971                6.75185792               73.07443689                0.00010000                4.37763458                2.82963852              -10.40351099               -6.96375754               84.56500324              -22.43491033
              39.19802201                4.33949495               72.51991590                0.00010000                5.03998968                3.61130391              -13.52572347               -5.96074716               76.96410636              -28.78237826
              40.25178950                1.92862161               71.87366560                0.00010000                5.78802075                4.52125913              -16.91949726               -4.86198178               66.90839180              -36.52874259
              41.31378242               -0.47753197               71.11055720                0.00010000                6.69935227                5.49166193              -20.56816339               -3.73250774               54.06794535              -46.08455693
              42.38577655               -2.87666069               70.20292414                0.00010000                7.76717127                6.46577997              -24.39242415               -2.57847894               38.28741778              -58.08394279
              43.46912585               -5.26706803               69.12363099                0.00010000                8.94054552                7.38394411              -28.24645133               -1.36421488               19.90671975              -73.39914036
              44.56458746               -7.64694904               67.85211675                0.51767566                9.54616118                8.12784706              -31.95261660               -0.62948692                9.97012151              -92.82492568
              36.33066636               17.21503879               75.53615792                0.53300940                0.23133073               -0.59570276                1.47633765               -0.11347718                0.22195149               11.23784989
              37.33297967               14.93937913               74.08120760                0.00010000                2.51030739                1.03406655               -2.97879996               -4.33579341               56.52295000               -9.73252613
              38.38087251               12.57476533               73.75229609                0.00010000                5.04952151                1.46704624               -5.63159006               -7.76571930              111.52472331              -10.35935799
              39.43397010               10.18212883               73.38971860                0.00010000                5.53589350                1.67968413               -8.30020289               -7.07487936              107.40593342              -12.38111105
              40.49159038                7.77944197               72.96829861                0.00010000                5.81612192                2.53391069              -11.14660287               -5.86155213              101.00997409              -15.66859578
              41.55029253                5.37612556               72.46661177                0.00010000                6.00191242                3.59810017              -14.26214102               -4.68641968               92.32891023              -19.95878300
              42.61162862                2.97551959               71.86083495                0.00010000                6.40236554                4.75164729              -17.68783560               -3.66661900               80.91505331              -25.35641900
              43.67833984                0.58019760               71.12191101                0.00010000                7.08032408                5.93308831              -21.41326704               -2.72011886               66.14035829              -32.21093807
              44.75323511               -1.80808860               70.21485050                0.00010000                8.00539981                7.10258779              -25.36378577               -1.80475022               47.44537052              -41.22122763
              45.83844784               -4.18831918               69.10068453                0.00010000                9.10619712                8.20342532              -29.38853833               -0.90420642               24.93456660              -53.82521903
              46.93535905               -6.56021624               67.74703183                0.51892441                9.69112072                9.09316266              -33.27615506               -0.43719647               12.61414934              -72.28564711
              38.59698318               18.21007160               75.31533786                0.53074035                0.45779551               -0.38531834                0.89739705               -0.12107185               -0.21612824                9.77622784
              39.60156113               15.95098982               73.75209966                0.00010000                4.07261326                1.27814417               -3.91644770               -5.16413677               67.37803562               -8.90351407
              40.67843545               13.58625268               73.54072482                0.00010000                8.13669738               -0.33511986               -6.34491960               -6.34756912              132.70306021               -5.95298754
              41.76429508               11.19405518               73.27494296                0.00010000                8.06632460                0.75507436               -8.84041262               -4.85487628              126.94098350               -6.54472040
              42.83976194                8.80253613               72.93614162                0.00010000                7.19604565                2.06984264              -11.55684497               -3.45275920              119.50695806               -8.07462449
              43.90821600                6.41145696               72.50884622                0.00010000                6.73115754                3.44556268              -14.57867290               -2.61858025              110.07382883              -10.22138037
              44.97438509                4.02365455               71.96898692                0.00010000                6.73861232                4.80737579              -17.95182837               -1.97079259               97.75020303              -12.99429947
              46.04298824                1.64112980               71.28459411                0.00010000                7.19066154                6.14182344              -21.67319543               -1.40885447               81.57370389              -16.59894529
              47.11819832               -0.73460893               70.41391401                0.00010000                8.00905577                7.43471271              -25.67427746               -0.87794062               60.25034092              -21.51972255
              48.20316936               -3.10299952               69.30065463                0.00154484                9.07196697                8.65155830              -29.80489221               -0.39587639               32.49823173              -28.93273980
              49.29963766               -5.46508578               67.87825340                0.52019190                9.64683008                9.72860021              -33.82720884               -0.25429993               16.67436761              -43.32782042
              40.84640849               19.20733242               75.06529938                0.76469086                0.71073604               -0.27391794                0.21244176                0.70348999                4.43510619                8.32136623
              41.85351585               16.96494201               73.44460644                0.48613258                8.22236337                1.39521950               -4.79376477               -6.76800320               82.59370140               -7.82774220
              43.01085576               14.56806293               73.38700027                0.44983763               13.35366345               -1.81897533               -6.83990307               -5.14355371              156.14524937               -3.25625045
              44.12058912               12.19723031               73.22499393                0.44165389                9.71388305                0.31751309               -9.08575039               -1.73180149              147.69933098               -3.48370262
              45.20513342                9.82083883               72.98541131                0.43886242                7.81066934                1.83026929              -11.57871940               -1.07252703              139.94672539               -4.20073763
              46.27680251                7.44503681               72.65434114                0.44086527                6.87032574                3.35798550              -14.40718232               -0.59993483              130.31779831               -5.28397115
              47.34253993                5.07166711               72.20817455                0.44751782                6.58118691                4.80125525              -17.62395082               -0.28465289              117.77895493               -6.71102590
              48.40842624                2.70303406               71.61388885                0.45974887                6.86328389                6.19042680              -21.23417792               -0.00927263              101.17743378               -8.59207942
              49.47980561                0.34060565               70.82665405                0.47740844                7.62904594                7.52145844              -25.17513774                0.24462542               78.91714580              -11.22294118
              50.56100716               -2.01528801               69.78344931                0.50163747                8.73199818                8.77115100              -29.29628292                0.47128620               47.02861555              -15.24316971
              51.65444557               -4.36564424               68.36138203                0.76052445                9.34384115                9.94415474              -33.34956740                0.44516910               27.69428153              -26.21311684
              18.28178409                9.66370951               78.41164102                0.78986477               -1.65039980               -1.84036926                6.25738234               -0.47989554               -5.83675299                6.32975205
              19.26528009                7.16807301               77.71144928                0.52749263               -1.67183270               -1.06701514                4.21847989               -0.59750106               -8.13610469               -4.90758122
              20.24834743                4.66256908               76.96540748                0.47560175               -1.50586154               -0.58111256                2.10555801               -0.48406670               -8.39840375               -0.29690549
              21.23516286                2.13802670               76.26061985                0.45291136               -0.96771600                0.01134864                0.08249865               -0.42975976               -5.88477347               -0.42873138
              22.22899311               -0.40452103               75.56516056                0.44098628               -0.16755623                0.60132563               -2.00247847               -0.37727997               -5.04650359               -0.26039931
              23.23181173               -2.95984635               74.87714759                0.44060789                0.77909692                1.20539950               -4.13573868               -0.33322523               -4.56990841               -0.09088262
              24.24457505               -5.52017903               74.19119055                0.45058149                1.75349414                1.80909976               -6.29756455               -0.31451438               -4.69502083                0.06607671
              25.26688161               -8.07787626               73.50075614                0.47199482                2.63702025                2.39948874               -8.45207958               -0.31684141               -5.46497144                0.24134322
              26.29731545              -10.62768030               72.79955409                0.50480429                3.36383440                2.97730267              -10.57815347               -0.31828800               -7.07090381                0.30553138
              27.33415830              -13.16771115               72.07709893                0.55002251                3.94436610                3.54758681              -12.69593801               -0.31997117               -7.55738847                1.14748549
              28.37620278              -15.69950342               71.36613054                0.79342115                4.20444742                4.17036006              -14.78124608               -0.63131436               -6.97670360               -4.78472744
              20.77262163               10.64530582               78.13127362                0.55813738               -1.27463393               -1.91357556                5.46099927               -0.29737267                4.51496585                9.57099763
              21.75987529                8.15740286               77.42666698                0.01821409               -0.70458557               -0.75670122                3.44249437               -0.67045931               10.15702313               -9.11807175
              22.75852992                5.65675796               76.83498747                0.00010000                0.22675133               -1.17123486                1.81718675               -1.89669298               15.53229250              -11.04594817
              23.76441032                3.13814019               76.23751157                0.00010000                0.78134592               -0.99553745                0.06347776               -2.94012035               15.86455399              -15.86760974
              24.77415684                0.60149222               75.65237970                0.00010000                1.09490804               -0.58088322               -1.73451497               -3.67841426               16.84601931              -21.57080236
              25.78630848               -1.94779235               75.07464960                0.00010000                1.31440126               -0.02756161               -3.58625411               -3.94440976               17.30648965              -28.11082509
              26.80044486               -4.50208803               74.49882236                0.00010000                1.55776780                0.55590287               -5.46307840               -3.70868803               17.19723644              -35.51755706
              27.81746383               -7.05388137               73.91887013                0.00010000                1.93025799                1.08865732               -7.33210836               -3.02873447               16.41569704              -43.83703672
              28.83905002               -9.59790727               73.32723338                0.00010000                2.47031590                1.54715323               -9.16682949               -2.00075482               15.18725343              -53.11315673
              29.86687015              -12.13223529               72.72236765                0.03907806                3.13159377                2.17153847              -10.97861171               -0.46176623               11.75547125              -63.06274952
              30.90168190              -14.65779982               72.06152710                0.54641920                3.48117453                2.46691046              -12.85261700                1.61766584                8.99795524              -78.10162936
              23.25164255               11.62543800               77.91586012                0.53652444               -1.12237878               -1.86492742                4.94971114               -0.11455053               -0.05705951               11.89613394
              24.24041876                9.15293898               77.05775242                0.00010000               -1.09831534               -0.33631033                2.41732302               -1.98228219               14.43758118              -11.82304795
              25.22967624                6.63914438               76.48965079                0.00010000               -0.43962888               -1.03887407                0.54673518               -4.77810780               28.22002871              -21.27889414
              26.23162618                4.11811595               75.90562965                0.00010000                0.58405629               -1.23862935               -1.44400495               -6.04242656               27.08478009              -31.09139904
              27.24135737                1.58386130               75.31336061                0.00010000                1.24388041               -1.01834054               -3.50896589               -7.16281278               26.27542953              -42.47262440
              28.25650379               -0.96039758               74.71163710                0.00010000                1.75664705               -0.55663976               -5.66051517               -7.56330929               25.12682948              -55.43252722
              29.27649031               -3.50906097               74.09461422                0.00010000                2.28111854               -0.00977180               -7.93026326               -7.10492128               23.35467022              -70.10523930
              30.30212616               -6.05610311               73.45512960                0.00010000                2.95819813                0.50379545              -10.40153385               -5.82452990               20.92048242              -86.68818123
              31.33565427               -8.59673723               72.78617958                0.00010000                4.13446817                0.97798568              -13.33038343               -3.62595218               17.96083730             -105.38005495
              32.38481553              -11.12428039               72.08297047                0.00010000                6.20154424                1.48302631              -18.20149866               -1.13564356               11.73062938             -127.37284674
              33.45968516              -13.65016521               71.29005291                0.50552387                7.48696303                1.97185559              -22.42019244                1.10988660                6.57054143             -151.36317730
              25.71532864               12.60800727               77.68240637                0.53446816               -0.88053851               -1.62696703                4.34007628               -0.10462416                0.13044745               11.22034175
              26.70652326               10.15067665               76.71864352                0.00010000               -0.87689250               -0.13011722                1.53300633               -2.74165032               20.07043480              -10.17925528
              27.69779079                7.63598047               76.15378054                0.00010000               -0.38391953                0.08969359               -0.66725975               -5.60973212               39.48677866              -20.15398251
              28.69884487                5.11336760               75.57613460                0.00010000                0.58116598                0.12571430               -2.89089408               -6.31975808               38.06393476              -30.17489097
              29.70941411                2.58112541               74.98008399                0.00010000                1.45598487                0.35704131               -5.20435625               -6.95772448               36.09452608              -41.10969174
              30.72796457                0.04107485               74.35998221                0.00010000                2.23189275                0.76808583               -7.64020631               -7.09264308               33.45501818              -53.42751702
              31.75405197               -2.50228347               73.70783954                0.00010000                3.03424643                1.28568836              -10.25086517               -6.52543751               29.95402015              -67.43711380
              32.78864949               -5.04380546               73.01411763                0.00010000                4.03281397                1.83809257              -13.13301192               -5.21505399               25.44077477              -83.47362644
              33.83470825               -7.57834756               72.26793021                0.00010000                5.44678813                2.39433278              -16.50422587               -3.26040805               19.40816061             -102.03000602
              34.89758526              -10.10257476               71.45096615                0.00010000                7.04705142                2.76554404              -20.16051541               -1.31639428               10.88457643             -123.83283150
              35.97564928              -12.61836271               70.53739139                0.50613308                7.80640197                3.63107073              -23.29383311               -0.51922808                5.54913288             -146.45373386
              28.16421130               13.59289866               77.45377097                0.53272840               -0.65987513               -1.40353986                3.76322512               -0.10377677                0.12045332               11.57150200
              29.15761255               11.15033664               76.38251508                0.00010000               -0.47103242                0.07377568                0.64136037               -3.22449989               26.05392849               -9.89514786
              30.15479065                8.64093826               75.83002094                0.00010000                0.12367690                0.77245475               -1.80019087               -6.38623646               51.33398283              -18.88956159
              31.16008609                6.12063024               75.26142698                0.00010000                0.98524889                1.13875721               -4.25181121               -6.80968261               49.41938145              -28.26931533
              32.17449563                3.59100213               74.66691535                0.00010000                1.89868624                1.46464364               -6.78591558               -7.05440118               46.50535868              -38.44557426
              33.19805981                1.05496413               74.03584282                0.00010000                2.81831229                1.88462572               -9.45868890               -6.88560617               42.47772745              -49.87675390
              34.23086187               -1.48334721               73.35646733                0.00010000                3.79146800                2.39963190              -12.31862604               -6.17881313               37.19358979              -62.96924839
              35.27388917               -4.01934126               72.61568188                0.00010000                4.91767662                2.96026539              -15.41471041               -4.94287674               30.45551516              -78.12895140
              36.32921541               -6.54885058               71.79848051                0.00010000                6.23068099                3.48622632              -18.72490221               -3.35257140               21.99742381              -95.74518382
              37.39850279               -9.06896950               70.88784999                0.00010000                7.58305400                3.95608996              -22.06953146               -1.73374542               11.67788287             -115.70921532
              38.48087649              -11.57754379               69.86769005                0.50750740                8.23736961                4.63822910              -25.15928866               -0.74604783                5.83595832             -137.15227566
              30.59837714               14.57993647               77.22752996                0.53083833               -0.43834804               -1.19449976                3.19136474               -0.10340196                0.13550348               11.74408184
              31.59399366               12.15215216               76.04910897                0.00010000                0.06976625                0.29675628               -0.24747522               -3.52910171               32.55160951               -9.69818884
              32.59977247                9.65142957               75.51909428                0.00010000                0.92968414                1.25430337               -2.88023382               -6.91604855               64.17526490              -17.45972483
              33.61258735                7.13614274               74.96956288                0.00010000                1.71098628                1.81733141               -5.50870713               -7.26275557               61.75227763              -25.62722596
              34.63399219                4.61041828               74.38646234                0.00010000                2.60072154                2.25122785               -8.21810077               -7.23282136               57.91469520              -34.60703255
              35.66460178                2.07876736               73.75502803                0.00010000                3.53944559                2.73023805              -11.07091969               -6.79059592               52.54625245              -44.79889975
              36.70478111               -0.45429083               73.05949176                0.00010000                4.53467772                3.30000534              -14.10573999               -5.94831197               45.50272626              -56.60815755
              37.75529533               -2.98460016               72.28291431                0.00010000                5.62519783                3.92309410              -17.32540904               -4.77605099               36.63903708              -70.44217555
              38.81728506               -5.50862303               71.40750853                0.00010000                6.81541183                4.53990657              -20.67407365               -3.39273210               25.89328295              -86.62746694
              39.89160357               -8.02345296               70.41611630                0.00010000                8.02959196                5.13672221              -24.02966453               -1.84232257               13.46351784             -105.24948476
              40.97787690              -10.52559812               69.29550906                0.50859300                8.62733339                5.77219367              -27.25933080               -0.83248814                6.71098254             -126.10000179
              33.01771187               15.56900866               77.00250809                0.52901968               -0.21744573               -0.99389337                2.61796234               -0.10162418                0.15229899               11.79703138
              34.01553741               13.15627176               75.71697990                0.00010000                0.73836141                0.53265359               -1.13780138               -3.75578096               39.77470074               -9.64092452
              35.03247910               10.66602432               75.22397274                0.00010000                2.01524229                1.58942196               -3.90088351               -7.29343884               78.45231371              -15.72988347
              36.05584226                8.15697687               74.70780109                0.00010000                2.73677405                2.19259221               -6.64364587               -7.58349747               75.50371634              -22.27076661
              37.08721458                5.63602668               74.15032690                0.00010000                3.55573736                2.68770996               -9.46752117               -7.29147993               70.74873291              -29.65456279
              38.12695701                3.10956890               73.53296702                0.00010000                4.40242879                3.26809611              -12.44152936               -6.57065891               64.07453623              -38.23354132
              39.17526316                0.58265290               72.83615454                0.00010000                5.28716713                3.96587100              -15.59922503               -5.58507376               55.32221193              -48.36327047
              40.23270035               -1.94087938               72.03903061                0.00010000                6.24752062                4.73228447              -18.93240834               -4.43040052               44.34778938              -60.45438104
              41.30021357               -4.45805245               71.12009121                0.00010000                7.29655418                5.51007679              -22.38533895               -3.15744284               31.16151503              -74.95925712
              42.37863143               -6.96623506               70.05946845                0.00010000                8.41517403                6.25209105              -25.86500903               -1.72563253               16.11344030              -92.28269761
              43.46851705               -9.46209992               68.84279589                0.50999134                8.98856163                6.89386315              -29.28379800               -0.79102182                8.05316572             -112.67218211
              35.42181845               16.56005860               76.77748292                0.52734551                0.00439304               -0.79748107                2.04605214               -0.10346334                0.16179672               11.70922060
              36.42186238               14.16280524               75.38479461                0.00010000                1.56900697                0.77817958               -2.03849363               -3.99651399               47.95406956               -9.70013485
              37.45319859               11.68321801               74.94801020                0.00010000                3.45263266                1.72230202               -4.85007033               -7.58103744               94.61502604              -13.63497373
              38.49091503                9.17999459               74.48369978                0.00010000                4.11859871                2.18425931               -7.63005987               -7.68601852               91.08114059              -18.13023125
              39.53557056                6.66417248               73.96981387                0.00010000                4.78236734                2.72407424              -10.49677445               -6.97199217               85.39044818              -23.60769951
              40.58656238                4.14412929               73.38458202                0.00010000                5.39786714                3.48766294              -13.52857281               -5.95693113               77.46104974              -30.25614742
              41.64352791                1.62502659               72.70531442                0.00010000                6.04151424                4.38187955              -16.76087606               -4.86298362               67.07967940              -38.31604233
              42.70739267               -0.88995447               71.90701400                0.00010000                6.79819883                5.34125558              -20.18640086               -3.75038669               53.98077627              -48.19684052
              43.77949188               -3.39842149               70.96266502                0.00010000                7.68728632                6.30877404              -23.75490494               -2.61158934               38.07577198              -60.53373973
              44.86113839               -5.89841114               69.84622937                0.00010000                8.71471515                7.21415290              -27.38375285               -1.39517781               19.74212766              -76.20291982
              45.95378619               -8.38772086               68.53825278                0.51118447                9.26477943                7.91744232              -30.99591021               -0.65435276                9.91956422              -96.00989835
              37.81014934               17.55305904               76.55083474                0.52533044                0.22983909               -0.59750058                1.46100357               -0.10868321                0.22999638               11.62615469
              38.81244773               15.17183536               75.05157164                0.00010000                2.67598304                1.02849659               -2.94762826               -4.38882723               57.38646704              -10.02384596
              39.86366900               12.70047036               74.69547958                0.00010000                5.43598433                1.38922543               -5.71072328               -7.84600169              113.15204701              -10.83134741
              40.92116741               10.20066205               74.30591483                0.00010000                5.99855203                1.55888677               -8.43208683               -7.11582174              108.84029011              -13.02961920
              41.98364004                7.69050817               73.85613276                0.00010000                6.28984318                2.39321954              -11.26042315               -5.86778304              102.11699806              -16.51222651
              43.04696428                5.17932215               73.32384505                0.00010000                6.42235999                3.43755114              -14.27804922               -4.67367980               93.04903887              -21.01458168
              44.11208724                2.67029049               72.68484290                0.00010000                6.70882102                4.56750175              -17.52330718               -3.64872885               81.24858823              -26.63980963
              45.18114070                0.16594573               71.91015629                0.00010000                7.21756080                5.72241248              -20.99299495               -2.70480770               66.15423572              -33.73763084
              46.25643845               -2.33187696               70.96539955                0.00010000                7.94432725                6.86351207              -24.64306823               -1.79540990               47.28033556              -43.00868585
              47.34002724               -4.82195200               69.81268807                0.00010000                8.88054907                7.93298645              -28.39830802               -0.90300770               24.78362586              -55.89593037
              48.43404944               -7.30375107               68.42082646                0.51259676                9.40221921                8.77923312              -32.18517100               -0.44850345               12.58175775              -74.68054178
              40.18209215               18.54810859               76.32419720                0.52317210                0.45823604               -0.38076781                0.87733093               -0.11859745               -0.22432512               10.11687508
              41.18667451               16.18337517               74.71304649                0.00010000                4.26798543                1.27099936               -3.89310743               -5.25812343               68.51374864               -9.18941154
              42.26745186               13.71100252               74.47667082                0.00010000                8.59431405               -0.46845820               -6.44245292               -6.44253180              134.83935787               -6.22977392
              43.35856079               11.21117232               74.18557198                0.00010000                8.60514698                0.60515091               -9.00308149               -4.88950338              128.80296750               -6.89326747
              44.43955480                8.71203687               73.81967985                0.00010000                7.73728343                1.90525031              -11.70695854               -3.45211414              120.97774458               -8.52349924
              45.51330646                6.21288031               73.36273545                0.00010000                7.21874770                3.25917548              -14.62835260               -2.60560876              111.09624763              -10.78257857
              46.58392975                3.71637662               72.79025397                0.00010000                7.10787528                4.59017323              -17.80739372               -1.95221711               98.31985479              -13.67784653
              47.65546397                1.22449378               72.07030124                0.00010000                7.37758316                5.88659449              -21.24519335               -1.38762287               81.75463912              -17.41465504
              48.73148142               -1.26115125               71.16168132                0.00010000                7.97441904                7.13763084              -24.90291235               -0.85571171               60.18658229              -22.47809426
              49.81495235               -3.73975141               70.00913670                0.00010000                8.84664226                8.31454930              -28.71681270               -0.38156794               32.39157885              -30.05069191
              50.90841426               -6.21213620               68.54717427                0.51360291                9.34619145                9.36338731              -32.64210256               -0.26021261               16.67260361              -44.66620851
              42.53724423               19.54544368               76.06727527                0.76112757                0.71470991               -0.26649069                0.18216759                0.69637413                4.58747133                8.61185311
              43.54439133               17.19725534               74.39672045                0.48233170                8.48884860                1.38801763               -4.77644699               -6.94544225               84.17206619               -8.09105940
              44.70702121               14.69110120               74.31782472                0.44887746               13.89758286               -1.99013177               -6.96897216               -5.26757925              158.87945778               -3.37311125
              45.82234299               12.21276507               74.13291795                0.44147736               10.29342821                0.15927463               -9.29572476               -1.74618159              150.06488321               -3.64056858
              46.91288977                9.72861318               73.86842647                0.43875582                8.40846814                1.65763016              -11.78672629               -1.07947340              141.87574947               -4.40703317
              47.99051235                7.24450566               73.50962612                0.44057469                7.42698269                3.16253548              -14.51816149               -0.60537195              131.74324205               -5.54469880
              49.06142942                4.76209396               73.03244150                0.44685233                7.02018824                4.57173325              -17.53400055               -0.29143535              118.68660808               -7.02859442
              50.13091612                2.28367762               72.40383163                0.45804123                7.10699948                5.91838382              -20.83903699               -0.01570026              101.62522931               -8.96861582
              51.20356941               -0.18912435               71.57949643                0.47445653                7.62323564                7.20269054              -24.39609545                0.24186768               79.05451091              -11.66080600
              52.28338083               -2.65566102               70.49749315                0.49659222                8.50226726                8.40903952              -28.13892187                0.47489908               47.06137323              -15.74674125
              53.37361476               -5.11648333               69.03564484                0.75722872                9.02339279                9.56528701              -32.08102785                0.43781822               27.80984039              -26.86362173
              18.93307714               10.01207279               79.47432163                0.78408541               -1.65381141               -1.84230539                6.26984881               -0.48030551               -5.98096647                6.47407425
              19.91653903                7.40697298               78.75370890                0.51967081               -1.68859853               -1.06982314                4.22747066               -0.61337991               -8.31019632               -5.04549757
              20.89930517                4.79168768               77.98654567                0.47253407               -1.52855054               -0.58379097                2.12399813               -0.48664701               -8.55979064               -0.25116614
              21.88596802                2.15701303               77.26153616                0.45179263               -0.97517612                0.01017842                0.10054901               -0.42411809               -6.02712213               -0.41730756
              22.87980165               -0.49565696               76.54519079                0.44116075               -0.16665042                0.60132238               -1.98254933               -0.37021201               -5.24313210               -0.25022899
              23.88263501               -3.16103333               75.83585371                0.44034915                0.77620897                1.20921344               -4.11259048               -0.33226412               -4.80419842               -0.09598827
              24.89532583               -5.83137158               75.12827659                0.44980113                1.74391987                1.81243128               -6.27278791               -0.31870440               -4.94619510                0.05828240
              25.91751340               -8.49927939               74.41625899                0.46917562                2.62687455                2.40968903               -8.43040967               -0.32218710               -5.70713884                0.22175446
              26.94786332              -11.15949620               73.69376969                0.49935792                3.35733236                2.99029612              -10.56333936               -0.32465579               -7.30497276                0.28163278
              27.98466005              -13.81019845               72.95008811                0.54084315                3.94075356                3.56293673              -12.68590341               -0.32550263               -7.78547901                1.12519296
              29.02667839              -16.45296306               72.21820650                0.78735326                4.20183373                4.18863209              -14.77915390               -0.61440473               -7.20602506               -4.89670531
              21.53337389               10.99364973               79.18599295                0.54858846               -1.27761065               -1.92249531                5.47096537               -0.30563718                4.69028415                9.86285465
              22.52059778                8.39627475               78.46114481                0.00633068               -0.69776069               -0.75284198                3.44910840               -0.69444907               10.53682933               -9.37230116
              23.51941867                5.78584977               77.85320520                0.00010000                0.24006851               -1.14998328                1.82212754               -1.90371029               16.04888229              -11.49980361
              24.52539915                3.15711482               77.23809888                0.00010000                0.78520167               -0.94993160                0.05302552               -2.92340687               16.28929913              -16.60185186
              25.53512271                0.51035627               76.63495572                0.00010000                1.08852616               -0.52130358               -1.74787235               -3.62250561               17.21699118              -22.58481623
              26.54716968               -2.14894119               76.03859123                0.00010000                1.30695540                0.04022649               -3.61683362               -3.84374033               17.63073435              -29.41886905
              27.56126182               -4.81324726               75.44397839                0.00010000                1.55920851                0.62194666               -5.49893572               -3.55903093               17.50678001              -37.15993314
              28.57835385               -7.47518250               74.84516085                0.00010000                1.94072353                1.14728936               -7.39475134               -2.82276277               16.74199325              -45.89932489
              29.60007629              -10.12959324               74.23509607                0.00010000                2.48923059                1.57696868               -9.25129622               -1.72809725               15.53575772              -55.78696154
              30.62813846              -12.77456908               73.61194485                0.02507847                3.16113362                2.02723517              -11.08888412               -0.24113814               12.07425093              -66.98564190
              31.66329896              -15.41107674               72.93227013                0.53763018                3.51605015                2.17849116              -12.97918436                1.52816282                9.27678438              -83.10382823
              24.12171436               11.97362288               78.96545251                0.52825380               -1.12643479               -1.88110265                4.95813954               -0.11626185               -0.08658611               12.28531701
              25.11045001                9.39191614               78.08204149                0.00010000               -1.06617299               -0.32712580                2.43319327               -1.99602599               14.72568855              -12.12741908
              26.10039090                6.76868801               77.49492192                0.00010000               -0.37283152               -0.99745842                0.51641207               -4.77286450               28.75730998              -22.18317818
              27.10299338                4.13801440               76.89097270                0.00010000                0.65083241               -1.16523887               -1.47956573               -6.00164582               27.52549788              -32.54323678
              28.11340755                1.49391697               76.27803784                0.00010000                1.31851754               -0.92605764               -3.54579509               -7.06472261               26.62347877              -44.47273085
              29.12936373               -1.16022880               75.65485551                0.00010000                1.84894861               -0.46217459               -5.68466792               -7.39593692               25.36091316              -58.00042565
              30.15038652               -3.81893264               75.01529281                0.00010000                2.40201971                0.06826768               -7.92177324               -6.87894883               23.42063220              -73.30525646
              31.17740412               -6.47633361               74.35159022                0.00010000                3.11507152                0.53680679              -10.29797201               -5.56848142               20.67486631              -90.62334391
              32.21268795               -9.12795683               73.65490909                0.00010000                4.19583342                0.90675412              -12.94594493               -3.51675924               16.81388071             -110.24177591
              33.26132079              -11.76965374               72.91140036                0.00010000                5.87845117                1.20870123              -16.46562831               -1.25810582               10.11479717             -133.10309700
              34.33025697              -14.40939324               72.08198054                0.49971185                6.89361794                1.57504020              -19.73051961                0.75643853                5.32010090             -157.73805783
              26.69446212               12.95602768               78.72587652                0.52653172               -0.88499939               -1.64046769                4.34746985               -0.10111132                0.13080100               11.57994561
              27.68561213               10.38973224               77.73407559                0.00010000               -0.82994989               -0.12556564                1.55374932               -2.74626417               20.36187382              -10.41754514
              28.67786313                7.76590060               77.14695098                0.00010000               -0.27374270                0.11481933               -0.69128459               -5.60988339               40.03561344              -20.99154972
              29.68013728                5.13381004               76.54692431                0.00010000                0.71041643                0.16286534               -2.93805231               -6.30050981               38.53826185              -31.55476844
              30.69207145                2.49183511               75.92775406                0.00010000                1.59816372                0.39972435               -5.24760416               -6.90485278               36.44188028              -43.01552309
              31.71210055               -0.15818468               75.28344875                0.00010000                2.38580964                0.80056239               -7.65343783               -7.01551448               33.63265759              -55.86977431
              32.73978765               -2.81188191               74.60556242                0.00010000                3.19539249                1.28953376              -10.19444722               -6.46525740               29.89433012              -70.43283860
              33.77600840               -5.46444637               73.88379605                0.00010000                4.16367953                1.78775353              -12.93027825               -5.26486580               25.01960090              -87.01985095
              34.82306124               -8.11145816               73.10579968                0.00010000                5.42021772                2.26246254              -15.96235519               -3.57067271               18.61927493             -105.98706328
              35.88441275              -10.75039505               72.25465546                0.00010000                6.74227427                2.67373589              -19.18532816               -1.72837865               10.18322845             -127.47387649
              36.95790672              -13.37957594               71.31086680                0.50044577                7.34939690                3.63167536              -22.11062141               -0.73829747                5.15330887             -149.93503804
              29.25228302               13.94081353               78.49142517                0.52486975               -0.66312117               -1.41155938                3.76434255               -0.09712760                0.11960782               11.95102309
              30.24565181               11.38940483               77.38905278                0.00010000               -0.40837963                0.07287951                0.66609728               -3.22615294               26.37472038              -10.13144104
              31.24411543                8.77098440               76.81184361                0.00010000                0.26984312                0.77644706               -1.82586389               -6.38766444               51.93894919              -19.67031306
              32.25104867                6.14127171               76.21858042                0.00010000                1.15948952                1.14514395               -4.30257959               -6.80780880               49.94809973              -29.55778732
              33.26730522                3.50191146               75.59876008                0.00010000                2.08608974                1.46810679               -6.82979307               -7.04362836               46.89057984              -40.22112543
              34.29277046                0.85578245               74.94119467                0.00010000                3.00189185                1.87688449               -9.45925293               -6.88316833               42.66832735              -52.13340843
              35.32734305               -1.79314197               74.23369229                0.00010000                3.94562956                2.37236235              -12.23189020               -6.23205492               37.14823353              -65.69465090
              36.37168305               -4.44057853               73.46274653                0.00010000                4.99400643                2.91330208              -15.18043254               -5.12337726               30.16750489              -81.26551300
              37.42722318               -7.08270757               72.61350838                0.00010000                6.15939734                3.45542970              -18.29201807               -3.68424253               21.56738519              -99.12207723
              38.49487100               -9.71617902               71.67041054                0.00010000                7.33148046                4.04415635              -21.44956360               -2.03791274               11.34662665             -119.18817770
              39.57385279              -12.33675973               70.61982341                0.50163822                7.89817890                4.82579600              -24.44858090               -0.88877253                5.66905791             -140.92653801
              31.79533696               14.92779649               78.25943947                0.52341382               -0.44187637               -1.19893324                3.18941081               -0.09724538                0.13357240               12.13124410
              32.79091820               12.39118983               77.04678221                0.00010000                0.14529984                0.29201724               -0.21856849               -3.53389687               32.92907526               -9.93474713
              33.79824296                9.78142954               76.49010091                0.00010000                1.10679206                1.24264519               -2.90739981               -6.92690372               64.89094196              -18.18809609
              34.81305404                7.15671292               75.91412459                0.00010000                1.92225930                1.79868568               -5.56290183               -7.27669339               62.38551559              -26.80495040
              35.83668815                4.52119725               75.30398780                0.00010000                2.82182846                2.22474755               -8.26167289               -7.24787115               58.38863398              -36.21429062
              36.86949061                1.87935301               74.64432108                0.00010000                3.74096945                2.69461074              -11.06190156               -6.82340632               52.81281740              -46.82511652
              37.91150753               -0.76443466               73.91897811                0.00010000                4.68079265                3.25741554              -14.00015274               -6.03271973               45.54853657              -59.03610532
              38.96310646               -3.40618033               73.11095937                0.00010000                5.67346711                3.88777916              -17.08447981               -4.94355666               36.50047596              -73.22823155
              40.02497688               -6.04234956               72.20291143                0.00010000                6.73000973                4.54808674              -20.28089525               -3.62468488               25.67128736              -89.71265636
              41.09770666               -8.66951193               71.17866732                0.00010000                7.81579058                5.22069707              -23.50842071               -2.02867711               13.30046920             -108.62416494
              42.18129269              -11.28306002               70.02611202                0.50278265                8.35860313                5.88995926              -26.67435672               -0.91768888                6.64396528             -129.87378921
              34.32355144               15.91683486               78.02867011                0.52150325               -0.22106216               -0.99765356                2.61343755               -0.09851870                0.15302749               12.19027246
              35.32134082               13.39524518               76.70576666                0.00010000                0.82514078                0.52621108               -1.10508849               -3.76790549               40.24395265               -9.88743928
              36.34005426               10.79583730               76.18475561                0.00010000                2.22031360                1.56379524               -3.93056067               -7.31739160               79.34410447              -16.39354858
              37.36574709                8.17724542               75.64098419                0.00010000                2.98267250                2.15151065               -6.70307147               -7.60982372               76.30432118              -23.30985200
              38.39970771                5.54640641               75.05534832                0.00010000                3.80935785                2.63504086               -9.51391788               -7.31712328               71.36954696              -31.05152388
              39.44193425                2.90967467               74.40859658                0.00010000                4.62571407                3.20704846              -12.42775910               -6.60741082               64.46837507              -39.98260164
              40.49222199                0.27200634               73.68081855                0.00010000                5.43962859                3.90235342              -15.47952021               -5.65270220               55.48740187              -50.45777440
              41.55072682               -2.36282295               72.85118149                0.00010000                6.29195481                4.67929324              -18.67133595               -4.54056527               44.33265133              -62.88243422
              42.61806108               -4.99174584               71.89860287                0.00010000                7.21405472                5.48528712              -21.97173135               -3.29211936               31.05919442              -77.71392539
              43.69500792               -7.61176508               70.80391906                0.00010000                8.22670548                6.25829393              -25.32607111               -1.82703582               16.03030172              -95.38600060
              44.78259519              -10.21896055               69.55339028                0.50397730                8.75872793                6.89412237              -28.68728122               -0.83758454                8.03550685             -116.19230915
              36.83654596               16.90784342               77.79789284                0.51988604                0.00116883               -0.79936289                2.03602353               -0.10088563                0.16201257               12.10152679
              37.83655765               14.40171405               76.36458398                0.00010000                1.66744605                0.77025755               -2.00230641               -4.02073138               48.55815218               -9.96135817
              38.86989488               11.81270545               75.89927123                0.00010000                3.68654051                1.68202311               -4.88496609               -7.62274587               95.76550526              -14.21527713
              39.91028846                9.19974313               75.40696846                0.00010000                4.40107779                2.12094105               -7.69911130               -7.72158797               92.12312409              -18.99136223
              40.95791644                6.57389807               74.86450140                0.00010000                5.07270001                2.64625298              -10.55232177               -6.99783733               86.22220874              -24.74339602
              42.01174246                3.94349397               74.24934445                0.00010000                5.65173355                3.40029146              -13.51759743               -5.98283683               78.03231098              -31.66977416
              43.07095111                1.31361241               73.53844808                0.00010000                6.21524409                4.28887485              -16.63194457               -4.90106349               67.39203404              -40.01278051
              44.13604734               -1.31259446               72.70682918                0.00010000                6.85627565                5.24903452              -19.89957814               -3.80575662               54.08509285              -50.18337272
              45.20807662               -3.93264382               71.72782604                0.00010000                7.61666534                6.22336132              -23.29688839               -2.67513207               38.06238285              -62.82502218
              46.28838065               -6.54434605               70.57595593                0.00010000                8.54276522                7.13099816              -26.78591425               -1.44241103               19.70870143              -78.83290793
              47.37893193               -9.14517757               69.23219854                0.50520711                9.05512779                7.81059875              -30.34139140               -0.67704039                9.93537298              -99.03759933
              39.33379247               17.90084760               77.56537799                0.51792105                0.22716934               -0.59374271                1.45063076               -0.10712107                0.23759987               12.01753913
              40.33606417               15.41065033               76.02225504                0.00010000                2.78888903                1.01693679               -2.91467229               -4.42824977               58.18137926              -10.31412055
              41.38957025               12.82947776               75.63808163                0.00010000                5.70292719                1.33033085               -5.75464381               -7.90919242              114.65986436              -11.29178642
              42.45012271               10.21966424               75.22107687                0.00010000                6.32149321                1.47217913               -8.51794284               -7.15446763              110.20933501              -13.66029492
              43.51600012                7.59933147               74.74309014                0.00010000                6.62202307                2.29371882              -11.33514022               -5.88734125              103.23000237              -17.32646842
              44.58256317                4.97768049               74.18105079                0.00010000                6.71445174                3.32651734              -14.28200359               -4.68616343               93.85687311              -22.02406516
              45.65028915                2.35778384               73.51036881                0.00010000                6.91523705                4.44433071              -17.39749643               -3.66287372               81.75372458              -27.85462131
              46.72086791               -0.25784226               72.70205111                0.00010000                7.30104387                5.58779053              -20.68982806               -2.72280563               66.40739853              -35.17022883
              47.79631003               -2.86727861               71.72198913                0.00010000                7.89127660                6.71880577              -24.14457022               -1.81424893               47.36963334              -44.67949860
              48.87869345               -5.46914512               70.53271837                0.00010000                8.72037000                7.77638050              -27.74090486               -0.91713142               24.80361171              -57.84606472
              49.97071743               -8.06274857               69.10332841                0.50610493                9.20239855                8.59746189              -31.47300929               -0.45621197               12.63373809              -76.98858133
              41.81479809               18.89596857               77.33288448                0.51644608                0.45643995               -0.37171347                0.85981082               -0.11782332               -0.24184382               10.45137249
              42.81936249               16.42205278               75.67423751                0.00010000                4.39495118                1.25612944               -3.85843793               -5.31564699               69.56873430               -9.46943524
              43.90269712               13.83931206               75.41187576                0.00010000                8.89914548               -0.55924328               -6.50158503               -6.50944583              136.83640260               -6.49960402
              44.99734540               11.22918672               75.09488133                0.00010000                8.97281221                0.50313747               -9.11643916               -4.91886485              130.58258707               -7.23083789
              46.08215336                8.61977244               74.70200245                0.00010000                8.11107085                1.79367252              -11.81523554               -3.46111346              122.44762552               -8.95477672
              47.15956682                6.01002432               74.21627917                0.00010000                7.55315144                3.13405002              -14.66540718               -2.60921432              112.21352779              -11.31681814
              48.23321639                3.40249902               73.61283905                0.00010000                7.35434317                4.44681593              -17.70602254               -1.95427728               99.08689219              -14.32226447
              49.30665368                0.79916135               72.85969024                0.00010000                7.49390557                5.72216129              -20.94858131               -1.38793664               82.22147916              -18.17774208
              50.38309450               -1.79826770               71.91585577                0.00010000                7.94271476                6.95189584              -24.38565461               -0.85277546               60.43746401              -23.37347168
              51.46550798               -4.38881844               70.72631837                0.00010000                8.69600447                8.11046947              -28.01877262               -0.37839263               32.50149308              -31.10802272
              52.55701459               -6.97322833               69.22541135                0.50737352                9.15066130                9.14453878              -31.89528067               -0.25991043               16.77946290              -45.98794867
              44.27926757               19.89341333               77.06894273                0.75782387                0.71401585               -0.25552319                0.15508163                0.68290614                4.73025540                8.88563176
              45.28640773               17.43577292               75.34907750                0.47846779                8.64899165                1.37201320               -4.73626859               -7.05149785               85.64730070               -8.34256775
              46.45224741               14.81829290               75.24762082                0.44810304               14.24386510               -2.10191634               -7.05483948               -5.34726718              161.43728322               -3.48242334
              47.57128503               12.22972699               75.03907943                0.44132469               10.68464190                0.05402771               -9.45119939               -1.76043582              152.32188129               -3.78707581
              48.66594024                9.63520492               74.74967678                0.43868019                8.81836378                1.54324761              -11.94841228               -1.08958656              143.78775222               -4.59962446
              49.74765231                7.04036149               74.36397791                0.44053821                7.80631675                3.03371735              -14.61394818               -0.61568897              133.26213416               -5.78771629
              50.82206658                4.44672016               73.85749454                0.44615225                7.31117978                4.42211389              -17.48850501               -0.30300757              119.81121039               -7.32374270
              51.89387590                1.85660096               73.19710811                0.45629905                7.25838656                5.74396140              -20.58473926               -0.02582055              102.40610117               -9.31882999
              52.96723431               -0.72824070               72.33873214                0.47126055                7.61051584                7.00270069              -23.89581337                0.23714621               79.58280322              -12.07271344
              54.04608622               -3.30693573               71.22067087                0.49178446                8.35523504                8.18827076              -27.42502249                0.47696943               47.38619280              -16.23629957
              55.13433901               -5.87985780               69.71976148                0.75413146                8.82527895                9.33705358              -31.31106754                0.44023547               28.09534974              -27.54791615
              19.60339021               10.36984837               80.53703800                0.77851188               -1.65380893               -1.84163315                6.26260030               -0.48237530               -6.11957835                6.60925603
              20.58685213                7.65229124               79.79599869                0.51325780               -1.70329265               -1.06669987                4.21917050               -0.62633274               -8.46872736               -5.17865533
              21.56932436                4.92422671               79.00788745                0.46967814               -1.54384170               -0.58410741                2.13467392               -0.46389396               -8.70165220               -0.20552059
              22.55597529                2.17655511               78.26263083                0.45068185               -0.97557180                0.01115090                0.12018222               -0.41706020               -6.15558090               -0.40475003
              23.54981293               -0.58905547               77.52550958                0.44087979               -0.16666628                0.60043143               -1.95083195               -0.37067382               -5.42098846               -0.23936646
              24.55264197               -3.36724116               76.79489578                0.44003577                0.77164668                1.20696128               -4.07494969               -0.34222305               -5.02459405               -0.10356849
              25.56524586               -6.15041698               76.06573479                0.44895654                1.73018868                1.81140690               -6.22398822               -0.32368860               -5.18427319                0.04997684
              26.58724574               -8.93124488               75.33214795                0.46676695                2.60705107                2.40457814               -8.36967918               -0.32014237               -5.93888064                0.19845446
              27.61738688              -11.70470040               74.58828730                0.49415250                3.33830850                2.99144899              -10.50501965               -0.32436586               -7.52928361                0.25675766
              28.65401191              -14.46892078               73.82338086                0.53216076                3.92293083                3.56604099              -12.62598237               -0.32629872               -8.00276965                1.10154068
              29.69584550              -17.22556477               73.07054747                0.78146119                4.18335880                4.19143471              -14.71597045               -0.59224466               -7.42751176               -5.00147507
              22.31612358               11.35143204               80.24069293                0.53893902               -1.27239564               -1.92938010                5.46202537               -0.31364703                4.86724828               10.14837058
              23.30339963                8.64162425               79.49564915                0.00010000               -0.67850466               -0.74157118                3.44415444               -0.72177052               10.91469948               -9.61775370
              24.30255349                5.91838563               78.87143002                0.00010000                0.25230741               -1.12458375                1.81239866               -1.91953777               16.55183839              -11.95323489
              25.30844578                3.17666662               78.23857208                0.00010000                0.77254133               -0.90646564                0.04298702               -2.91959289               16.70290361              -17.32863790
              26.31800432                0.41694885               77.61742225                0.00010000                1.07273585               -0.46680973               -1.76108655               -3.58534778               17.57494538              -23.58567515
              27.32990049               -2.35517154               77.00231293                0.00010000                1.30032598                0.09887685               -3.62932667               -3.77133190               17.94877960              -30.69857133
              28.34401084               -5.13230291               76.38884364                0.00010000                1.56427646                0.68334234               -5.52982966               -3.45525898               17.80226685              -38.74230378
              29.36118602               -7.90719910               75.77097510                0.00010000                1.94851664                1.20198431               -7.42374048               -2.68607649               17.03422139              -47.83937022
              30.38298117              -10.67478591               75.14220745                0.00010000                2.49975440                1.62120179               -9.30475886               -1.56631989               15.85525118              -58.19283994
              31.41118111              -13.43326037               74.50058997                0.01245962                3.17929363                1.99339250              -11.15928872               -0.14182055               12.37306639              -70.11117363
              32.44656704              -16.18365043               73.80194341                0.52892708                3.53859327                2.10208658              -13.05630223                1.41505967                9.53676045              -86.90391153
              25.01673285               12.33126077               80.01502291                0.52058886               -1.12697361               -1.88992606                4.94876255               -0.10894788               -0.11788467               12.67131279
              26.00546312                9.63745982               79.10641629                0.00010000               -1.04208084               -0.31548958                2.43896345               -2.01195458               14.99220285              -12.41493707
              26.99589124                6.90173503               78.49997903                0.00010000               -0.32214494               -0.95789241                0.50028658               -4.79665848               29.26611411              -23.08782238
              27.99902022                4.15842579               77.87603834                0.00010000                0.70264450               -1.10010537               -1.50096056               -5.98827222               27.95166794              -33.98029534
              29.00994413                1.40160834               77.24244471                0.00010000                1.37234348               -0.84280674               -3.56390507               -6.99832262               26.96415694              -46.44346682
              30.02646709               -1.36526362               76.59794374                0.00010000                1.91120563               -0.37441245               -5.68987853               -7.27248046               25.59761752              -60.50482449
              31.04816824               -4.13675014               75.93617875                0.00010000                2.47700567                0.14815934               -7.89191603               -6.71805759               23.52355643              -76.38660762
              32.07600720               -6.90720520               75.24917015                0.00010000                3.19767556                0.59201567              -10.18980920               -5.39539937               20.57636901              -94.34504854
              33.11212175               -9.67227636               74.52726068                0.00010000                4.20164078                0.90489003              -12.62768708               -3.42972808               16.29719845             -114.71454332
              34.16004002              -12.42905293               73.75365790                0.00010000                5.64025249                1.10989487              -15.37907979               -1.31225452                9.40761113             -138.27945527
              35.22492680              -15.18352304               72.89544252                0.49438008                6.48867831                1.43720454              -18.06156201                0.53927538                4.84270186             -163.48521125
              27.70154652               13.31363352               79.76935577                0.51877428               -0.88602460               -1.64523014                4.33965149               -0.10113752                0.12969599               11.93690187
              28.69268627               10.63531445               78.74971851                0.00010000               -0.79460833               -0.12293110                1.56995834               -2.75901691               20.62351665              -10.64034883
              29.68565435                7.89922778               78.13995485                0.00010000               -0.19396224                0.13235182               -0.70276957               -5.62495926               40.53460984              -21.81411184
              30.68880703                5.15466451               77.51737356                0.00010000                0.80364636                0.19242066               -2.96244462               -6.30118374               38.98165201              -32.91288749
              31.70172728                2.40009271               76.87513191                0.00010000                1.70011665                0.43687728               -5.26640702               -6.87877246               36.77869688              -44.88123941
              32.72280936               -0.36265979               76.20691346                0.00010000                2.49319944                0.83436255               -7.64487058               -6.97026933               33.82609256              -58.24224522
              33.75159127               -3.12933973               75.50395059                0.00010000                3.29974506                1.30471145              -10.12498316               -6.42962782               29.89945638              -73.31729747
              34.78880426               -5.89535879               74.75551207                0.00010000                4.23215379                1.76951799              -12.73769383               -5.29661989               24.77762523              -90.41404126
              35.83623434               -8.65668811               73.94868311                0.00010000                5.36892207                2.19362417              -15.51854737               -3.74631689               18.14311441             -109.81533787
              36.89618270              -11.41106247               73.06725959                0.00010000                6.50292155                2.61540065              -18.41318921               -1.95689801                9.74870646             -131.42548695
              37.96629277              -14.15490634               72.09517896                0.49502209                7.01100714                3.61016348              -21.17248877               -0.85913116                4.93079331             -154.06323864
              30.37134822               14.29835616               79.52905782                0.51732811               -0.66597147               -1.41585498                3.75860460               -0.09466651                0.11785196               12.33252847
              31.36468851               11.63500120               78.39583703                0.00010000               -0.36531127                0.07144439                0.68945741               -3.23733167               26.66070526              -10.36081054
              32.36404200                8.90438207               77.79350366                0.00010000                0.37215533                0.77639326               -1.83557959               -6.40662073               52.48357707              -20.43520490
              33.37213162                6.16227421               77.17537539                0.00010000                1.28254889                1.14877305               -4.32780463               -6.82162209               50.43835808              -30.81994305
              34.38969298                3.41034588               76.53031949                0.00010000                2.21812626                1.47257559               -6.84776311               -7.05047346               47.26490599              -41.95197855
              35.41649414                0.65142363               75.84665776                0.00010000                3.12908522                1.87614551               -9.44184673               -6.89716668               42.88150356              -54.31849192
              36.45227468               -2.11065591               75.11182953                0.00010000                4.04645208                2.36002674              -12.14315491               -6.28580939               37.17014171              -68.31900462
              37.49742318               -4.87181484               74.31207323                0.00010000                5.03122081                2.88795189              -14.97226120               -5.25903532               29.99771315              -84.28919595
              38.55289910               -7.62840388               73.43264015                0.00010000                6.08485519                3.43587260              -17.92010965               -3.90807812               21.27932216             -102.45045988
              39.61912029              -10.37674492               72.45885872                0.00010000                7.12664018                4.08088485              -20.91644457               -2.23431156               11.11383840             -122.74270860
              40.69543190              -13.11131977               71.37871843                0.49594420                7.63116142                4.91327818              -23.83504610               -0.97878359                5.56428820             -144.83526748
              33.02636311               15.28531642               79.29131817                0.51614343               -0.44493823               -1.19977118                3.18073538               -0.09575328                0.12942153               12.51956463
              34.02191373               12.63674334               78.04473760                0.00010000                0.19429071                0.28600060               -0.18921031               -3.54591573               33.26643211              -10.16346378
              35.03024893                9.91475565               77.46094629                0.00010000                1.22485183                1.23004789               -2.91639767               -6.95008541               65.53666734              -18.89972750
              36.04641077                7.17763997               76.85830484                0.00010000                2.06597267                1.78308724               -5.59020162               -7.30035360               62.97541116              -27.95476184
              37.07156838                4.42954422               76.22122888                0.00010000                2.97285240                2.20683584               -8.28098147               -7.27383513               58.85325771              -37.77541197
              38.10586782                1.67486312               75.53379000                0.00010000                3.87725839                2.67349322              -11.04203304               -6.86616368               53.10792824              -48.78072911
              39.14911355               -1.08213919               74.77948871                0.00010000                4.77518538                3.23416724              -13.90725935               -6.11556345               45.66065606              -61.36814607
              40.20137152               -3.83759975               73.94122472                0.00010000                5.69446548                3.87084802              -16.88750664               -5.08427979               36.45573360              -75.90563149
              41.26300286               -6.58797065               73.00189063                0.00010000                6.65204206                4.55791556              -19.96426516               -3.80421157               25.54392076              -92.69843226
              42.33441236               -9.32944478               71.94594788                0.00010000                7.64319753                5.27506171              -23.08792218               -2.16701703               13.19685077             -111.92167888
              43.41586681              -12.05664077               70.76202192                0.49718791                8.14544446                5.96435706              -26.20029698               -0.97695714                6.61267567             -133.58587896
              35.66657931               16.27436074               79.05477684                0.51448987               -0.22483444               -0.99675830                2.60757426               -0.09828699                0.15188487               12.57979793
              36.66433096               13.64072121               77.69487813                0.00010000                0.87821799                0.51731773               -1.07276532               -3.78222050               40.66721267              -10.12355912
              37.68414367               10.92898303               77.14536153                0.00010000                2.35025047                1.54154002               -3.94041882               -7.34549889               80.15635301              -17.04138056
              38.71133597                8.19793595               76.57373966                0.00010000                3.14247295                2.12173482               -6.73551671               -7.63819231               77.05707577              -24.32169144
              39.74699312                5.45448260               75.96004854                0.00010000                3.97591573                2.60092586               -9.53903519               -7.34860393               71.98325667              -32.40427912
              40.79085428                2.70489350               75.28441184                0.00010000                4.77165794                3.17082401              -12.41167978               -6.65305278               64.89889580              -41.66487990
              41.84242628               -0.04597256               74.52656414                0.00010000                5.53573823                3.86799537              -15.38904785               -5.72605350               55.72936173              -52.46062024
              42.90156905               -2.79439788               73.66560389                0.00010000                6.31168043                4.65541048              -18.48104986               -4.64639844               44.41987045              -65.19670774
              43.96865989               -5.53724557               72.68065658                0.00010000                7.14405076                5.48312272              -21.67388944               -3.41179364               31.05709218              -80.33985958
              45.04445006               -8.27124368               71.55294703                0.00010000                8.08124288                6.27880833              -24.93913161               -1.91297542               16.01015386              -98.35502371
              46.13028475              -10.99203263               70.26905027                0.49791597                8.58346845                6.91148947              -28.25555250               -0.87181426                8.05176994             -119.58587269
              38.29167643               17.26538125               78.81820339                0.51266759               -0.00293958               -0.79712750                2.02698418               -0.10075822                0.16452501               12.49303407
              39.29164703               14.64708970               77.34474848                0.00010000                1.72238899                0.75891007               -1.96360705               -4.03770395               49.11080968              -10.21696180
              40.32612421               11.94558645               76.85031088                0.00010000                3.82501563                1.65235421               -4.89905597               -7.65571197               96.82458628              -14.78097585
              41.36814735                9.22007466               76.32971755                0.00010000                4.57572732                2.08036660               -7.74150064               -7.75070414               93.11136152              -19.82845730
              42.41763876                6.48156274               75.75876744                0.00010000                5.25572883                2.59975781              -10.58981737               -7.02610124               87.04811888              -25.84007568
              43.47326192                3.73827960               75.11423007                0.00010000                5.81225489                3.35063157              -13.51271246               -6.01866184               78.64988987              -33.02446736
              44.53388385                0.99522072               74.37267553                0.00010000                6.32273176                4.23898283              -16.54898992               -4.95180096               67.79893620              -41.62731451
              45.59971656               -1.74449154               73.50902244                0.00010000                6.88644686                5.20389856              -19.71237611               -3.87148097               54.31570731              -52.06401052
              46.67161279               -4.47830820               72.49672726                0.00010000                7.56116811                6.18744531              -22.99863637               -2.74365477               38.17416430              -64.99093760
              47.75093992               -7.20386861               71.31051108                0.00010000                8.41978135                7.10039724              -26.39768398               -1.48963228               19.75496042              -81.32902837
              48.84000842               -9.91841098               69.93142495                0.49908062                8.90684976                7.76485637              -29.91207921               -0.69326903                9.99077596             -101.94193191
              40.90114725               18.25841819               78.57984735                0.51128571                0.22244353               -0.59049715                1.44334406               -0.10823900                0.23763822               12.40018595
              41.90337168               15.65589941               76.99327820                0.00010000                2.84486063                1.00371504               -2.87441022               -4.44885981               58.91611955              -10.59310221
              42.95804446               12.96203011               76.58038670                0.00010000                5.84869577                1.29423939               -5.77636750               -7.94721245              116.06394195              -11.74090715
              44.02034560               10.23954328               76.13555598                0.00010000                6.51108535                1.42391673               -8.57728218               -7.18069266              111.51449119              -14.27249945
              45.08826617                7.50647776               75.62942996                0.00010000                6.82387392                2.23959785              -11.39431092               -5.90832176              104.33510849              -18.11032968
              46.15682307                4.77190613               75.03820498                0.00010000                6.89476197                3.26686131              -14.29905506               -4.70960863               94.71880101              -22.98750501
              47.22616140                2.03880709               74.33689297                0.00010000                7.04226350                4.37924445              -17.33228626               -3.69266813               82.37229721              -29.00491799
              48.29766834               -0.69031991               73.49635973                0.00010000                7.35012300                5.51867405              -20.51238988               -2.75717391               66.81536063              -36.51917467
              49.37316386               -3.41349666               72.48250814                0.00010000                7.85459287                6.64722546              -23.84662173               -1.84630281               47.61525346              -46.25134343
              50.45476020               -6.12923574               71.25786998                0.00010000                8.61701246                7.70021220              -27.34697496               -0.93760666               24.92416152              -59.69360174
              51.54550411               -8.83673550               69.79136627                0.50021640                9.07439115                8.50413715              -31.04120015               -0.45951874               12.73378893              -79.21223582
              43.49454920               19.25357131               78.34139342                0.50994284                0.45087133               -0.36891873                0.84527619               -0.11910360               -0.25716876               10.76679421
              44.49905792               16.66716400               76.63587773                0.00010000                4.44934434                1.24122968               -3.80638263               -5.34062493               70.55034253               -9.72675111
              45.58353609               13.97147124               76.34663911                0.00010000                9.05139649               -0.60337557               -6.53779643               -6.54452573              138.70357135               -6.76358675
              46.68008585               11.24855300               76.00324319                0.00010000                9.17866926                0.45420382               -9.20220508               -4.93687403              132.28198356               -7.55799695
              47.76710948                8.52635470               75.58337513                0.00010000                8.33272833                1.73971254              -11.90883512               -3.47280004              123.90107877               -9.36827559
              48.84674041                5.80361683               75.06942730                0.00010000                7.75735256                3.07238673              -14.72022949               -2.62174440              113.38709944              -11.82413160
              49.92225653                3.08280560               74.43613352                0.00010000                7.50682106                4.37505146              -17.67650548               -1.96864319               99.98278030              -14.92901298
              50.99687683                0.36588194               73.65132961                0.00010000                7.56730201                5.63925924              -20.79922751               -1.40185481               82.87156077              -18.89218322
              52.07360257               -2.34536369               72.67396822                0.00010000                7.92748984                6.85826510              -24.10461943               -0.86237238               60.87931737              -24.21218674
              53.15542663               -5.04986437               71.44876125                0.00010000                8.61075031                8.00718697              -27.63330263               -0.38247019               32.73669215              -32.10905550
              54.24581757               -7.74832824               69.90926866                0.50120610                9.03909420                9.02967949              -31.47595489               -0.25456628               16.94638013              -47.27530298
              46.07157979               20.25103981               78.07037691                0.75456296                0.70794597               -0.25314916                0.14196429                0.67147779                4.86761165                9.13919675
              47.07865925               17.68072401               76.30199507                0.47491048                8.70925756                1.35600083               -4.68095111               -7.09372749               87.01685357               -8.56652159
              48.24576494               14.94996260               76.17672793                0.44710783               14.40327025               -2.15086393               -7.11359119               -5.38194723              163.82688100               -3.58733179
              49.36672466               12.24862736               75.94389397                0.44107450               10.89906983                0.00743600               -9.57543526               -1.77064876              154.47209752               -3.92521499
              50.46374634                9.54127201               75.62945822                0.43867626                9.06063129                1.49173091              -12.09348615               -1.09998858              145.66407540               -4.78027894
              51.54793728                6.83335386               75.21734715                0.44036635                8.03885441                2.97370379              -14.72898573               -0.62850747              134.82947690               -6.01476122
              52.62452343                4.12630812               74.68267140                0.44557146                7.49316309                4.35025195              -17.52216049               -0.31773932              121.07214933               -7.59871125
              53.69780054                1.42246528               73.99213685                0.45469194                7.35696476                5.65833388              -20.49452885               -0.03960329              103.39564899               -9.64547262
              54.77166272               -1.27633136               73.10158016                0.46828418                7.61374022                6.90323323              -23.66322514                0.22815156               80.34284550              -12.46072396
              55.85007535               -3.96909200               71.94899270                0.48698246                8.28389067                8.07723664              -27.07450137                0.47434376               47.87486532              -16.70824354
              56.93734054               -6.65614191               70.40942349                0.75095157                8.72651879                9.21863255              -30.92400126                0.44730470               28.46889249              -28.23774169
              20.29276418               10.73694804               81.59957364                0.77331362               -1.64491494               -1.83158103                6.22943421               -0.48068310               -6.25520276                6.73508241
              21.27631503                7.90409897               80.83809231                0.50659689               -1.70620926               -1.05968853                4.19275475               -0.63883009               -8.61163155               -5.29995576
              22.25863999                5.06049212               80.02923915                0.46698526               -1.55403807               -0.57986353                2.13152790               -0.46392069               -8.81718676               -0.15970953
              23.24523427                2.19703552               79.26393981                0.44941573               -0.97615367                0.00990258                0.14055566               -0.41501582               -6.26440561               -0.38930747
              24.23911692               -0.68426964               78.50617415                0.44048577               -0.16581772                0.59772687               -1.91456059               -0.37234050               -5.58463793               -0.23464383
              25.24191791               -3.57793898               77.75435471                0.44047799                0.76356378                1.19784120               -4.01468072               -0.33540957               -5.22416295               -0.10075390
              26.25438820               -6.47658975               77.00379683                0.44762061                1.71326816                1.80524449               -6.14694452               -0.32560306               -5.39503927                0.03117518
              27.27618328               -9.37296461               76.24886541                0.46396266                2.58282689                2.39724976               -8.28595678               -0.33146136               -6.15326647                0.17651534
              28.30604473              -12.26220135               75.48366930                0.48908563                3.30806085                2.97779353              -10.40292305               -0.32889067               -7.74330722                0.22515787
              29.34234449              -15.14258584               74.69756846                0.52383914                3.88751057                3.55162554              -12.50728023               -0.32722138               -8.20663026                1.07384975
              30.38379495              -18.01578445               73.92388709                0.77586040                4.14504512                4.17344253              -14.58257176               -0.56662607               -7.63277868               -5.09897384
              23.12080642               11.71863223               81.29523345                0.53010218               -1.26517330               -1.92808717                5.43292737               -0.32272798                5.03678027               10.42578606
              24.10815469                8.89350208               80.53002790                0.00010000               -0.66369547               -0.72754624                3.42127175               -0.74579079               11.27938226               -9.84709842
              25.10753251                6.05469349               79.88945317                0.00010000                0.26551524               -1.10426947                1.79632574               -1.94581979               17.04045474              -12.39308639
              26.11346499                3.19713455               79.23895862                0.00010000                0.76741298               -0.87142518                0.03565405               -2.93295333               17.11227150              -18.04293709
              27.12288077                0.32170763               78.59973399                0.00010000                1.06294422               -0.41961932               -1.77249796               -3.57133780               17.93637336              -24.56564298
              28.13472387               -2.56596057               77.96600469                0.00010000                1.28821042                0.15065851               -3.63079805               -3.72904085               18.24313811              -31.93849446
              29.14864498               -5.45853730               77.33338180                0.00010000                1.54752940                0.74090012               -5.53989874               -3.38942526               18.07822818              -40.25699505
              30.16567446               -8.34899211               76.69668604                0.00010000                1.94607337                1.25965335               -7.44453966               -2.61099026               17.31928381              -49.66969972
              31.18756644              -11.23242341               76.04900089                0.00010000                2.50946835                1.67390016               -9.32841884               -1.49890192               16.14157289              -60.38816604
              32.21586383              -14.10706959               75.38875908                0.00010000                3.18804216                2.03366881              -11.18724824               -0.13399631               12.64717326              -72.75202228
              33.25132729              -16.97405002               74.67114408                0.52043550                3.54634582                2.17257147              -13.07838800                1.28929821                9.78079846              -90.00626827
              25.93656991               12.69838629               81.06442776                0.51279934               -1.12319581               -1.89507089                4.92166637               -0.10761753               -0.15080881               13.05271576
              26.92533795                9.88954804               80.13082076                0.00010000               -1.02393894               -0.29987810                2.43685073               -2.03254279               15.24079812              -12.68905061
              27.91609113                7.03840673               79.50492765                0.00010000               -0.28884471               -0.92998804                0.49015178               -4.82866296               29.74944113              -23.97391248
              28.91956106                4.17960702               78.86095348                0.00010000                0.73470768               -1.04596538               -1.51105452               -5.99702469               28.36002354              -35.39278264
              29.93078529                1.30733798               78.20675974                0.00010000                1.40104877               -0.76860465               -3.56691854               -6.96540537               27.29220575              -48.36702795
              30.94758203               -1.57492581               77.54105794                0.00010000                1.94229719               -0.28915183               -5.68091308               -7.20149420               25.83884996              -62.93605016
              31.96963123               -4.46177175               76.85745449                0.00010000                2.51337732                0.23293372               -7.85309477               -6.61562712               23.65997458              -79.33919889
              32.99784958               -7.34777154               76.14779404                0.00010000                3.22564717                0.66809212              -10.08974692               -5.28988333               20.58706593              -97.87550756
              34.03414417              -10.22872334               75.40235535                0.00010000                4.17207984                0.96395123              -12.39497814               -3.37656820               16.14489856             -118.87161641
              35.08129118              -13.10191247               74.60381876                0.00010000                5.46988018                1.14819869              -14.78749889               -1.32912371                9.18924911             -143.05455128
              36.14354178              -15.97233302               73.72074930                0.48908443                6.22505993                1.49667003              -17.19910455                0.42577274                4.74075105             -168.81961506
              28.73633057               13.68073081               80.81266955                0.51156135               -0.88471825               -1.64422992                4.31974891               -0.09704256                0.12818331               12.29308897
              29.72748339               10.88750452               79.76547476                0.00010000               -0.77151490               -0.11892596                1.57784702               -2.77774822               20.86236347              -10.85241617
              30.72090027                8.03609373               79.13289559                0.00010000               -0.14450675                0.14410628               -0.70598744               -5.65659018               40.99168483              -22.61802062
              31.72459325                5.17621524               78.48767541                0.00010000                0.86026105                0.21672733               -2.97044773               -6.31596245               39.39552339              -34.24081889
              32.73810549                2.30633554               77.82242592                0.00010000                1.76052303                0.47184702               -5.26754505               -6.87115848               37.10298689              -46.69968213
              33.75980371               -0.57174361               77.13055134                0.00010000                2.55363337                0.87309430               -7.62323914               -6.94528501               34.03137094              -60.54072138
              34.78917816               -3.45387863               76.40306276                0.00010000                3.35123395                1.33557883              -10.05580857               -6.40937376               29.96155766              -76.09749002
              35.82682839               -6.33563027               75.62904218                0.00010000                4.24989222                1.78482198              -12.57754548               -5.31443241               24.67846426              -93.67300332
              36.87417601               -9.21314439               74.79542873                0.00010000                5.30313171                2.18995265              -15.19330482               -3.82976920               17.90688149             -113.52766683
              37.93289103              -12.08410561               73.88639168                0.00010000                6.32539181                2.60954876              -17.87489984               -2.05969572                9.52619692             -135.49493748
              39.00068384              -14.94411662               72.88741703                0.48961929                6.77928147                3.60124877              -20.51762518               -0.90723234                4.83356081             -158.50167759
              31.52108164               14.66550170               80.56659726                0.51021435               -0.66615689               -1.41310228                3.73840149               -0.09541950                0.11153200               12.71033082
              32.51442007               11.88716952               79.40284193                0.00010000               -0.34165156                0.06874637                0.70957295               -3.25387488               26.91543835              -10.57763792
              33.51424861                9.04128886               78.77513202                0.00010000                0.42899643                0.77416989               -1.83436493               -6.43595797               52.97498739              -21.18188995
              34.52300000                6.18394157               78.13202433                0.00010000                1.35361791                1.15190840               -4.33491481               -6.84137628               50.89176551              -32.05110112
              35.54132097                3.31677492               77.46180482                0.00010000                2.29452522                1.48122104               -6.84872865               -7.06214226               47.62424805              -43.63451595
              36.56889050                0.44253607               76.75235773                0.00010000                3.20047237                1.88639753               -9.41713874               -6.91247281               43.10863151              -56.43389457
              37.60533041               -2.43506017               75.99082919                0.00010000                4.09680935                2.36732156              -12.06643357               -6.32517000               37.24575723              -70.85371858
              38.65082669               -5.31207510               75.16330131                0.00010000                5.03468606                2.89033283              -14.80875989               -5.34366502               29.92881669              -87.22176834
              39.70602413               -8.18492429               74.25510618                0.00010000                6.01214028                3.44048750              -17.63643192               -4.03451360               21.12028236             -105.73953772
              40.77106950              -11.04972149               73.25208165                0.00010000                6.96975043                4.10359023              -20.51000901               -2.33812011               10.97756074             -126.35863314
              41.84541914              -13.90030804               72.14312249                0.49056560                7.43496475                4.95035916              -23.36314077               -1.02294084                5.51476848             -148.85732836
              34.29108653               15.65246876               80.32305418                0.50889036               -0.44678000               -1.19780476                3.16597303               -0.09368583                0.12933354               12.90822221
              35.28661873               12.88887945               79.04299801                0.00010000                0.21612724                0.27967970               -0.16145994               -3.56056603               33.56977283              -10.38567141
              36.29540907               10.05157713               78.43177296                0.00010000                1.28304722                1.21781179               -2.91291915               -6.97774296               66.11949195              -19.59366616
              37.31227967                7.19925341               77.80232056                0.00010000                2.14295358                1.77286577               -5.59964924               -7.32077872               63.52269131              -29.07465225
              38.33826814                4.33595996               77.13836817                0.00010000                3.05548375                2.20036751               -8.28660239               -7.29446850               59.30057719              -39.29010905
              39.37338935                1.46598434               76.42348042                0.00010000                3.95088960                2.67004624              -11.02292934               -6.89930468               53.41581577              -50.67096187
              40.41728594               -1.40653220               75.64083292                0.00010000                4.82149342                3.23336449              -13.83947814               -6.17605958               45.81754311              -63.61897839
              41.46981921               -4.27782361               74.77320924                0.00010000                5.69230946                3.87601371              -16.74747721               -5.17986715               36.48201713              -78.49980052
              42.53113212               -7.14433464               73.80362613                0.00010000                6.58465805                4.57723146              -19.73742484               -3.91872711               25.49392120              -95.62115406
              43.60151238              -10.00203381               72.71690888                0.00010000                7.51330005                5.31463674              -22.78108580               -2.25134933               13.14491788             -115.18891133
              44.68139813              -12.84510944               71.50210608                0.49140366                7.98857498                6.01135062              -25.84727113               -1.00731444                6.60991473             -137.28389552
              37.04638655               16.64154560               80.08082159                0.50779509               -0.22861677               -0.99175875                2.59866130               -0.09526067                0.14638070               12.97105340
              38.04410039               13.89276312               78.68431136                0.00010000                0.89666160                0.50476494               -1.03867265               -3.79264396               41.05024912              -10.35404930
              39.06431979               11.06564510               78.10594724                0.00010000                2.40506013                1.52418142               -3.93774431               -7.36778862               80.89814648              -17.67335310
              40.09220159                8.21939888               77.50627385                0.00010000                3.21904382                2.10521313               -6.75164173               -7.65416835               77.76106410              -25.30656006
              41.12870066                5.36078227               76.86456762                0.00010000                4.05974891                2.58775893               -9.55529772               -7.36818642               72.57755243              -33.71457704
              42.17339657                2.49593700               76.16036299                0.00010000                4.84582557                3.16135725              -12.40605295               -6.68661632               65.34212724              -43.28689818
              43.22561717               -0.37039288               75.37303759                0.00010000                5.58176088                3.86347415              -15.33909187               -5.78201490               56.01402960              -54.38672421
              44.28503179               -3.23455483               74.48156049                0.00010000                6.31213076                4.65965518              -18.36835735               -4.72481208               44.56985626              -67.42390339
              45.35185979               -6.09337966               73.46512508                0.00010000                7.08927614                5.50102548              -21.49038271               -3.49673968               31.11862204              -82.87731647
              46.42681731               -8.94342876               72.30513642                0.00010000                7.97821602                6.30921229              -24.69269261               -1.97157904               16.03050518             -101.24080980
              47.51142411              -11.78008103               70.98827923                0.49246843                8.46068018                6.93886126              -27.97014056               -0.88914795                8.08922603             -122.90231910
              39.78674628               17.63263359               79.83843253                0.50594192               -0.00799282               -0.79421515                2.02244581               -0.10103456                0.16761349               12.87863687
              40.78666635               14.89897475               78.32531184                0.00010000                1.73356275                0.74479565               -1.92362955               -4.04130053               49.61691543              -10.46213854
              41.82141754               12.08206075               77.80129011                0.00010000                3.86963902                1.63431458               -4.90031920               -7.66827743               97.80100501              -15.33430368
              42.86405913                9.24135767               77.25213845                0.00010000                4.64743820                2.06448652               -7.76977257               -7.75889644               94.04340698              -20.64327848
              43.91436630                6.38771514               76.65270506                0.00010000                5.33865177                2.58674550              -10.62387628               -7.03967811               87.85158329              -26.90063936
              44.97083217                3.52921149               75.97909020                0.00010000                5.88855809                3.33980813              -13.52859460               -6.04491218               79.28136944              -34.32658317
              46.03213746                0.67073728               75.20746828                0.00010000                6.37387936                4.23101811              -16.52355730               -4.99394084               68.25268503              -43.17250651
              47.09830976               -2.18463051               74.31258166                0.00010000                6.89668995                5.20109482              -19.62795541               -3.92616207               54.61427052              -53.86086019
              48.17007126               -5.03431413               73.26785332                0.00010000                7.52362032                6.19166062              -22.84844341               -2.79869972               38.35403291              -67.06342442
              49.24878216               -7.87584956               72.04800225                0.00010000                8.34242253                7.10807175              -26.18972635               -1.52584238               19.84425322              -83.72885947
              50.33691971              -10.70633221               70.63395696                0.49353182                8.81375492                7.76220156              -29.66802130               -0.69943964               10.06722797             -104.75499332
              42.51168355               18.62566130               79.59424488                0.50447489                0.21636621               -0.59293465                1.43915240               -0.10323660                0.23692442               12.77862377
              43.51384721               15.90765903               77.96476683                0.00010000                2.84438822                0.99130690               -2.82603047               -4.44363088               59.59308137              -10.86220479
              44.56857131               13.09833139               77.52255428                0.00010000                5.87610329                1.28191728               -5.78567900               -7.94924364              117.36947273              -12.18242743
              45.63136928               10.26068861               77.04953122                0.00010000                6.57409863                1.41655590               -8.62445986               -7.18121451              112.75243838              -14.86902739
              46.70005329                7.41251718               76.51520393                0.00010000                6.90534509                2.23317648              -11.45502481               -5.91654619              105.41157372              -18.86693399
              47.76947618                4.56273316               75.89506968                0.00010000                6.97635333                3.25940153              -14.34659818               -4.72857230               95.59426938              -23.91016659
              48.83958035                1.71422748               75.16372308                0.00010000                7.10418889                4.37015221              -17.34120708               -3.72169339               83.04331742              -30.10010891
              49.91155996               -1.13053293               74.29180331                0.00010000                7.37622492                5.50855368              -20.46329579               -2.79167451               67.30149223              -37.79968001
              50.98710485               -3.96954645               73.24505670                0.00010000                7.83792942                6.63653344              -23.73190986               -1.87782202               47.94025452              -47.74488822
              52.06831855               -6.80126732               71.98577887                0.00010000                8.56478820                7.68636453              -27.17497572               -0.95656625               25.09513714              -61.45983468
              53.15840061               -9.62483700               70.48250441                0.49430410                9.00820699                8.47703041              -30.83456969               -0.45658440               12.85737531              -81.36148359
              45.22068608               19.62077490               79.34979000                0.50307150                0.44375613               -0.37155054                0.84406936               -0.11240505               -0.26137697               11.08666237
              46.22512364               16.91880088               77.59810986                0.00010000                4.43584993                1.22743854               -3.75393146               -5.32646122               71.46488622               -9.98415523
              47.30940308               14.10769910               77.28111983                0.00010000                9.05627040               -0.59813754               -6.56023301               -6.53986364              140.44873633               -7.02604488
              48.40624905               11.26968879               76.91083723                0.00010000                9.22938733                0.46162703               -9.27645600               -4.93465093              133.89693894               -7.87679044
              49.49399083                8.43237867               76.46382574                0.00010000                8.41506828                1.74579948              -12.00726179               -3.47869970              125.31305890               -9.76635445
              50.57455042                5.59439952               75.92187458                0.00010000                7.84894277                3.07467052              -14.81325679               -2.63429274              114.56822319              -12.30787594
              51.65096968                2.75814033               75.25930894                0.00010000                7.58498894                4.37213457              -17.73546985               -1.98597161              100.93325525              -15.50348135
              52.72625020               -0.07445943               74.44370569                0.00010000                7.61397635                5.63049889              -20.80155345               -1.42018092               83.60943560              -19.56613638
              53.80324921               -2.90158346               73.43376338                0.00010000                7.93455937                6.84336989              -24.04045224               -0.87661616               61.41361806              -25.00445348
              54.88494138               -5.72212227               72.17365232                0.00010000                8.58390821                7.98519112              -27.51082679               -0.38932422               33.03164812              -33.06246064
              55.97492738               -8.53679160               70.59589225                0.49535480                8.99859904                8.99573590              -31.31980013               -0.24419927               17.14078745              -48.52241069
              47.91338347               20.61823029               79.07178201                0.75095986                0.70103115               -0.25446090                0.14570113                0.66749022                5.01127364                9.40692319
              48.92039378               17.93220780               77.25545848                0.47158632                8.67513321                1.34069168               -4.63082338               -7.06606867               88.31356934               -8.80083293
              50.08688614               15.08636864               77.10534900                0.44639803               14.38014536               -2.13304629               -7.15518661               -5.36602709              166.06490842               -3.68906050
              51.20799669               12.26992115               76.84757073                0.44087744               10.94412143                0.02323628               -9.68562465               -1.77200974              156.50863487               -4.05730890
              52.30576856                9.44743317               76.50780706                0.43879177                9.15159869                1.50544991              -12.24329325               -1.10695556              147.47469213               -4.95140134
              53.39102866                6.62422657               76.06939819                0.44027978                8.14756539                2.98270524              -14.88611493               -0.64032515              136.38772630               -6.22865291
              54.46871987                3.80167017               75.50705133                0.44504312                7.59257311                4.35298448              -17.65429507               -0.33245732              122.38107295               -7.85693292
              55.54288013                0.98207705               74.78721753                0.45310774                7.42577471                5.65364814              -20.57473377               -0.05446839              104.47729667               -9.95252510
              56.61723537               -1.83267905               73.86546763                0.46563497                7.64300396                6.89044071              -23.67759940                0.21658821               81.20798228              -12.82812608
              57.69574021               -4.64156350               72.67918084                0.48237011                8.28099628                8.05587734              -27.02909594                0.46772070               48.43606210              -17.16147245
              58.78285529               -7.44492228               71.10128145                0.74797735                8.71150863                9.18693242              -30.84455995                0.45691364               28.87805178              -28.91603407
              21.00124881               11.11323039               82.66162668                0.76840000               -1.62948239               -1.81367473                6.16745254               -0.47879388               -6.37805225                6.85393019
              21.98495399                8.16242096               81.87985379                0.50001384               -1.70578375               -1.04671287                4.15005701               -0.64993829               -8.73806762               -5.41971749
              22.96713314                5.20060448               81.05051800                0.46418978               -1.56009061               -0.57690742                2.12335500               -0.45460925               -8.91554936               -0.10992210
              23.95375217                2.21873132               80.26544194                0.44868059               -0.97139368                0.00628730                0.16017401               -0.40780306               -6.35351296               -0.37512010
              24.94770526               -0.78086801               79.48721836                0.44044682               -0.16080697                0.59184125               -1.86551968               -0.36633019               -5.71943348               -0.22583427
              25.95053603               -3.79255619               78.71460217                0.43961697                0.75645569                1.19115325               -3.93710106               -0.34682931               -5.39525058               -0.10546447
              26.96283438               -6.80896342               77.94279590                0.44695618                1.68859525                1.78629452               -6.04430744               -0.33401436               -5.59757535                0.01814855
              27.98430794               -9.82335584               77.16642882                0.46134532                2.54916530                2.38341097               -8.16534369               -0.33038352               -6.35413744                0.15563138
              29.01381768              -12.83086042               76.38022884                0.48397902                3.26767837                2.96251411              -10.26201648               -0.33126837               -7.93392587                0.19587143
              30.04966151              -15.82982502               75.57323526                0.51566546                3.83674938                3.52739028              -12.33595213               -0.32790251               -8.39592081                1.04237546
              31.09055267              -18.82205823               74.77889603                0.77072676                4.08911618                4.14202237              -14.38480924               -0.53728681               -7.83010172               -5.19309300
              23.94727030               12.09509364               82.34935148                0.52138795               -1.25027401               -1.91757000                5.37809439               -0.32988797                5.19843461               10.69454831
              24.93476756                9.15195383               81.56407458                0.00010000               -0.64192186               -0.70945050                3.38295888               -0.77165195               11.64334133              -10.06271159
              25.93443186                6.19483540               80.90735653                0.00010000                0.28214141               -1.08950584                1.77932299               -1.97727179               17.53356323              -12.82612319
              26.94041039                3.21879419               80.23928516                0.00010000                0.76269275               -0.84389851                0.02883733               -2.95742869               17.50341900              -18.74332464
              27.94968572                0.22505040               79.58197229                0.00010000                1.03525294               -0.37780722               -1.77038467               -3.57301654               18.27547713              -25.51716880
              28.96111545               -2.78064466               78.92969697                0.00010000                1.26041680                0.20124637               -3.63565499               -3.70687849               18.53071649              -33.14133477
              29.97489405               -5.79110048               78.27804567                0.00010000                1.54185801                0.78741722               -5.52494843               -3.35399043               18.32726437              -41.71108037
              30.99195261               -8.79952173               77.62208431                0.00010000                1.94227672                1.31421749               -7.44648212               -2.57975460               17.57686533              -51.38813330
              32.01373959              -11.80123528               76.95563908                0.00010000                2.50143883                1.73619482               -9.33478986               -1.49260339               16.42096756              -62.41447821
              33.04198138              -14.79455111               76.27684500                0.00010000                3.18367119                2.10242326              -11.18559430               -0.18165896               12.90781050              -75.11642889
              34.07741301              -17.78063800               75.54037565                0.51276545                3.54316282                2.29349701              -13.06006366                1.15771450               10.01553900              -92.75454797
              26.88093067               13.07487899               82.11345624                0.50570037               -1.11514834               -1.88839253                4.87748669               -0.10323072               -0.18227232               13.43173380
              27.86977919               10.14823195               81.15515330                0.00010000               -1.00916664               -0.28544359                2.42080680               -2.05623460               15.47484338              -12.94396858
              28.86074734                7.17881436               80.50978206                0.00010000               -0.26952924               -0.90862003                0.48100194               -4.87615347               30.20626627              -24.84009007
              29.86438860                4.20185335               79.84581725                0.00010000                0.74682248               -1.00084531               -1.51290253               -6.02308704               28.74826870              -36.77037153
              30.87568379                1.21157584               79.17110634                0.00010000                1.40803701               -0.69982029               -3.56039323               -6.95796217               27.60425815              -50.23541224
              31.89254934               -1.78853127               78.48432548                0.00010000                1.94739232               -0.20646744               -5.66003233               -7.15532130               26.07164717              -65.28658201
              32.91463163               -4.79321508               77.77911686                0.00010000                2.51491570                0.32181204               -7.81379486               -6.55513479               23.81531118              -82.17582598
              33.94284766               -7.79707149               77.04737522                0.00010000                3.21816838                0.75978031              -10.00763887               -5.24332411               20.66414120             -101.21840496
              34.97899500              -10.79613653               76.27936112                0.00010000                4.12916959                1.06215047              -12.23763866               -3.37110894               16.15490937             -122.77140481
              36.02543105              -13.78777655               75.45790792                0.00010000                5.34428689                1.26635017              -14.49485369               -1.36573996                9.16752635             -147.53644963
              37.08588074              -16.77618829               74.55146043                0.48403981                6.04496905                1.66624652              -16.80454951                0.33384036                4.75737818             -173.87237498
              29.79849976               14.05732579               81.85575075                0.50486268               -0.87922649               -1.63504205                4.27980408               -0.10014040                0.11766663               12.64326233
              30.78970750               11.14624496               80.78127545                0.00010000               -0.76061844               -0.11533778                1.57962057               -2.79897294               21.07686135              -11.05124176
              31.78328739                8.17666300               80.12583510                0.00010000               -0.12601668                0.15262733               -0.70454295               -5.69278274               41.41118407              -23.39857313
              32.78718716                5.19877729               79.45796460                0.00010000                0.88118497                0.23768443               -2.96656471               -6.33517367               39.77942558              -35.53243519
              33.80091109                2.21105399               78.76978101                0.00010000                1.78063895                0.50687381               -5.25646810               -6.86952757               37.40878281              -48.46451662
              34.82279994               -0.78477401               78.05444867                0.00010000                2.57102436                0.91739620               -7.59693171               -6.93125895               34.23650624              -62.76264492
              35.85233158               -3.78466424               77.30283442                0.00010000                3.36038176                1.38573197               -9.99866945               -6.39687452               30.05624361              -78.77499661
              36.89000758               -6.78432612               76.50396116                0.00010000                4.23454475                1.83271119              -12.46402599               -5.32265835               24.66781362              -96.81123761
              37.93702247               -9.77999227               75.64481701                0.00010000                5.23553831                2.23722486              -14.98526121               -3.86842947               17.82055850             -117.12489150
              38.99471834              -12.76922411               74.70976159                0.00010000                6.19454081                2.66708857              -17.54687167               -2.10483255                9.43967750             -139.54167887
              40.06091329              -15.74731307               73.68482646                0.48441586                6.61949472                3.65164475              -20.11494226               -0.92065371                4.81058717             -162.99554813
              32.70108952               15.04217815               81.60382585                0.50331931               -0.66270062               -1.40346297                3.70407221               -0.09717649                0.11154082               13.08141681
              33.69446252               12.14592519               80.41002849                0.00010000               -0.33650844                0.06577653                0.72328735               -3.27141616               27.14443809              -10.78305408
              34.69435935                9.18186691               79.75681636                0.00010000                0.44158091                0.77020567               -1.82547853               -6.46446662               53.41759057              -21.90833384
              35.70329413                6.20660704               79.08867709                0.00010000                1.37425897                1.15600549               -4.32893388               -6.85356831               51.30757011              -33.24810280
              36.72184453                3.22171332               78.39334492                0.00010000                2.31741294                1.49626219               -6.83916606               -7.06407054               47.96026826              -45.26624155
              37.74964239                0.22981666               77.65831498                0.00010000                3.22008602                1.91063188               -9.39383665               -6.91471586               43.33317022              -58.48070192
              38.78624625               -2.76550044               76.87050085                0.00010000                4.10400675                2.39685401              -12.01362844               -6.34149517               37.34875583              -73.30540735
              39.83172253               -5.76041726               76.01589803                0.00010000                5.01390737                2.92355848              -14.70426612               -5.38402570               29.92390907              -90.07074771
              40.88652440               -8.75139203               75.07991151                0.00010000                5.94663337                3.47898196              -17.45744869               -4.09291733               21.05010803             -108.97770978
              41.95065520              -11.73443478               74.04865854                0.00010000                6.85605943                4.14731661              -20.25011278               -2.38254652               10.91126018             -129.98741926
              43.02364559              -14.70315539               72.91145561                0.48532062                7.29903938                4.99188281              -23.05195450               -1.03419073                5.50254774             -152.92682116
              35.58906214               16.02925653               81.35463763                0.50232677               -0.44717222               -1.18873429                3.14540592               -0.09771080                0.12395346               13.29670801
              36.58459041               13.14756049               80.04150841                0.00010000                0.21270394                0.27005988               -0.13738248               -3.57208164               33.83914172              -10.59981085
              37.59331621               10.19206711               79.40268790                0.00010000                1.28394842                1.20659498               -2.90091726               -6.99391732               66.64655289              -20.27125506
              38.61026938                7.22189740               78.74631185                0.00010000                2.15519240                1.76899084               -5.59674257               -7.32225714               64.02532541              -30.16453466
              39.63642006                4.24097924               78.05549683                0.00010000                3.07249998                2.20704264               -8.28545128               -7.29241320               59.71931495              -40.75916150
              40.67171938                1.25343863               77.31333141                0.00010000                3.96577669                2.68645495              -11.01312336               -6.90609634               53.71504811              -52.50003603
              41.71573560               -1.73672716               76.50269914                0.00010000                4.82496376                3.25790139              -13.80712015               -6.20152329               45.98919657              -65.79784807
              42.76821866               -4.72585495               75.60627517                0.00010000                5.67230238                3.90844476              -16.67655546               -5.22646640               36.54521296              -81.02339754
              43.82918164               -7.71041264               74.60714213                0.00010000                6.53060580                4.61864738              -19.61466416               -3.97454125               25.49106756              -98.49207826
              44.89883077              -10.68627778               73.49032617                0.00010000                7.42445276                5.36407628              -22.60415987               -2.29059750               13.12722126             -118.43232715
              45.97767070              -13.64747542               72.24507650                0.48614287                7.88399262                6.06127487              -25.63006868               -1.01285992                6.62520685             -140.96887989
              38.46252739               17.01840346               81.10675007                0.50104042               -0.23170878               -0.98629139                2.58724584               -0.09730977                0.14293639               13.36312859
              39.46021030               14.15132639               79.67410468                0.00010000                0.88083562                0.49154797               -1.00437501               -3.79336562               41.39668005              -10.57957915
              40.48014410               11.20599881               79.06660664                0.00010000                2.38632841                1.51131106               -3.92692557               -7.36690264               81.57443948              -18.29276490
              41.50793687                8.24198686               78.43870683                0.00010000                3.21554698                2.10271641               -6.75762535               -7.64067343               78.41352846              -26.26665917
              42.54445504                5.26585417               77.76894259                0.00010000                4.06449964                2.59672050               -9.57015094               -7.35712428               73.13732596              -34.98579363
              43.58922686                2.28354576               77.03629078                0.00010000                4.85271636                3.18013048              -12.41914766               -6.68949388               65.77043718              -44.85521134
              44.64150937               -0.70034241               76.21978230                0.00010000                5.58259100                3.89061227              -15.33806223               -5.80418134               56.30364806              -56.24770442
              45.70087868               -3.68224837               75.29823674                0.00010000                6.29735181                4.69516936              -18.34067449               -4.76391982               44.74057088              -69.58152417
              46.76745640               -6.65901908               74.25084893                0.00010000                7.05136734                5.54521660              -21.42644380               -3.54068358               31.20662684              -85.34908612
              47.84190603               -9.62715325               73.05909317                0.00010000                7.91636330                6.35947676              -24.58917776               -2.00101206               16.06928221             -104.06864873
              48.92578367              -12.58192989               71.70964746                0.48723427                8.38776414                6.98696934              -27.83069532               -0.88902097                8.13610811             -126.16280275
              41.32127008               18.00953070               80.85865231                0.49962320               -0.01423217               -0.78851345                2.02437376               -0.09820385                0.16667970               13.26566797
              42.32112776               15.15739145               79.30627589                0.00010000                1.70238096                0.72654517               -1.88401703               -4.02618794               50.08015854              -10.70322119
              43.35531770               12.22229334               78.75230450                0.00010000                3.82363947                1.62765208               -4.89388261               -7.64571490               98.70175726              -15.87859956
              44.39760055                9.26395173               78.17432210                0.00010000                4.62004895                2.07385488               -7.79102265               -7.72859201               94.91456998              -21.43971843
              45.44771868                6.29291365               77.54628991                0.00010000                5.32627704                2.60821081              -10.66277362               -7.02031757               88.61325607              -27.92994946
              46.50412609                3.31704124               76.84365817                0.00010000                5.88637090                3.36863290              -13.57371648               -6.04330574               79.89176679              -35.58366288
              47.56544609                0.34108509               76.04220438                0.00010000                6.37454240                4.26533331              -16.56267072               -5.01040218               68.70509218              -44.66036548
              48.63161693               -2.63195156               75.11646333                0.00010000                6.89133820                5.24054146              -19.64937789               -3.95537497               54.92616983              -55.59168124
              49.70327286               -5.59950830               74.03975839                0.00010000                7.50522040                6.23572988              -22.84290458               -2.82998407               38.55252704              -69.06560107
              50.78172134               -8.55908824               72.78671656                0.00010000                8.30853506                7.15353766              -26.15172410               -1.54592581               19.94651438              -86.05720807
              51.86944356              -11.50773603               71.33806452                0.48813380                8.77222173                7.80147154              -29.59508223               -0.69393497               10.14976366             -107.49529303
              44.16484182               19.00263319               80.60863040                0.49814319                0.20820908               -0.58816435                1.44454117               -0.10699630                0.23936449               13.15796157
              45.16692391               16.16585730               78.93675759                0.00010000                2.79138542                0.96988984               -2.77584521               -4.40916442               60.21943264              -11.12976672
              46.22066952               13.23855185               78.46467312                0.00010000                5.79104036                1.29311406               -5.78836951               -7.89637974              118.58251235              -12.61940993
              47.28274471               10.28346395               77.96306678                0.00010000                6.51448258                1.45129802               -8.66749462               -7.14076459              113.91635374              -15.45408636
              48.35095918                7.31801839               77.40032946                0.00010000                6.87222947                2.27554127              -11.52672703               -5.89654541              106.43536163              -19.60141407
              49.42018930                4.35091841               76.75127302                0.00010000                6.96674738                3.30447808              -14.43391380               -4.72792694               96.44016457              -24.79907712
              50.49029412                1.38496426               75.99006883                0.00010000                7.10876353                4.41613209              -17.43095463               -3.73557632               83.70683014              -31.15048465
              51.56236457               -1.57743754               75.08709381                0.00010000                7.38496379                5.55482774              -20.54293314               -2.81372838               67.79670489              -39.02623120
              52.63799340               -4.53430449               74.00786994                0.00010000                7.84253317                6.68223042              -23.79087030               -1.89947602               48.28100567              -49.17811858
              53.71921524               -7.48408250               72.71437046                0.00010000                8.56035719                7.72863464              -27.20517199               -0.96932977               25.27745045              -63.16212891
              54.80920054              -10.42590046               71.17467488                0.48884279                8.99853057                8.50912662              -30.82898011               -0.44630095               12.98552014              -83.44415763
              46.99268194               19.99776742               80.35827480                0.49687832                0.43438677               -0.37194707                0.85938981               -0.11729132               -0.27497822               11.41198887
              47.99702581               17.17678925               78.56079910                0.00010000                4.35507495                1.20764044               -3.70253660               -5.25860276               72.31894521              -10.24721228
              49.07978344               14.24815562               78.21543445                0.00010000                8.91464494               -0.54144004               -6.57460285               -6.47651097              142.08452862               -7.28870950
              50.17531871               11.29297769               77.81771407                0.00010000                9.12749316                0.52751205               -9.34826395               -4.90182830              135.41708511               -8.19025749
              51.26233331                8.33842447               77.34322990                0.00010000                8.36514843                1.81314775              -12.12123680               -3.46966747              126.65436475              -10.15271477
              52.34262168                5.38313080               76.77316217                0.00010000                7.83786072                3.14075824              -14.95500198               -2.63792533              115.70495649              -12.77271067
              53.41909052                2.42940773               76.08142413                0.00010000                7.59947147                4.43602153              -17.89021607               -1.99771943              101.86557343              -16.05214801
              54.49461111               -0.52085501               75.23529855                0.00010000                7.64188893                5.69143135              -20.95488053               -1.43529150               84.34991660              -20.20835535
              55.57192830               -3.46586369               74.19315918                0.00010000                7.96598074                6.90010468              -24.17962590               -0.88974393               61.96027956              -25.76067226
              56.65393072               -6.40451555               72.89854472                0.00010000                8.61125825                8.03520055              -27.62478425               -0.39611339               33.33641422              -33.97733269
              57.74415347               -9.33755350               71.28287266                0.48961122                9.02227408                9.03297308              -31.39610451               -0.22880452               17.33832764              -49.72819314
              49.80445233               20.99519425               80.07329093                0.74781533                0.69113219               -0.25731648                0.16219922                0.65862372                5.15003177                9.67779540
              50.81136365               18.19001010               78.20937861                0.46844911                8.52492683                1.32208581               -4.57188065               -6.93977644               89.54377462               -9.04337235
              51.97495087               15.22772305               78.03362420                0.44561750               14.15378203               -2.04325705               -7.18609243               -5.28305334              168.16270970               -3.78977870
              53.09443929               12.29401419               77.75018147                0.44065683               10.82309247                0.10365086               -9.79186945               -1.76002714              158.41874403               -4.18586890
              54.19141271                9.35428134               77.38459236                0.43890314                9.10041239                1.58568702              -12.40962525               -1.10609003              149.18444083               -5.11578667
              55.27644754                6.41373358               76.91962485                0.44003980                8.14564145                3.06027808              -15.09716315               -0.64724696              137.87559928               -6.43245805
              56.35432554                3.47368469               76.32958550                0.44446628                7.62413162                4.42769552              -17.89328315               -0.34362238              123.65182667               -8.10197124
              57.42893017                0.53639109               75.58064217                0.45205804                7.47667592                5.72460974              -20.82451851               -0.06744779              105.54826671              -10.24392905
              58.50385906               -2.39630239               74.62802817                0.46289908                7.70263006                6.95613024              -23.92247939                0.20459726               82.07778658              -13.17836874
              59.58298277               -5.32337849               73.40841078                0.47784384                8.34206433                8.11370597              -27.25534900                0.45827436               49.00289446              -17.59691316
              60.67070035               -8.24524100               71.79253229                0.74506723                8.77175757                9.23124957              -31.03414132                0.46843715               29.28658449              -29.57375792
              21.72874892               11.49857705               83.72292269                0.76338585               -1.60865642               -1.78834124                6.08247812               -0.47340365               -6.49599518                6.97102649
              22.71266235                8.42726303               82.92109345                0.49375577               -1.70040309               -1.03146932                4.09039127               -0.66261044               -8.84894593               -5.53552514
              23.69474086                5.34461663               82.07170625                0.46146889               -1.55993522               -0.57096608                2.11037971               -0.44558379               -8.98766344               -0.06373099
              24.68146365                2.24184667               81.26714329                0.44766622               -0.95864178                0.00460731                0.18275753               -0.40014410               -6.41505072               -0.36110730
              25.67556802               -0.87829418               80.46886376                0.44058334               -0.15141404                0.57704607               -1.80137707               -0.36317852               -5.83162914               -0.21509616
              26.67843537               -4.01023787               79.67561269                0.43967362                0.75210114                1.17272946               -3.83950096               -0.33866128               -5.54837030               -0.11455430
              27.69061004               -7.14672632               78.88291068                0.44617017                1.66161078                1.76464474               -5.90662858               -0.32696724               -5.77077062                0.01170726
              28.71166758              -10.28116297               78.08555854                0.45950592                2.49748652                2.34617925               -7.97495628               -0.32382579               -6.53552150                0.13339163
              29.74055977              -13.40910439               77.27842897                0.47942367                3.20456514                2.92591388              -10.05020573               -0.32320988               -8.11450383                0.16810394
              30.77575889              -16.52895783               76.45084942                0.50804616                3.76557949                3.48869957              -12.09446490               -0.32259952               -8.57001313                1.01342436
              31.81587136              -19.64260554               75.63619091                0.76571660                4.01124761                4.09001661              -14.10634179               -0.49423003               -8.01504333               -5.27603294
              24.79532890               12.48069363               83.40279534                0.51301308               -1.23124412               -1.89776742                5.30171666               -0.33545905                5.36059335               10.96524872
              25.78301646                9.41694833               82.59768708                0.00010000               -0.61678526               -0.68976110                3.33419660               -0.79700118               12.00603459              -10.26947185
              26.78299319                6.33890697               81.92503963                0.00010000                0.29505758               -1.07451300                1.75245301               -2.01219649               18.01731619              -13.24777331
              27.78891761                3.24189275               81.23953537                0.00010000                0.74926559               -0.81632632                0.01519795               -2.98460867               17.87520774              -19.42346498
              28.79797851                0.12747628               80.56432629                0.00010000                1.01736085               -0.34424034               -1.76041399               -3.58045609               18.57054044              -26.43998274
              29.80926483               -2.99851057               79.89329159                0.00010000                1.24122074                0.24143546               -3.62156766               -3.69935353               18.78936474              -34.29382275
              30.82280292               -6.12907987               79.22288283                0.00010000                1.51767667                0.83246491               -5.50358500               -3.34564675               18.55912932              -43.10099249
              31.83961836               -9.25770118               78.54775640                0.00010000                1.92110904                1.35732406               -7.39945742               -2.57724077               17.77666290              -53.02258517
              32.86122510              -12.37984525               77.86230509                0.00010000                2.48325532                1.78875078               -9.29275313               -1.51098855               16.64824051              -64.30879939
              33.88928347              -15.49407083               77.16504719                0.00010000                3.16758379                2.16998890              -11.15001614               -0.25383085               13.14412225              -77.30455639
              34.92457678              -18.60170537               76.40994281                0.50545571                3.52933106                2.41871071              -12.99393504                1.02219404               10.22825391              -95.28978239
              27.84953034               13.46062170               83.16197749                0.49906534               -1.10213385               -1.87335936                4.81226183               -0.10010883               -0.22251597               13.80236489
              28.83850900               10.41346781               82.17923690                0.00010000               -0.99889111               -0.26719169                2.39077180               -2.07877601               15.69483953              -13.18012454
              29.82955251                7.32312637               81.51454769                0.00010000               -0.26534194               -0.89095008                0.47133163               -4.92530262               30.64158422              -25.67798215
              30.83320216                4.22552015               80.83069543                0.00010000                0.74048532               -0.95930273               -1.50792274               -6.04935529               29.11239671              -38.10310800
              31.84436222                1.11482102               80.13555188                0.00010000                1.39011480               -0.63348306               -3.54611166               -6.95553665               27.89551848              -52.04281520
              32.86100445               -2.00540916               79.42785729                0.00010000                1.92627459               -0.12377203               -5.63492115               -7.13412215               26.28360302              -67.54018436
              33.88288771               -5.13007702               78.70117859                0.00010000                2.49418460                0.41586576               -7.77526660               -6.53098516               23.95804331              -84.89138449
              34.91088815               -8.25401649               77.94764126                0.00010000                3.19109712                0.86616701               -9.95110976               -5.23343163               20.75998481             -104.40425058
              35.94670965              -11.37332937               77.15760258                0.00010000                4.08271234                1.18263167              -12.14422499               -3.39899582               16.21697177             -126.45858202
              36.99254239              -14.48555805               76.31392169                0.00010000                5.24373394                1.41905096              -14.35115875               -1.42551451                9.19895054             -151.76894944
              38.05158433              -17.59423133               75.38465831                0.47885116                5.90419395                1.88413022              -16.61764627                0.24212586                4.79308085             -178.66600334
              30.88763451               14.44322645               82.89826563                0.49778243               -0.86982387               -1.61892740                4.22216913               -0.09335252                0.11744926               12.99016355
              31.87893627               11.41160450               81.79706717                0.00010000               -0.75998536               -0.10961609                1.57295230               -2.81645805               21.27431425              -11.23787186
              32.87243480                8.32108797               81.11880473                0.00010000               -0.13502067                0.15715052               -0.69979784               -5.72492535               41.79588399              -24.15281314
              33.87623586                5.22270669               80.42834412                0.00010000                0.86811403                0.25560550               -2.95232078               -6.34303292               40.13131368              -36.78099887
              34.88979708                2.11480662               79.71729656                0.00010000                1.76222837                0.54566235               -5.23578435               -6.85832439               37.68499171              -50.16685249
              35.91148042               -1.00098602               78.97861270                0.00010000                2.54967332                0.97242282               -7.57014745               -6.90878308               34.42073590              -64.90388691
              36.94079055               -4.12076256               78.20308937                0.00010000                3.33608286                1.45219928               -9.96077076               -6.37785279               30.14917785              -81.34962005
              37.97820208               -7.24037784               77.37976166                0.00010000                4.19980981                1.91062101              -12.40212512               -5.32119982               24.68597781              -99.82917982
              39.02478674              -10.35619262               76.49572350                0.00010000                5.17365245                2.32628839              -14.88157570               -3.88779199               17.79483055             -120.59997842
              40.08167513              -13.46568981               75.53545424                0.00010000                6.09895544                2.77617970              -17.38696610               -2.13109724                9.41043311             -143.48704642
              41.14676585              -16.56402277               74.48511818                0.47960211                6.50907232                3.75684100              -19.90762822               -0.91871479                4.81626992             -167.40904927
              33.91090718               15.42824315               82.64067871                0.49635064               -0.65888595               -1.38738696                3.66855303               -0.08728957                0.11118248               13.46518733
              34.90431832               12.41127548               81.41730768                0.00010000               -0.34776814                0.06012694                0.73033833               -3.27793752               27.34950223              -10.98690756
              35.90395181                9.32626938               80.73862245                0.00010000                0.41522623                0.76368911               -1.81098338               -6.47706729               53.81895123              -22.61361962
              36.91262284                6.23063226               80.04544565                0.00010000                1.34683124                1.16131436               -4.31102493               -6.83968589               51.68360962              -34.40719259
              37.93088844                3.12573426               79.32502149                0.00010000                2.28875654                1.51862193               -6.82111027               -7.03775772               48.26086115              -46.84289856
              38.95839797                0.01403930               78.56448100                0.00010000                3.19170196                1.94969190               -9.37603453               -6.88798636               43.53114603              -60.45564513
              39.99472248               -3.10103304               77.75055663                0.00010000                4.07481181                2.44959741              -11.99126842               -6.32539049               37.44203036              -75.67282309
              41.03989421               -6.21580407               76.86921598                0.00010000                4.97716541                2.98737839              -14.66631175               -5.38460808               29.93289398              -92.83276865
              42.09426579               -9.32680361               75.90595721                0.00010000                5.89281958                3.55394994              -17.38863645               -4.10573242               21.01376111             -112.14295554
              43.15775060              -12.43003445               74.84707939                0.00010000                6.78050844                4.22874123              -20.13898097               -2.39217996               10.87639799             -133.57249355
              44.22987596              -15.51909451               73.68208340                0.48043040                7.21253545                5.06719446              -22.90067768               -1.02421791                5.50682654             -156.96716460
              36.91982405               16.41547871               82.38596230                0.49528326               -0.44727578               -1.17248262                3.12286802               -0.08572286                0.12327930               13.69704248
              37.91535129               13.41280704               81.04025036                0.00010000                0.18563162                0.25642832               -0.11704374               -3.56289321               34.08405483              -10.81332368
              38.92353668               10.33636175               80.37375461                0.00010000                1.23129807                1.19519132               -2.88201538               -6.98097235               67.12407926              -20.93414837
              39.93997725                7.24593298               79.69038571                0.00010000                2.10491034                1.77115970               -5.58225723               -7.28346595               64.48143519              -31.22371682
              40.96563489                4.14517906               78.97265914                0.00010000                3.02553717                2.22695252               -8.27896205               -7.24751836               60.09524148              -42.18181487
              42.00048800                1.03800782               78.20321795                0.00010000                3.92456078                2.72333537              -11.01572611               -6.86910235               53.97874926              -54.26841984
              43.04412610               -2.07177061               77.36469052                0.00010000                4.78962463                3.30904157              -13.81565512               -6.18081983               46.13752148              -67.90661432
              44.09628049               -5.18063027               76.43967813                0.00010000                5.63881881                3.97153006              -16.68267991               -5.22303215               36.60072445              -83.47672213
              45.15690248               -8.28511362               75.41133284                0.00010000                6.49209708                4.69129806              -19.60632734               -3.98073050               25.49359381             -101.30418308
              46.22612243              -11.38111499               74.26482568                0.00010000                7.37495599                5.44211665              -22.56951946               -2.29557190               13.11768754             -121.63377055
              47.30440160              -14.46267888               72.98950470                0.48118764                7.82791695                6.13846984              -25.56086978               -0.99830190                6.64497812             -144.61625200
              39.91453606               17.40479350               82.13256651                0.49459921               -0.23586425               -0.97060470                2.58005381               -0.08851170                0.14236349               13.76965144
              40.91217741               14.41640405               80.66422386                0.00010000                0.83351855                0.47251871               -0.97524848               -3.76771253               41.71495849              -10.80783582
              41.93120643               11.35017320               80.02740872                0.00010000                2.29793979                1.50302679               -3.90833596               -7.32394047               82.19357725              -18.90247352
              42.95813621                8.26605545               79.37112135                0.00010000                3.13284008                2.11351851               -6.75410678               -7.57560127               79.01156945              -27.20445647
              43.99386323                5.17027331               78.67316460                0.00010000                3.99146938                2.62751077               -9.58451274               -7.29444945               73.64591365              -36.22030366
              45.03796560                2.06850600               77.91198003                0.00010000                4.79404730                3.22740848              -12.45302321               -6.64302390               66.15304194              -46.37341326
              46.08974418               -1.03485221               77.06627635                0.00010000                5.54054892                3.95070283              -15.38967129               -5.77857126               56.55619145              -58.04900954
              47.14877658               -4.13637347               76.11474701                0.00010000                6.26958589                4.76545341              -18.40354857               -4.75633929               44.88531942              -71.67626889
              48.21513589               -7.23297765               75.03659621                0.00010000                7.03139248                5.62332273              -21.48943697               -3.54262795               31.27969619              -87.76121708
              49.28940443              -10.32119212               73.81335287                0.00010000                7.89509072                6.44219874              -24.63755179               -2.00317908               16.10168647             -106.84179308
              50.37303771              -13.39632511               72.43166532                0.48196391                8.36332818                7.07066930              -27.84682736               -0.87242643                8.18007937             -129.36618043
              42.89483271               18.39606661               81.87892000                0.49335241               -0.02153755               -0.77977324                2.02942908               -0.09689959                0.16275858               13.66231333
              43.89461733               15.42225741               80.28763150                0.00010000                1.62868806                0.70682157               -1.84372062               -3.98142997               50.50856905              -10.94499679
              44.92740647               12.36642228               79.70341246                0.00010000                3.68738920                1.63200137               -4.88124889               -7.56740616               99.53559695              -16.41876171
              45.96836512                9.28820335               79.09631800                0.00010000                4.49444382                2.10797292               -7.80585252               -7.63946033               95.72085760              -22.22208532
              47.01729535                6.19772928               78.43944958                0.00010000                5.21939594                2.66377976              -10.70724304               -6.94781523               89.31326643              -28.93269278
              48.07275304                3.10255599               77.70761587                0.00010000                5.80694018                3.43708105              -13.64933690               -5.99556629               80.44495264              -36.80147419
              49.13343415                0.00724345               76.87621487                0.00010000                6.32630531                4.34251229              -16.66823475               -4.98626037               69.10725627              -46.09872609
              50.19927914               -3.08532120               75.91959410                0.00010000                6.87172115                5.32403486              -19.77885953               -3.94871232               55.19748892              -57.26666891
              51.27086857               -6.17264716               74.81099522                0.00010000                7.50635851                6.32340158              -22.98418808               -2.83186946               38.72215828              -71.00909235
              52.34940631               -9.25227101               73.52496777                0.00010000                8.31752376                7.24270309              -26.28601313               -1.54800684               20.03342575              -88.32445762
              53.43721905              -12.32126549               72.04205531                0.48281933                8.78127357                7.88984128              -29.69667551               -0.67622462               10.22466312             -110.16762009
              45.86021646               19.38919803               81.62313570                0.49201198                0.19766803               -0.58562345                1.46790360               -0.10049471                0.24681626               13.54272313
              46.86219315               16.43054048               79.90924993                0.00010000                2.68479517                0.94891032               -2.73054257               -4.33296185               60.80604995              -11.39726775
              47.91391237               13.38281323               79.40678689                0.00010000                5.59234325                1.32757758               -5.78483914               -7.77766793              119.71122562              -13.05573894
              48.97404001               10.30821491               78.87618133                0.00010000                6.33209570                1.52827989               -8.70773363               -7.04170651              115.00074367              -16.03274705
              50.04055428                7.22354891               78.28466939                0.00010000                6.72500457                2.36661010              -11.61024638               -5.83163001              107.38246800              -20.31922100
              51.10854010                4.13724762               77.60639141                0.00010000                6.86709401                3.40187370              -14.56190238               -4.69242923               97.21361393              -25.66045449
              52.17789616                1.05199804               76.81510399                0.00010000                7.05764196                4.51686245              -17.60213063               -3.72148863               84.30475328              -32.16401680
              53.24969294               -2.02989277               75.88094465                0.00010000                7.37760755                5.65731496              -20.75069555               -2.81366602               68.23668709              -40.20898071
              54.32544831               -5.10650961               74.76923929                0.00010000                7.86848394                6.78460146              -24.02097743               -1.90526151               48.58058744              -50.56255962
              55.40706262               -8.17633806               73.44167543                0.00010000                8.60269342                7.82808818              -27.43386441               -0.97343962               25.43706563              -64.81026800
              56.49750218              -11.23852828               71.86592480                0.48348856                9.04395623                8.60263102              -31.02223050               -0.42807274               13.10192262              -85.46230586
              48.81013792               20.38435414               81.36697780                0.49134089                0.42049806               -0.37220456                0.88803676               -0.11223807               -0.28873766               11.72902690
              49.81434290               17.44123562               79.52405913                0.00010000                4.20203832                1.18204332               -3.64065685               -5.13187224               73.12002540              -10.50072422
              50.89417868               14.39297383               79.14962777                0.00010000                8.62262061               -0.43098253               -6.58478137               -6.35207878              143.61276594               -7.55267284
              51.98679531               11.31876895               78.72387195                0.00010000                8.87256740                0.65270347               -9.41930277               -4.82744782              136.83487964               -8.50283318
              53.07163003                8.24506148               78.22140101                0.00010000                8.18300050                1.94218053              -12.25195361               -3.43578823              127.89598798              -10.53122907
              54.15045532                5.17059347               77.62277454                0.00010000                7.72573711                3.27022040              -15.14646015               -2.62366907              116.74625857              -13.22303100
              55.22614477                2.09758070               76.90150462                0.00010000                7.55290782                4.56549778              -18.14081059               -1.99627217              102.71058509              -16.58042652
              56.30151348               -0.97217490               76.02460808                0.00010000                7.65319287                5.82019920              -21.25685047               -1.44129915               85.01580381              -20.82559645
              57.37920863               -4.03695513               74.95017086                0.00010000                8.02213573                7.02625981              -24.51620144               -0.89800855               62.45008507              -26.48838626
              58.46195619               -7.09570925               73.62115663                0.00010000                8.69147062                8.15520818              -27.96678884               -0.40131879               33.60919553              -34.85973935
              59.55303804              -10.14921287               71.96797016                0.48426876                9.10818527                9.14057940              -31.69850218               -0.20827312               17.51890699              -50.89097777
              51.74420875               21.38175394               81.07502600                0.74516445                0.67272574               -0.26002027                0.20229023                0.64982417                5.27966837                9.92362857
              52.75093601               18.45418135               79.16402087                0.46531854                8.25643559                1.29457285               -4.49584515               -6.71870684               90.69087470               -9.26232075
              53.90933746               15.37419358               78.96162715                0.44498306               13.72336999               -1.87802537               -7.21083455               -5.12974038              170.11824000               -3.89257909
              55.02540341               12.32126898               78.65173334                0.44036701               10.53382672                0.25000316               -9.89590024               -1.72924311              160.19192544               -4.31385689
              56.12001400                9.26239252               78.25961456                0.43857707                8.90720464                1.73310410              -12.59418079               -1.09245061              150.75827212               -5.27615873
              57.20354750                6.20265203               77.76745493                0.43993210                8.03625448                3.20585664              -15.36376218               -0.64500791              139.23258261               -6.62896449
              58.28073909                3.14330800               77.14918567                0.44357052                7.59276430                4.57273004              -18.23971995               -0.34760954              124.80288691               -8.33670460
              59.35540279                0.08651121               76.37072716                0.45038687                7.51416994                5.86861160              -21.24133416               -0.07568947              106.51661827              -10.52256299
              60.43102249               -2.96598442               75.38701805                0.46024147                7.79455973                7.09707177              -24.39031845                0.19413016               82.86743437              -13.51375565
              61.51129398               -6.01323390               74.13407386                0.47366493                8.46607427                8.24753525              -27.74157497                0.44716528               49.52122028              -18.01494227
              62.60034397               -9.05571670               72.48059863                0.74233095                8.90499895                9.34961787              -31.48277818                0.48231284               29.66596939              -30.20404838
              22.47498738               11.89290562               84.78327624                0.75891095               -1.57958682               -1.75618006                5.96949560               -0.46710861               -6.60896902                7.07621712
              23.45919151                8.69852321               83.96166161                0.48816469               -1.68286717               -1.01022607                4.01028604               -0.66688056               -8.94124014               -5.64320081
              24.44133004                5.49266310               83.09272560                0.45895346               -1.54489312               -0.56246028                2.08546283               -0.42992452               -9.02906966               -0.01619801
              25.42829365                2.26672501               82.26909709                0.44599312               -0.93633805                0.00477395                0.20811243               -0.40448215               -6.44874371               -0.35187791
              26.42260327               -0.97609500               81.45119082                0.44011440               -0.13859682                0.56576334               -1.72898217               -0.37280154               -5.91093167               -0.20705505
              27.42552171               -4.23020508               80.63781215                0.43982288                0.74349213                1.14393628               -3.70764233               -0.34647920               -5.66646503               -0.12050576
              28.43747312               -7.48867358               79.82466333                0.44542943                1.62787545                1.72853397               -5.71878924               -0.33006043               -5.90898010               -0.00521182
              29.45807922              -10.74508373               79.00692969                0.45691837                2.43818008                2.30275695               -7.74002348               -0.33041291               -6.68920367                0.10651964
              30.48623672              -13.99525060               78.17922473                0.47551400                3.12100410                2.86657125               -9.76213948               -0.32572916               -8.27541628                0.14041183
              31.52049930              -17.23795207               77.33134596                0.50059585                3.66660566                3.42375658              -11.76111932               -0.31892354               -8.72177047                0.96941971
              32.55956883              -20.47508269               76.49676920                0.76053414                3.90695292                4.01816281              -13.74959513               -0.45125807               -8.17152478               -5.34605385
              25.66469870               12.87534381               84.45538581                0.50491453               -1.20547310               -1.87248087                5.20226019               -0.34357840                5.51588955               11.22416559
              26.65264397                9.68842095               83.63075852                0.00010000               -0.58844014               -0.66369230                3.26897451               -0.81955276               12.35720592              -10.46392310
              27.65292989                6.48703849               82.94240559                0.00010000                0.29919558               -1.05867421                1.71604518               -2.04288784               18.47817393              -13.65141067
              28.65862788                3.26677275               82.23958912                0.00010000                0.72052056               -0.78712824               -0.00195206               -3.00685807               18.24602952              -20.07624340
              29.66734030                0.02956263               81.54676401                0.00010000                0.98591653               -0.30778618               -1.75846939               -3.58547229               18.87633547              -27.32676740
              30.67834621               -3.21876572               80.85726561                0.00010000                1.21357651                0.27745095               -3.58894671               -3.69389459               19.00324576              -35.40100990
              31.69161183               -6.47138824               80.16797397                0.00010000                1.48586969                0.87121346               -5.46181211               -3.33775114               18.74212260              -44.42681572
              32.70806360               -9.72205616               79.47409516                0.00010000                1.89008832                1.39609837               -7.34043357               -2.58262521               17.95923886              -54.58562433
              33.72941360              -12.96658488               78.76978401                0.00010000                2.45812553                1.82620078               -9.20497797               -1.54205301               16.82411052              -66.11373593
              34.75722611              -16.20371451               78.05384468                0.00010000                3.13866313                2.21947430              -11.06213537               -0.32305764               13.33714081              -79.37324769
              35.79218686              -19.43490106               77.28049695                0.49798191                3.49607516                2.51994799              -12.88555691                0.91635863               10.43279957              -97.67636827
              28.84196154               13.85545600               84.20970148                0.49240279               -1.08557599               -1.84579846                4.72645381               -0.09331475               -0.26324047               14.17290218
              29.83110578               10.68524937               83.20296874                0.00010000               -0.99205266               -0.25021062                2.35301241               -2.09778369               15.90378178              -13.40473871
              30.82212048                7.47148961               82.51920869                0.00010000               -0.27367135               -0.87532584                0.46041827               -4.96343474               31.05787888              -26.48135258
              31.82563235                4.25098244               81.81565879                0.00010000                0.71559058               -0.91828253               -1.49676639               -6.05233042               29.44674804              -39.37773194
              32.83643230                1.01774927               81.10018410                0.00010000                1.34811691               -0.56576517               -3.52109304               -6.93182344               28.14624659              -53.77088474
              33.85259469               -2.22465606               80.37162705                0.00010000                1.87881175               -0.03548662               -5.60523203               -7.09614698               26.45889533              -69.69700633
              34.87400853               -5.47124931               79.62361153                0.00010000                2.45143371                0.51767829               -7.74179931               -6.49756745               24.06547865              -87.47922044
              35.90162336               -8.71716176               78.84835302                0.00010000                3.15227395                0.97858597               -9.91317645               -5.22239373               20.82406964             -107.44866937
              36.93705401              -11.95872658               78.03647662                0.00010000                4.03654803                1.31192052              -12.09946669               -3.42939647               16.26735905             -129.97753223
              37.98235432              -15.19356259               77.17088475                0.00010000                5.16075473                1.57958819              -14.28667538               -1.48254639                9.22622650             -155.79178259
              39.04026910              -18.42468373               76.21910750                0.47447920                5.79147810                2.09909564              -16.52087347                0.17408363                4.81936028             -183.24073203
              32.00324566               14.83842785               83.94019413                0.49141094               -0.85909870               -1.58353872                4.15539179               -0.09642630                0.11533601               13.34893251
              32.99465468               11.68341674               82.81273449                0.00010000               -0.76587710               -0.11227543                1.55483467               -2.82464162               21.45639283              -11.41896994
              33.98792812                8.46953198               82.11183914                0.00010000               -0.16665351                0.15775120               -0.69013008               -5.72648594               42.15245283              -24.87692693
              34.99132161                5.24840710               81.39891819                0.00010000                0.82071097                0.27195792               -2.92525888               -6.31748577               40.44833841              -37.97761169
              36.00434234                2.01824733               80.66506532                0.00010000                1.70501211                0.58717473               -5.20321563               -6.81442193               37.91874782              -51.79560777
              37.02542185               -1.21947545               79.90304572                0.00010000                2.49119192                1.03772842               -7.54163103               -6.85732529               34.55815854              -66.95064214
              38.05416618               -4.46103467               79.10361901                0.00010000                3.28355747                1.53456327               -9.94148601               -6.33328192               30.19958213              -83.81459628
              39.09109300               -7.70248444               78.25591866                0.00010000                4.15301599                2.00863269              -12.39043391               -5.29776705               24.67577689             -102.72163572
              40.13722650              -10.94034647               77.34718550                0.00010000                5.12196648                2.44330493              -14.86743659               -3.88780524               17.75828978             -123.94037384
              41.19353233              -14.17212274               76.36202227                0.00010000                6.03421562                2.91532505              -17.35548473               -2.14350146                9.38218796             -147.29687944
              42.25791081              -17.39291914               75.28667389                0.47488526                6.43784839                3.88992590              -19.84151617               -0.90438994                4.82259001             -171.68546925
              35.15005522               15.82378522               83.67719691                0.48991460               -0.65464092               -1.35591338                3.62726283               -0.09283940                0.10229465               13.86335622
              36.14350881               12.68300386               82.42463525                0.00010000               -0.37274072                0.04805500                0.72818942               -3.26580332               27.53574320              -11.19247941
              37.14260041                9.47464464               81.72059670                0.00010000                0.35292353                0.75329496               -1.78828910               -6.44239657               54.18721909              -23.29530868
              38.15056728                6.25642160               81.00245659                0.00010000                1.27129983                1.16701346               -4.27700937               -6.77399614               52.01908889              -35.52222317
              39.16802641                3.02949277               80.25692271                0.00010000                2.20814486                1.54762537               -6.79040332               -6.95863967               48.51145645              -48.35622989
              40.19473018               -0.20390150               79.47079429                0.00010000                3.11627356                2.00233249               -9.36109520               -6.81048335               43.67383750              -62.35078739
              41.23035188               -3.44055804               78.63067549                0.00010000                4.01248206                2.52277560              -11.99900284               -6.26139686               37.48244611              -77.94792336
              42.27497982               -6.67698911               77.72257180                0.00010000                4.92921674                3.07820105              -14.69525909               -5.34023112               29.90052240              -95.49717976
              43.32893621               -9.90986048               76.73213879                0.00010000                5.85385708                3.66055899              -17.42821383               -4.07937565               20.95325130             -115.21357270
              44.39205696              -13.13525609               75.64587892                0.00010000                6.74189477                4.34480397              -20.17088986               -2.37721949               10.83242756             -137.07162580
              45.46377411              -16.34688521               74.45344206                0.47565714                7.17171422                5.17683848              -22.90184240               -0.99784233                5.50726808             -160.92549186
              38.28295161               16.81130958               83.41709499                0.48918867               -0.44724098               -1.14732186                3.09718735               -0.09293709                0.11630979               14.11103855
              39.27847920               13.68437784               82.03916753                0.00010000                0.13554199                0.23923378               -0.10241000               -3.52766318               34.30883469              -11.03269625
              40.28566245               10.48459788               81.34504760                0.00010000                1.12571771                1.18234237               -2.85297980               -6.90563640               67.56348427              -21.58046901
              41.30099355                7.27174736               80.63466671                0.00010000                1.99150981                1.77719171               -5.55076026               -7.17764739               64.89048772              -32.24973629
              42.32549264                4.04919983               79.88991759                0.00010000                2.91347204                2.25824460               -8.26130498               -7.13439745               60.41321886              -43.55378358
              43.35926299                0.82057120               79.09301689                0.00010000                3.82666039                2.77905364              -11.02647095               -6.76666108               54.17649368              -55.97120210
              44.40202585               -2.41057916               78.22638604                0.00010000                4.71639110                3.38555457              -13.86376603               -6.09886336               46.21888736              -69.93990378
              45.45359082               -5.64092042               77.27262157                0.00010000                5.59400581                4.06496926              -16.76809562               -5.16353757               36.59731419              -85.85165216
              46.51390597               -8.86713529               76.21501558                0.00010000                6.47109239                4.79773388              -19.71810762               -3.93989992               25.45308081             -104.04223636
              47.58301266              -12.08522666               75.03893578                0.00010000                7.36531199                5.55624402              -22.68602113               -2.27166999               13.08561851             -124.76847486
              48.66121221              -15.28938238               73.73385910                0.47631569                7.81995447                6.25405471              -25.65083292               -0.96625854                6.65433014             -148.19713653
              41.40205996               17.80083879               83.15835114                0.48854817               -0.23927055               -0.95509000                2.57079270               -0.09749283                0.13388234               14.18121500
              42.39966725               14.68778853               81.65459971                0.00010000                0.75290986                0.45438005               -0.94799757               -3.71099123               42.01058060              -11.03658034
              43.41711816               11.49829148               80.98843992                0.00010000                2.13725627                1.49710318               -3.87901101               -7.20712059               82.76861240              -19.50535633
              44.44241238                8.29196543               80.30362469                0.00010000                2.96982344                2.13513354               -6.73465383               -7.43234001               79.55460374              -28.12078283
              45.47651462                5.07465766               79.57725233                0.00010000                3.83817883                2.67775875               -9.59120591               -7.15461836               74.08717681              -37.41780599
              46.51917596                1.85167958               78.78723032                0.00010000                4.66757992                3.30145903              -12.50185402               -6.52538754               66.45748853              -47.84056461
              47.56986622               -1.37284695               77.91198888                0.00010000                5.45446252                4.04310412              -15.49125364               -5.68910813               56.72628787              -59.78942406
              48.62826521               -4.59568972               76.93016577                0.00010000                6.22891193                4.87189142              -18.55875474               -4.69316570               44.95304834              -73.70587647
              49.69444446               -7.81390581               75.82106019                0.00010000                7.03027200                5.74010295              -21.68636935               -3.50025492               31.29197896              -90.10872649
              50.76887065              -11.02413121               74.56634214                0.00010000                7.91579479                6.56633553              -24.85020212               -1.97906025               16.09984423             -109.55143511
              51.85276036              -14.22180411               73.15271091                0.47708556                8.38897118                7.20172291              -28.03527288               -0.83981476                8.20777968             -132.50106045
              44.50710226               18.79220778               82.89924089                0.48746194               -0.02955811               -0.77044629                2.04133103               -0.09974771                0.16470850               14.06790071
              45.50680668               15.69346544               81.26940148                0.00010000                1.51204384                0.68478886               -1.80560002               -3.89706867               50.91210930              -11.19159026
              46.53734314               12.51453994               80.65467952                0.00010000                3.45869496                1.64651375               -4.85819728               -7.40854616              100.31327847              -16.95921562
              47.57598058                9.31445004               80.01820505                0.00010000                4.26715000                2.16448114               -7.80735221               -7.46601102               96.46221282              -22.99481522
              48.62268614                6.10275501               79.33214505                0.00010000                5.01396391                2.75124426              -10.74911983               -6.79829128               89.93367562              -29.91171131
              49.67625985                2.88660038               78.57067144                0.00010000                5.64634258                3.54355379              -13.74831974               -5.88105334               80.90509434              -37.98236152
              50.73561299               -0.32971708               77.70883968                0.00010000                6.22632501                4.46205602              -16.83599169               -4.90566206               69.40956542              -47.49003476
              51.80078636               -3.54348259               76.72088614                0.00010000                6.83646848                5.45292938              -20.01642500               -3.89591742               55.37326304              -58.88840544
              52.87234236               -6.75233324               75.58007463                0.00010000                7.52717060                6.45872456              -23.27759945               -2.79937287               38.81441600              -72.89580423
              53.95132977               -9.95389995               74.26099629                0.00010000                8.37096859                7.38272396              -26.60374910               -1.53071439               20.07594758              -90.53030711
              55.03976173              -13.14534792               72.74413101                0.47794718                8.84319613                8.03713451              -29.98954154               -0.64580194               10.27810609             -112.76770428
              47.59754968               19.78542986               82.63798847                0.48699023                0.18440393               -0.58750621                1.50151412               -0.11244152                0.23698814               13.92686286
              48.59939372               16.70148431               80.88214674                0.00010000                2.52064792                0.92691914               -2.68010086               -4.21192176               61.35669382              -11.66097386
              49.64796264               13.53122176               80.34897634                0.00010000                5.27416848                1.38609777               -5.77323217               -7.56732260              120.77422651              -13.49988001
              50.70487709               10.33525506               79.78891211                0.00010000                6.02179097                1.64594896               -8.73771128               -6.86383606              116.00422769              -16.61101546
              51.76839846                7.12968254               79.16812453                0.00010000                6.45749438                2.50498562              -11.69684276               -5.70200298              108.23245006              -21.02473105
              52.83402698                3.92255065               78.46003497                0.00010000                6.67187452                3.55031401              -14.72246992               -4.60524961               97.87355267              -26.49825051
              53.90183595                0.71639417               77.63802622                0.00010000                6.94680194                4.67173026              -17.84910469               -3.66630442               84.78060586              -33.14487393
              54.97296301               -2.48663113               76.67207990                0.00010000                7.35192115                5.81665679              -21.08469703               -2.78254463               68.55907318              -41.35260974
              56.04887437               -5.68473131               75.52745040                0.00010000                7.91540125                6.94615310              -24.42513291               -1.89032520               48.78414981              -51.90279763
              57.13127104               -8.87647673               74.16569317                0.00010000                8.69329370                7.98955929              -27.86974314               -0.96722694               25.54126672              -66.40665617
              58.22274024              -12.06106142               72.55423027                0.47857392                9.14692050                8.76505218              -31.42944559               -0.40132817               13.19100284              -87.41220526
              50.67274453               20.78045765               82.37603554                0.48529329                0.40318161               -0.39297218                0.93997349               -0.12006921               -0.29245140               12.04544936
              51.67677634               17.71200382               80.48798597                0.00010000                3.97407038                1.16779485               -3.57767879               -4.95047436               73.87869931              -10.74670097
              52.75222594               14.54226189               80.08373883                0.00010000                8.17333621               -0.26745267               -6.58741163               -6.14971250              145.04948674               -7.82820345
              53.84024307               11.34736901               79.62932802                0.00010000                8.45622721                0.83796165               -9.48213559               -4.69969334              138.14935170               -8.81834127
              54.92135048                8.15285472               79.09819083                0.00010000                7.86000852                2.13242630              -12.39027675               -3.36521247              129.01303084              -10.90553580
              55.99744324                4.95760666               78.47023296                0.00010000                7.50591015                3.46214291              -15.37903168               -2.58180445              117.64378089              -13.66198061
              57.07146868                1.76371753               77.71860792                0.00010000                7.44088528                4.75971662              -18.48084530               -1.97405053              103.40228967              -17.09162961
              58.14626094               -1.42714945               76.81016154                0.00010000                7.64563819                6.01663958              -21.70432639               -1.43302791               85.53414718              -21.42155224
              59.22438145               -4.61341017               75.70283515                0.00010000                8.10271963                7.22297176              -25.05127343               -0.89863166               62.81844554              -27.19129816
              60.30831534               -7.79410877               74.33920894                0.00010000                8.82615552                8.34824696              -28.54347285               -0.40405696               33.81125141              -35.71180155
              61.40090456              -10.97004687               72.64890261                0.47930684                9.25892202                9.32412596              -32.24058410               -0.18231240               17.66391957              -52.00643293
              53.73205596               21.77757042               82.07733673                0.74225448                0.65240349               -0.28872367                0.27502835                0.65812176                5.42194484               10.18889609
              54.73857999               18.72484021               80.11946170                0.46220209                7.87736202                1.28363841               -4.43009173               -6.40452101               91.78990350               -9.48619115
              55.88960320               15.52587270               79.88940750                0.44408837               13.08552020               -1.63891898               -7.22338758               -4.90356986              171.94889876               -4.00048221
              57.00029039               12.35201429               79.55226347                0.44026258               10.06266842                0.46452756               -9.99000281               -1.67234912              161.82491350               -4.44379457
              58.09085656                9.17233107               79.13270874                0.43896319                8.56188433                1.94763493              -12.78755220               -1.06043057              152.16431396               -5.43525393
              59.17152808                5.99179351               78.61234961                0.43969683                7.81272411                3.41868530              -15.67746856               -0.62864431              140.40067460               -6.82039995
              60.24711105                2.81158850               77.96479110                0.44333566                7.49510378                4.78709738              -18.68757881               -0.34035626              125.75618366               -8.56303478
              61.32143016               -0.36629834               77.15581549                0.44899201                7.53750034                6.08511114              -21.82240895               -0.07609778              107.29591254              -10.78986962
              62.39786105               -3.54027188               76.14022181                0.45748407                7.91982218                7.31382947              -25.08227913                0.18728826               83.49872249              -13.83488962
              63.47982660               -6.70951179               74.85357928                0.46972621                8.65545766                8.45969805              -28.49412793                0.43577502               49.94174014              -18.41438258
              64.57097021               -9.87457890               73.16287672                0.73978614                9.11436064                9.54679694              -32.20382589                0.49985328               29.99019809              -30.79941652
              23.23979880               12.29588225               85.84231260                0.75444112               -1.54105996               -1.71305398                5.82455627               -0.45745557               -6.71150155                7.17317662
              24.22438820                8.97620521               85.00129918                0.48228662               -1.65374041               -0.98424625                3.91060477               -0.67221844               -9.01352282               -5.74262707
              25.20672399                5.64493268               84.11341550                0.45698870               -1.51823222               -0.55370240                2.05071370               -0.41879974               -9.04003743                0.03082530
              26.19402355                2.29382505               83.27130553                0.44580331               -0.90448304               -0.00188767                0.23420673               -0.38009384               -6.45239026               -0.34353460
              27.18863433               -1.07358166               82.43428412                0.44026578               -0.11949933                0.55293110               -1.63628929               -0.34955846               -5.95156158               -0.19722264
              28.19163356               -4.45155491               81.60145984                0.43946061                0.73392875                1.12092361               -3.54852996               -0.34488717               -5.73783358               -0.12448736
              29.20331290               -7.83345184               80.76853489                0.44440731                1.58442725                1.68874538               -5.49594200               -0.34013816               -6.01309339               -0.02267236
              30.22332211              -11.21336352               79.93075807                0.45475829                2.36611380                2.25265256               -7.46375850               -0.33104604               -6.80917713                0.07820588
              31.25063518              -14.58741473               79.08318618                0.47110974                3.02284493                2.80428694               -9.41482761               -0.32790597               -8.39156322                0.11348885
              32.28377901              -17.95456687               78.21562704                0.49314448                3.54796092                3.34923023              -11.36567459               -0.32493555               -8.85531756                0.91719095
              33.32159440              -21.31698212               77.36119900                0.75611929                3.78153875                3.94110776              -13.32435517               -0.40814088               -8.34156533               -5.40626146
              26.55490128               13.27875171               85.50684055                0.49713479               -1.17604859               -1.83054160                5.07891015               -0.34228638                5.66255212               11.47774019
              27.54314080                9.96636275               84.66306657                0.00010000               -0.55876075               -0.64040782                3.18562428               -0.83334183               12.69853560              -10.64220460
              28.54372607                6.63939566               83.95936053                0.00010000                0.31694921               -1.04334567                1.66828143               -2.06302593               18.91446202              -14.03440848
              29.54947978                3.29380618               83.23949633                0.00010000                0.70513280               -0.75943049               -0.01761691               -3.01549206               18.56250889              -20.69433481
              30.55782872               -0.06805235               82.52915691                0.00010000                0.93200024               -0.26581656               -1.75628119               -3.57336429               19.13200998              -28.16017290
              31.56811979               -3.44034568               81.82151266                0.00010000                1.14935508                0.32127575               -3.55751956               -3.66953348               19.20261497              -36.44702452
              32.58081583               -6.81656439               81.11364659                0.00010000                1.44366531                0.90726854               -5.41029086               -3.31664533               18.89867175              -45.68776567
              33.59699309              -10.19083700               80.40094773                0.00010000                1.85709841                1.42750752               -7.27164237               -2.58125647               18.11364212              -56.06680019
              34.61795779              -13.55937186               79.67820553                0.00010000                2.41601287                1.85666138               -9.11467320               -1.56738213               16.98704424              -67.83525547
              35.64531335              -16.92107457               78.94380449                0.00010000                3.09852209                2.24977927              -10.94583697               -0.37710774               13.50703734              -81.35382346
              36.67992824              -20.27757104               78.15223167                0.49103469                3.46148857                2.58796044              -12.76502765                0.84693457               10.61331006              -99.95269603
              29.85773100               14.25927142               85.25650657                0.48616075               -1.06535848               -1.80210243                4.62108616               -0.08947567               -0.30697936               14.54737210
              30.84707741               10.96339705               84.22629715                0.00010000               -0.98554804               -0.24020794                2.30790630               -2.09636658               16.09973565              -13.62025748
              31.83802004                7.62406577               83.52375606                0.00010000               -0.29578515               -0.86171150                0.45061880               -4.95932563               31.45157866              -27.23730317
              32.84116171                4.27863644               82.80076011                0.00010000                0.66494265               -0.87247590               -1.47700377               -6.02335457               29.75113916              -40.57722020
              33.85131889                0.92110201               82.06513001                0.00010000                1.27966133               -0.48958998               -3.48369473               -6.87750306               28.35193498              -55.39632558
              34.86675494               -2.44512940               81.31575265                0.00010000                1.80762122                0.05897889               -5.56435184               -7.02191822               26.57103770              -71.73550220
              35.88747132               -5.81530647               80.54634260                0.00010000                2.38747561                0.62229729               -7.70833892               -6.42952716               24.10751276              -89.93648905
              36.91450445               -9.18481337               79.74937773                0.00010000                3.10268966                1.09038334               -9.89180158               -5.19084951               20.82494357             -110.33943185
              37.94952511              -12.55028150               78.91561324                0.00010000                3.99657943                1.43547969              -12.08835230               -3.44333916               16.26032972             -133.33989729
              38.99443604              -15.90957129               78.02818818                0.00010000                5.10004619                1.72264985              -14.27417681               -1.52121359                9.22129093             -159.64610556
              40.05152603              -19.26522291               77.05424084                0.47022465                5.70899942                2.27521653              -16.47303587                0.13414595                4.83306816             -187.62385400
              33.14486050               15.24270966               84.98137347                0.48529003               -0.84413863               -1.53310027                4.07204207               -0.09783853                0.11200708               13.71167641
              34.13641912               11.96155859               83.82816386                0.00010000               -0.77801699               -0.12020966                1.52631771               -2.79961274               21.63143387              -11.59857826
              35.12930016                8.62216143               83.10500213                0.00010000               -0.22213372                0.15444911               -0.67058203               -5.66735550               42.48849339              -25.56181414
              36.13197644                5.27635666               82.36983894                0.00010000                0.73721684                0.29014144               -2.87820306               -6.22443410               40.72907508              -39.10653409
              37.14404450                1.92215586               81.61323225                0.00010000                1.60567307                0.63276920               -5.15049864               -6.70308887               38.09623328              -53.33435453
              38.16408991               -1.43916610               80.82778008                0.00010000                2.39323778                1.10908907               -7.50442739               -6.74536413               34.62254672              -68.88845918
              39.19190926               -4.80411844               80.00425965                0.00010000                3.20306127                1.62739678               -9.93534677               -6.23703269               30.16675982              -86.15549846
              40.22815113               -8.16902933               79.13195298                0.00010000                4.09698346                2.11813947              -12.42219996               -5.23034576               24.58385913             -105.48291030
              41.27384893              -11.53066226               78.19837477                0.00010000                5.08396797                2.56881770              -14.93166162               -3.85468318               17.65580131             -127.14154388
              42.32983049              -14.88662157               77.18834455                0.00010000                6.00327389                3.05954045              -17.43124949               -2.13723039                9.31551351             -150.96281700
              43.39391440              -18.23206671               76.08828786                0.47049244                6.40839138                4.02166796              -19.89099658               -0.87606338                4.81083874             -175.81763533
              36.41807638               16.22860941               84.71322396                0.48475996               -0.64429842               -1.30822086                3.56123237               -0.10442241                0.08536620               14.25487753
              37.41163340               12.96099286               83.43187147                0.00010000               -0.41007616                0.03150362                0.71758755               -3.21492008               27.71338736              -11.38903721
              38.40987486                9.62715475               82.70285667                0.00010000                0.25226019                0.73738575               -1.75031406               -6.32732823               54.53673577              -23.94934465
              39.41667860                6.28443927               81.95990546                0.00010000                1.14525057                1.17067486               -4.21641947               -6.62283918               52.31440634              -36.58255910
              40.43277987                2.93375740               81.18921343                0.00010000                2.07216762                1.58089575               -6.73534498               -6.79411497               48.69814004              -49.79219265
              41.45812195               -0.42294761               80.37725910                0.00010000                2.99070126                2.06569269               -9.33850304               -6.65282100               43.73096348              -64.15102424
              42.49259389               -3.78275854               79.51057657                0.00010000                3.91597020                2.61181826              -12.02904698               -6.12565303               37.42479817              -80.11684452
              43.53644136               -7.14245058               78.57531080                0.00010000                4.87148977                3.18860226              -14.78623752               -5.23502552               29.77145969              -98.04952115
              44.59002369              -10.49890515               77.55739293                0.00010000                5.83272613                3.78912568              -17.57252063               -4.00644659               20.81337144             -118.17227068
              45.65309588              -13.84838048               76.44366160                0.00010000                6.74356772                4.48369367              -20.34226968               -2.33618097               10.74244665             -140.46242334
              46.72489504              -17.18478955               75.22404655                0.47103691                7.17991643                5.30881251              -23.05383015               -0.95455008                5.48629672             -164.77831210
              39.67800517               17.21654525               84.44790605                0.48340580               -0.44297854               -1.11687565                3.06160480               -0.10364925                0.10882865               14.51633103
              40.67357538               13.96218866               83.03820216                0.00010000                0.06510102                0.22228192               -0.09846867               -3.44846272               34.52278280              -11.24468290
              41.67930719               10.63690914               82.31669501                0.00010000                0.96708155                1.16397024               -2.80546425               -6.73698349               67.98107348              -22.21041785
              42.69291701                7.29977016               81.57937050                0.00010000                1.81209503                1.78310918               -5.48940537               -6.96990504               65.25600043              -33.23646643
              43.71554909                3.95377377               80.80743304                0.00010000                2.73162025                2.29661679               -8.21789086               -6.92005636               60.65968884              -44.86567961
              44.74754942                0.60214776               79.98268853                0.00010000                3.66750377                2.84938883              -11.03226337               -6.56994877               54.27712325              -57.59730066
              45.78889916               -2.75188208               79.08741519                0.00010000                4.60239065                3.48321032              -13.94241519               -5.93322281               46.18720479              -71.88574079
              46.83959723               -6.10525728               78.10431621                0.00010000                5.53753638                4.18475101              -16.92941133               -5.03364010               36.48065836              -88.13497027
              47.89964989               -9.45487975               77.01697069                0.00010000                6.46970235                4.93469632              -19.95300666               -3.84575015               25.31837103             -106.68996951
              48.96899128              -12.79694770               75.81110526                0.00010000                7.39958303                5.70495702              -22.96329357               -2.21780006               12.99849074             -127.81654487
              50.04764155              -16.12589046               74.47648805                0.47184028                7.86502738                6.40856622              -25.91609711               -0.91624056                6.63789110             -151.69262891
              42.92471657               18.20627190               84.18398236                0.48247588               -0.24163219               -0.93789747                2.56068345               -0.09331369                0.13358895               14.60762509
              43.92230025               14.96543850               82.64526391                0.00010000                0.64185618                0.43449606               -0.92448358               -3.59961199               42.29485227              -11.27497519
              44.93755369               11.65043415               81.94982850                0.00010000                1.90578119                1.48962065               -3.83093197               -6.98878815               83.31628598              -20.10223153
              45.96041587                8.32010146               81.23642827                0.00010000                2.72237240                2.16247372               -6.68461537               -7.17587961               80.04870039              -29.01440501
              46.99200114                4.97968973               80.48134048                0.00010000                3.59814769                2.74245403               -9.57344146               -6.90539546               74.44805650              -38.57384056
              48.03237883                1.63404016               79.66194295                0.00010000                4.46666693                3.39781764              -12.55046198               -6.30865949               66.65187549              -49.25034215
              49.08133448               -1.71309433               78.75645127                0.00010000                5.31937020                4.16437441              -15.63249699               -5.51420651               56.76696233              -61.46153746
              50.13876623               -5.05875556               77.74357191                0.00010000                6.17323118                5.01269222              -18.80342237               -4.56023305               44.88969224              -75.66183107
              51.20479910               -8.40021122               76.60286882                0.00010000                7.04921809                5.89631487              -22.02356930               -3.40644651               31.19412086              -92.38144335
              52.27975059              -11.73428134               75.31634883                0.00010000                7.98283278                6.73597566              -25.24339431               -1.92647052               16.03330039             -112.18580560
              53.36445576              -15.05661823               73.87095986                0.47246416                8.47051677                7.38757621              -28.42137182               -0.79018015                8.20482219             -135.55618659
              46.15780570               19.19778730               83.91974662                0.48160708               -0.03848121               -0.76656305                2.06573194               -0.09471506                0.16174211               14.49208951
              47.15742089               15.97087858               82.25151950                0.00010000                1.35313827                0.66490089               -1.77364704               -3.75234164               51.29997725              -11.44615953
              48.18486847               12.66670155               81.60624852                0.00010000                3.13614763                1.66610848               -4.81551664               -7.13905588              101.05863007              -17.50682069
              49.22014384                9.34301963               80.94017095                0.00010000                3.93170027                2.23850884               -7.77965886               -7.17591041               97.14533277              -23.76008430
              50.26350247                6.00862285               80.22446719                0.00010000                4.70082240                2.86593898              -10.76997983               -6.54181196               90.46119823              -30.86701456
              51.31416029                2.67010411               79.43264947                0.00010000                5.39541423                3.68404634              -13.85386007               -5.67433970               81.23834492              -39.12446660
              52.37141076               -0.66859459               78.53949503                0.00010000                6.06745852                4.62133303              -17.05438217               -4.74893396               69.56233519              -48.83144965
              53.43550946               -4.00500344               77.51926560                0.00010000                6.78179902                5.62675997              -20.35878191               -3.78374338               55.39695143              -60.45341825
              54.50704674               -7.33695345               76.34544324                0.00010000                7.56797081                6.64425649              -23.73035266               -2.72529074               38.77844916              -74.72144504
              55.58686888              -10.66222819               74.99289279                0.00010000                8.47324962                7.57987558              -27.12373237               -1.49139979               20.04313082              -92.66911161
              56.67651173              -13.97813894               73.44226448                0.47320943                8.96428533                8.25371203              -30.50329806               -0.60146079               10.29542389             -115.28817478
              49.37663970               20.19094064               83.65316598                0.48060098                0.16994570               -0.59362133                1.54906175               -0.09129601                0.24698607               14.33713321
              50.37833916               16.97873652               81.85564791                0.00010000                2.29959134                0.90540261               -2.63259912               -4.01958054               61.89068605              -11.94024493
              51.42263153               13.68375632               81.29132224                0.00010000                4.83186048                1.46385221               -5.74317180               -7.24534923              121.78709108              -13.95915585
              52.47497637               10.36487163               80.70142710                0.00010000                5.57244475                1.80155667               -8.74051917               -6.57806547              116.93641285              -17.19368720
              53.53408042                7.03700851               80.05073253                0.00010000                6.05665521                2.68718528              -11.76689449               -5.48336558              108.96988608              -21.72061658
              54.59610947                3.70772109               79.31194201                0.00010000                6.36914640                3.74675519              -14.89760920               -4.44613108               98.38222372              -27.31351294
              55.66146335                0.37933233               78.45812190                0.00010000                6.76703777                4.87889034              -18.15925860               -3.55451065               85.07926590              -34.09328123
              56.73145023               -2.94622036               77.45925071                0.00010000                7.30273429                6.03309517              -21.54092105               -2.70993488               68.70154357              -42.45695166
              57.80751804               -6.26732609               76.28073664                0.00010000                7.98289272                7.17004728              -25.01038456               -1.84900317               48.83598209              -53.19810367
              58.89110808               -9.58268383               74.88428057                0.00010000                8.83650054                8.21983995              -28.53227448               -0.94865096               25.55634394              -67.94873229
              59.98424805              -12.89154399               73.23733589                0.47388109                9.31399656                9.00754761              -32.08202292               -0.36514842               13.23665282              -89.28662818
              52.58038803               21.18591487               83.38577727                0.48007343                0.38255635               -0.40055845                1.02326859               -0.10492319               -0.29508694               12.39114911
              53.58421360               17.98898663               81.45250555                0.00010000                3.67191669                1.13847682               -3.52703406               -4.68060592               74.61490031              -11.02361655
              54.65382637               14.69597860               81.01787954                0.00010000                7.55583744               -0.04548707               -6.57012673               -5.85268604              146.42452460               -8.11770202
              55.73533034               11.37905076               80.53422924                0.00010000                7.85796692                1.08252801               -9.51896051               -4.49939827              139.36814524               -9.14171008
              56.81098570                8.06236656               79.97359547                0.00010000                7.37917525                2.38215508              -12.51564641               -3.24389184              129.98633081              -11.27822453
              57.88291385                4.74503921               79.31519391                0.00010000                7.16381453                3.71448257              -15.63388997               -2.50070892              118.35298392              -14.09121967
              58.95426200                1.42898322               78.53188771                0.00010000                7.25276673                5.01742960              -18.89708112               -1.92236077              103.87685044              -17.58682335
              60.02796918               -1.88434154               77.59052155                0.00010000                7.61340718                6.28131391              -22.29291535               -1.40478074               85.83311126              -21.99703920
              61.10653014               -5.19355251               76.44914539                0.00010000                8.20722860                7.49352856              -25.79183375               -0.88873723               63.00098369              -27.86985140
              62.19211376               -8.49783139               75.05028718                0.00010000                9.01994730                8.62107966              -29.37470951               -0.40348455               33.90351772              -36.53251128
              63.28692908              -11.79798799               73.32315848                0.47452554                9.48153286                9.59453725              -33.05470509               -0.15040951               17.75443333              -53.06774858
              55.76839771               22.18292947               83.08052657                0.73995515                0.62655997               -0.29853986                0.37437482                0.65862583                5.55963495               10.47103577
              56.77466331               19.00150605               81.07541903                0.45945087                7.35579828                1.25194185               -4.36174498               -5.95917302               92.87267390               -9.74222442
              57.91551368               15.68284658               80.81715940                0.44332836               12.19685668               -1.31320164               -7.21349272               -4.58046197              173.69745924               -4.11422529
              59.01860044               12.38652219               80.45193328                0.43995629                9.38502294                0.74714291              -10.05471810               -1.58273851              163.31944816               -4.58002891
              60.10321413                9.08465161               80.00386351                0.43860264                8.04390936                2.22850572              -12.96830857               -1.00272957              153.37639032               -5.59544122
              61.17947863                5.78201074               79.45390556                0.43972663                7.45913746                3.69715265              -16.01904846               -0.59205638              141.32475478               -7.00864521
              62.25239688                2.47968092               78.77543409                0.44255788                7.32058533                5.06977052              -19.22383504               -0.31675229              126.43530791               -8.78201158
              63.32589034               -0.82059408               77.93427899                0.44771327                7.54181292                6.37474524              -22.56412395               -0.06470677              107.80066113              -11.04607698
              64.40323314               -4.11745552               76.88537246                0.45558899                8.07917656                7.60969892              -26.00660240                0.18689290               83.89380179              -14.14090639
              65.48747387               -7.41026223               75.56419130                0.46610596                8.91599555                8.75691545              -29.53457901                0.42612502               50.21495967              -18.79259257
              66.58155305              -10.69965324               73.83652211                0.73759044                9.40791848                9.83347434              -33.23159443                0.52329590               30.23274267              -31.35089939
              24.02278420               12.70731326               86.89976737                0.75009358               -1.49660500               -1.66086079                5.65425740               -0.44638821               -6.80310938                7.26891833
              25.00781815                9.26013589               86.03987371                0.47705019               -1.61306373               -0.95569977                3.79389334               -0.66853189               -9.06579651               -5.83892700
              25.99052293                5.80138955               85.13373987                0.45441024               -1.47204606               -0.53797753                2.01220330               -0.40651368               -9.01824253                0.07189679
              26.97837723                2.32347273               84.27378122                0.44485037               -0.85525971               -0.00412479                0.26576335               -0.38828432               -6.41315827               -0.33366408
              27.97341773               -1.16978504               83.41846504                0.44021104               -0.09314834                0.52983091               -1.52477615               -0.35901513               -5.94690160               -0.19662332
              28.97651426               -4.67280046               82.56684155                0.43988511                0.72476462                1.08014377               -3.35577780               -0.33881261               -5.77064752               -0.12497021
              29.98791303               -8.17935041               81.71474449                0.44365168                1.53650646                1.63991498               -5.22997022               -0.33120596               -6.07365815               -0.04044771
              31.00724439              -11.68389893               80.85765452                0.45286205                2.28117293                2.18870998               -7.12041542               -0.33014561               -6.87913979                0.06185065
              32.03353649              -15.18301953               79.99092817                0.46660689                2.90678644                2.73024690               -9.00832105               -0.32708751               -8.47985901                0.07493540
              33.06538012              -18.67596316               79.10403247                0.48684753                3.40285512                3.26110346              -10.89417308               -0.31662577               -8.97234643                0.88377854
              34.10159359              -22.16527324               78.23028209                0.75157701                3.62134647                3.82764258              -12.76613493               -0.33049744               -8.49020773               -5.44987186
              27.46549770               13.69070465               86.55696401                0.49036652               -1.14030043               -1.77213707                4.93034731               -0.33974693                5.79714286               11.72364152
              28.45409469               10.25057889               85.69447100                0.00010000               -0.53541616               -0.61944834                3.08669167               -0.83310164               13.02537100              -10.80452933
              29.45478937                6.79600977               84.97577122                0.00010000                0.29934945               -1.01437992                1.60605170               -2.04906216               19.33096172              -14.39078806
              30.46008168                3.32343148               84.23923678                0.00010000                0.65874015               -0.71886502               -0.04129050               -2.97962782               18.83787200              -21.26373705
              31.46796418               -0.16448673               83.51163839                0.00010000                0.89135735               -0.22337725               -1.74994018               -3.51848927               19.32591277              -28.93216700
              32.47790883               -3.66199902               82.78611522                0.00010000                1.10930130                0.35834632               -3.51477260               -3.60879734               19.33363948              -37.41849471
              33.49015020               -7.16295126               82.05976815                0.00010000                1.39343351                0.93791291               -5.34383221               -3.26960635               19.00728551              -46.86578831
              34.50577750              -10.66201183               81.32866231                0.00010000                1.80737617                1.44716389               -7.18081927               -2.55793006               18.21719306              -57.46755646
              35.52629772              -14.15571706               80.58749055                0.00010000                2.37816119                1.86628821               -9.01398874               -1.57133115               17.10179322              -69.47663856
              36.55334072              -17.64335212               79.83492794                0.00010000                3.06504877                2.24691987              -10.81354695               -0.42536680               13.63477482              -83.23918456
              37.58759870              -21.12699682               79.02519639                0.48452073                3.42579789                2.60281254              -12.58141137                0.79710808               10.72559326             -102.10084523
              30.89624079               14.67187052               86.30212320                0.48008828               -1.03897914               -1.73803380                4.48760102               -0.09199429               -0.35105266               14.91841105
              31.88585100               11.24774692               85.24912687                0.00010000               -0.97758484               -0.23540193                2.24667499               -2.06042867               16.28340905              -13.82070285
              32.87668910                7.78110195               84.52822107                0.00010000               -0.32849137               -0.84073468                0.44683064               -4.87089774               31.82417174              -27.92956469
              33.87928117                4.30909543               83.78611872                0.00010000                0.58946757               -0.81502098               -1.43996604               -5.88816095               30.02008135              -41.67503769
              34.88847845                0.82574742               83.03051021                0.00010000                1.17608400               -0.40182251               -3.42756854               -6.71836332               28.50216846              -56.88998682
              35.90280285               -2.66563353               82.26034002                0.00010000                1.70276292                0.16239717               -5.50987199               -6.87015095               26.60899234              -73.62707612
              36.92253371               -6.16059215               81.46944475                0.00010000                2.30243689                0.72863276               -7.67074632               -6.30719198               24.05535229              -92.23332782
              37.94885159               -9.65495565               80.65051699                0.00010000                3.04582252                1.19680585               -9.88472076               -5.11120252               20.72661252             -113.07767678
              38.98345016              -13.14569377               79.79470957                0.00010000                3.96504749                1.53800112              -12.10889637               -3.42079379               16.16371870             -136.54313384
              40.02815254              -16.63102476               78.88540121                0.00010000                5.06874919                1.82498113              -14.30772019               -1.54672161                9.15645731             -163.33844311
              41.08482514              -20.11321699               77.88964678                0.46608641                5.66725983                2.39596294              -16.47882617                0.11289013                4.82605555             -191.82777985
              34.31190501               15.65594398               86.02163497                0.47941895               -0.82503206               -1.47601637                3.97049628               -0.09597561                0.10021605               14.08192207
              35.30365469               12.24587085               84.84326085                0.00010000               -0.79410487               -0.12810496                1.48877602               -2.72280238               21.79823141              -11.78149428
              36.29602291                8.77919508               84.09842750                0.00010000               -0.29908488                0.14314551               -0.63365795               -5.50638788               42.81685901              -26.19560565
              37.29767299                5.30713106               83.34135413                0.00010000                0.61514773                0.30717164               -2.79808067               -6.02503880               40.97558847              -40.14506303
              38.30832587                1.82747682               82.56205535                0.00010000                1.45861953                0.68503505               -5.06303146               -6.48625057               38.20629703              -54.75417756
              39.32684538               -1.65875108               81.75295718                0.00010000                2.25013061                1.19015497               -7.44458158               -6.53359875               34.58691796              -70.68956132
              40.35332848               -5.14837861               80.90491207                0.00010000                3.09048388                1.72708382               -9.93152772               -6.05311022               30.01148107              -88.35245185
              41.38865506               -8.63807571               80.00747466                0.00010000                4.03112398                2.23064435              -12.48965064               -5.09186861               24.36190500             -108.09655077
              42.43395096              -12.12495704               79.04855226                0.00010000                5.06372273                2.68959754              -15.06861502               -3.76870507               17.43737730             -130.19868587
              43.48992951              -15.60685250               78.01339728                0.00010000                6.01450054                3.18797492              -17.61119306               -2.10103911                9.17701135             -154.48848798
              44.55424097              -19.07907756               76.88885396                0.46632242                6.43114551                4.12826768              -20.05541639               -0.82725646                4.76536028             -179.81860499
              37.71446754               16.64235019               85.74842156                0.47819799               -0.63236817               -1.25330896                3.48719435               -0.08498954                0.08427245               14.67239439
              38.70814385               13.24518482               84.43898701                0.00010000               -0.45832020                0.01104467                0.70139500               -3.09470681               27.89878104              -11.60209256
              39.70530113                9.78396486               83.68559041                0.00010000                0.11774003                0.71113032               -1.68716525               -6.09266516               54.88583985              -24.56737295
              40.71049865                6.31523886               82.91812820                0.00010000                0.96672208                1.16820851               -4.11154320               -6.34070991               52.57696148              -37.57121688
              41.72463557                2.83944812               82.12221582                0.00010000                1.87438281                1.61411816               -6.63552070               -6.50133850               48.81037942              -51.12849197
              42.74798631               -0.64183043               81.28402423                0.00010000                2.80802809                2.13462021               -9.28911075               -6.37603366               43.67380246              -65.83253397
              43.78079613               -4.12605048               80.39009455                0.00010000                3.78031711                2.71049640              -12.06642567               -5.88492702               37.22432707              -82.15694022
              44.82359265               -7.61034276               79.42684705                0.00010000                4.80283549                3.30973897              -14.93032126               -5.04289564               29.49123229             -100.47169255
              45.87685284              -11.09190182               78.38068837                0.00010000                5.83298131                3.92732341              -17.81948436               -3.86945544               20.54159845             -121.00489711
              46.94025228              -14.56726526               77.23903353                0.00010000                6.79386428                4.63038537              -20.65810606               -2.26071060               10.57226070             -143.73528304
              48.01273013              -18.03065164               75.99236546                0.46718260                7.24778512                5.44646485              -23.37003223               -0.89046382                5.42831670             -168.52366209
              41.10453596               17.63087780               85.47832709                0.47839340               -0.43900761               -1.05997409                3.02209564               -0.09354970                0.09960331               14.95138351
              42.10014589               14.24609174               84.03719816                0.00010000               -0.02101953                0.18934331               -0.10199314               -3.29429054               34.74793287              -11.47057194
              43.10411557               10.79341769               83.28893831                0.00010000                0.76148232                1.13642454               -2.72763459               -6.43090676               68.40805704              -22.82097173
              44.11537553                7.33049523               82.52487860                0.00010000                1.56264081                1.78190115               -5.37682588               -6.61413732               65.58951241              -34.17281834
              45.13536839                3.85975919               81.72555977                0.00010000                2.47238871                2.33492924               -8.12407791               -6.56142021               60.82646555              -46.10117386
              46.16482331                0.38394133               80.87237162                0.00010000                3.43869400                2.92711141              -11.01001700               -6.24057503               54.25183424              -59.12803264
              47.20414227               -3.09416868               79.94753774                0.00010000                4.44125891                3.59464690              -14.03419280               -5.65209404               45.99666692              -73.72543885
              48.25364849               -6.57188093               78.93403335                0.00010000                5.46710400                4.32335174              -17.15809322               -4.80965215               36.19559881              -90.30920958
              49.31348435              -10.04641057               77.81595545                0.00010000                6.49083198                5.09473005              -20.31355624               -3.68333719               25.03713369             -109.23212649
              50.38346512              -13.51424479               76.57966991                0.00010000                7.48600505                5.88152060              -23.41615924               -2.12721779               12.82289941             -130.76632238
              51.46320445              -16.97014826               75.21553716                0.46740608                7.97393244                6.59736777              -26.38375669               -0.84511683                6.57995158             -155.09808511
              44.48216865               18.62115071               85.20956481                0.47703288               -0.24504936               -0.90059251                2.56102294               -0.10513293                0.13442413               15.05295815
              45.47971816               15.24897169               83.63611004                0.00010000                0.50554308                0.40332491               -0.91452827               -3.41494594               42.58905793              -11.52315500
              46.49227951               11.80669335               82.91182128                0.00010000                1.60781250                1.47460504               -3.74921323               -6.61730494               83.87345935              -20.69530505
              47.51187441                8.35087688               82.16993238                0.00010000                2.38407796                2.18771430               -6.57996370               -6.76268082               80.50988384              -29.87983446
              48.53996107                4.88614670               81.38578351                0.00010000                3.26141346                2.81317422               -9.50346125               -6.50509470               74.72226272              -39.67860496
              49.57710268                1.41671180               80.53622108                0.00010000                4.18077203                3.50853307              -12.57302147               -5.95643230               66.70774545              -50.59032570
              50.62357651               -2.05415754               79.59933894                0.00010000                5.12694129                4.30759913              -15.79444824               -5.22431141               56.63196734              -63.05200811
              51.67964150               -5.52387573               78.55409732                0.00010000                6.09867251                5.18255893              -19.12964179               -4.33604899               44.63979709              -77.53115220
              52.74554996               -8.99000722               77.38058881                0.00010000                7.09020556                6.08903108              -22.50734436               -3.24796578               30.93419424              -94.56764745
              53.82144561              -12.44963485               76.06147425                0.00010000                8.10423855                6.95154337              -25.83937326               -1.83955291               15.86935218             -114.73564455
              54.90763473              -15.89870428               74.58428347                0.46816399                8.61891199                7.63304091              -29.04276924               -0.72082542                8.15573756             -138.52699854
              47.84679135               19.61286595               84.94055553                0.47633218               -0.04870230               -0.75044147                2.09654155               -0.10292625                0.15436049               14.93994535
              48.84630433               16.25415824               83.23392854                0.00010000                1.15364638                0.63608348               -1.74461205               -3.53115708               51.69698253              -11.72157201
              49.86986428               12.82290979               82.55836919                0.00010000                2.71821167                1.68571339               -4.73876455               -6.71314859              101.81105727              -18.06298539
              50.90066856                9.37424951               81.86261187                0.00010000                3.47836507                2.32230720               -7.69653175               -6.72832322               97.78907063              -24.51796457
              51.93943158                5.91602267               81.11674545                0.00010000                4.26651720                2.99976110              -10.73985553               -6.14086631               90.89025433              -31.79466372
              52.98599891                2.45411199               80.29359424                0.00010000                5.04059912                3.85120828              -13.93822341               -5.34299807               81.41532565              -40.22139140
              54.04024356               -1.00801670               79.36775204                0.00010000                5.83891374                4.81467019              -17.30340623               -4.49028434               69.51737649              -50.11530988
              55.10277718               -4.46822975               78.31371050                0.00010000                6.70202956                5.84248054              -20.79844238               -3.59378033               55.21102129              -61.95387185
              56.17428415               -7.92462995               77.10546757                0.00010000                7.62969769                6.88058361              -24.35120790               -2.59849889               38.56081481              -76.47870727
              57.25537113              -11.37521393               75.71852165                0.00010000                8.63213280                7.83945427              -27.87300943               -1.42522226               19.90161591              -94.73443714
              58.34692681              -14.81748744               74.13406505                0.46849764                9.15556753                8.55081527              -31.28259222               -0.54095615               10.26069355             -117.72371625
              51.19752554               20.60614188               84.66896971                0.47582834                0.15256404               -0.59729484                1.61955529               -0.11510917                0.24685488               14.77080885
              52.19905118               17.26169336               82.82949475                0.00010000                2.01998653                0.88010644               -2.59399115               -3.75332576               62.43265942              -12.24109628
              53.23792527               13.84040762               82.23411290                0.00010000                4.25719399                1.55804554               -5.67695776               -6.76209367              122.80116737              -14.43790005
              54.28419506               10.39732303               81.61410172                0.00010000                4.96780019                1.98895606               -8.68855233               -6.15221065              117.81538747              -17.78410485
              55.33728127                6.94614193               80.93278664                0.00010000                5.50435124                2.90682888              -11.78880078               -5.14531066              109.58835776              -22.40720367
              56.39428208                3.49373596               80.16208279                0.00010000                5.94156468                3.98533643              -15.05827039               -4.18971465               98.70688338              -28.10433379
              57.45611257                0.04213586               79.27484105                0.00010000                6.50485331                5.13427823              -18.51191502               -3.36637971               85.14777925              -35.00600219
              58.52437915               -3.40702612               78.24126148                0.00010000                7.22257954                6.30556207              -22.11219113               -2.58215480               68.60131827              -43.51829301
              59.60056416               -6.85239554               77.02724270                0.00010000                8.07097562                7.45934600              -25.78710002               -1.77341524               48.67813601              -54.44466650
              60.68579866              -10.29284576               75.59504768                0.00010000                9.03992457                8.52720977              -29.45157501               -0.91454812               25.44633684              -69.43193706
              61.78136265              -13.72768798               73.91258981                0.46941942                9.55639867                9.34496921              -33.02908907               -0.31803062               13.22150704              -91.07790023
              54.53338622               21.60092005               84.39650091                0.47486569                0.35858595               -0.43246742                1.12640323               -0.11905902               -0.31536556               12.74789821
              55.53697208               18.27176037               82.41744529                0.00010000                3.28032600                1.12376990               -3.47270925               -4.32499497               75.35536382              -11.30233348
              56.59899274               14.85407070               81.95233629                0.00010000                6.74589816                0.23104295               -6.51659273               -5.43094351              147.78810447               -8.43029483
              57.67189004               11.41402864               81.43894881                0.00010000                7.05598473                1.38413046               -9.50035788               -4.20656306              140.50926946               -9.47605902
              58.74011243                7.97415925               80.84787790                0.00010000                6.71603181                2.68721193              -12.59510320               -3.05395491              130.80552539              -11.65116662
              59.80621068                4.53381872               80.15755516                0.00010000                6.67828071                4.02306711              -15.88098222               -2.36599323              118.83438131              -14.51092590
              60.87367805                1.09466887               79.34066629                0.00010000                6.97274076                5.33598256              -19.36847400               -1.83030078              104.07259434              -18.06522632
              61.94566549               -2.34211851               78.36430323                0.00010000                7.54787248                6.61456851              -23.01590219               -1.34930206               85.84040527              -22.55078840
              63.02463550               -5.77544303               77.18699848                0.00010000                8.33535579                7.84256956              -26.74968200               -0.86453008               62.93104706              -28.52247309
              64.11237261               -9.20466973               75.75171475                0.00010000                9.28075654                8.98369377              -30.49302753               -0.39837697               33.84462193              -37.31925458
              65.21025063              -12.63058806               73.98780851                0.46980379                9.78780194                9.96819117              -34.19306517               -0.11179296               17.77013343              -54.06691402
              57.85346372               22.59749253               84.08482423                0.73692324                0.59369157               -0.34275186                0.50725230                0.67537221                5.71910844               10.74818593
              58.85940063               19.28416876               82.03222680                0.45676910                6.67872077                1.24083837               -4.28592399               -5.38034716               93.95905485               -9.97907504
              59.98703813               15.84502848               81.74513765                0.44287376               11.02873057               -0.90422197               -7.16098164               -4.15361645              175.39575462               -4.24666354
              61.07997525               12.42500563               81.35116911                0.43984235                8.46869800                1.09769986              -10.05895518               -1.44859512              164.69379211               -4.72504731
              62.15641209                8.99988617               80.87334257                0.43870486                7.32386769                2.57269172              -13.10174129               -0.91045048              154.37522107               -5.75987086
              63.22645260                5.57419730               80.29196864                0.43948445                6.95158422                4.03785865              -16.35743959               -0.52734033              141.95379177               -7.19538637
              64.29544378                2.14885551               79.58031440                0.44209000                7.05262033                5.41866472              -19.82734843               -0.27002937              126.76469832               -8.99430143
              65.36750501               -1.27473475               78.70453301                0.44641721                7.51904978                6.73837645              -23.46067111               -0.03603198              107.94375616              -11.29074410
              66.44582477               -4.69554415               77.62008976                0.45328939                8.27355727                7.98988783              -27.17699930                0.19707064               83.97149673              -14.43012282
              67.53297615               -8.11317189               76.26288770                0.46247759                9.25693378                9.14978414              -30.89832667                0.42135418               50.28823085              -19.14606987
              68.63096345              -11.52832416               74.49824483                0.73512365                9.79872980               10.22639047              -34.62158009                0.55605551               30.36488859              -31.84820801
              24.82352393               13.12686733               87.95539775                0.74602711               -1.44241640               -1.59986155                5.45545563               -0.43290004               -6.88557636                7.34958646
              25.80909976                9.55023209               87.07717704                0.47224960               -1.55361520               -0.92130824                3.65531842               -0.65384537               -9.09072494               -5.92584402
              26.79245162                5.96230792               86.15365957                0.45243112               -1.40322701               -0.52092238                1.96373169               -0.38678175               -8.94786097                0.10699651
              27.78103522                2.35624065               85.27662080                0.44385896               -0.79078270               -0.00467115                0.30380945               -0.37495402               -6.32649086               -0.32456559
              28.77663597               -1.26386082               84.40378859                0.43969288               -0.05470282                0.51199674               -1.40023393               -0.35885841               -5.88261107               -0.19828887
              29.77994116               -4.89260166               83.53434429                0.43944780                0.71954010                1.03876242               -3.13539918               -0.35020044               -5.73851697               -0.13172626
              30.79102677               -8.52430813               82.66393549                0.44338262                1.48072298                1.57277101               -4.90828412               -0.33825459               -6.07702997               -0.05344914
              31.80955562              -12.15414210               81.78834976                0.45078528                2.18166395                2.10915024               -6.70820414               -0.33073925               -6.91063606                0.03679334
              32.83466005              -15.77904077               80.90301976                0.46308293                2.77112684                2.63547463               -8.52004555               -0.32020934               -8.52838061                0.04413214
              33.86497816              -19.39868225               79.99774357                0.48051385                3.23154719                3.14552443              -10.30322090               -0.30588567               -9.02689292                0.84515316
              34.89929099              -23.01580816               79.10587631                0.74732391                3.43128309                3.68555248              -12.08661684               -0.25137128               -8.56338523               -5.47533612
              28.39583017               14.11086871               87.60544749                0.48367451               -1.09891554               -1.69493228                4.75254964               -0.32603642                5.92028722               11.95458677
              29.38484101               10.54101900               86.72480040                0.00010000               -0.51253231               -0.60194688                2.97086594               -0.81110258               13.32952894              -10.94956022
              30.38557952                6.95709870               85.99148157                0.00010000                0.27645213               -0.97448633                1.53063735               -1.98825301               19.70748835              -14.70457015
              31.39037005                3.35619394               85.23867052                0.00010000                0.59445097               -0.66111538               -0.07552489               -2.88002869               19.08941280              -21.76459907
              32.39746854               -0.25874086               84.49415810                0.00010000                0.81463792               -0.16269296               -1.75049725               -3.39514910               19.50417694              -29.61615714
              33.40666281               -3.88221403               83.75121721                0.00010000                1.04729520                0.40443935               -3.47742776               -3.48902398               19.43168680              -38.29982263
              34.41841444               -7.50858042               83.00676994                0.00010000                1.34758711                0.95955885               -5.25766105               -3.17309714               19.04573035              -47.95394859
              35.43361455              -11.13305060               82.25733134                0.00010000                1.76567935                1.44814241               -7.07496049               -2.49446766               18.24932889              -58.78120277
              36.45372803              -14.75268602               81.49792576                0.00010000                2.33442234                1.84174402               -8.87727903               -1.54605976               17.15404880              -71.03121122
              37.48030300              -18.36722701               80.72753355                0.00010000                3.00875817                2.19363806              -10.64337072               -0.43084018               13.72131533              -85.04419431
              38.51390319              -21.97895264               79.90060344                0.47829087                3.36001929                2.51860432              -12.34057563                0.84068705               10.83036396             -104.15546300
              31.95670261               15.09296868               87.34625859                0.47471906               -1.00548890               -1.64094818                4.33031738               -0.08840783               -0.39684205               15.28796970
              32.94664772               11.53819315               86.27123065                0.00010000               -0.95954956               -0.24752203                2.16464313               -1.97001386               16.46372320              -14.00647920
              33.93751162                7.94281819               85.53269267                0.00010000               -0.36867617               -0.81093630                0.45514246               -4.66051271               32.19359913              -28.53477808
              34.93927420                4.34301835               84.77196079                0.00010000                0.48146697               -0.73740156               -1.37527699               -5.62212826               30.25531043              -42.63386083
              35.94714096                0.73288532               83.99657864                0.00010000                1.03630220               -0.29462230               -3.33912159               -6.42161822               28.58372960              -58.20473797
              36.96000025               -2.88451287               83.20555521                0.00010000                1.56302131                0.27862477               -5.42862862               -6.58467695               26.54883869              -75.32671124
              37.97840139               -6.50511695               82.39292768                0.00010000                2.18858169                0.83815698               -7.62333544               -6.07297125               23.88439990              -94.34486312
              39.00377188              -10.12517925               81.55168332                0.00010000                2.97569370                1.28800963               -9.88443935               -4.94772271               20.49455031             -115.63772621
              40.03791526              -13.74220589               80.67343532                0.00010000                3.94280463                1.60356194              -12.16182058               -3.33422092               15.93815306             -139.58411722
              41.08262797              -17.35480949               79.74203378                0.00010000                5.08203694                1.86016771              -14.39351946               -1.52320845                8.99819590             -166.88035151
              42.13955600              -20.96543608               78.72466432                0.46209043                5.69280290                2.38975763              -16.54611577                0.15759364                4.77213149             -195.91252095
              35.50361308               16.07804975               87.06078339                0.47396411               -0.80218555               -1.38017465                3.84846868               -0.10170251                0.08428489               14.47244312
              36.49559122               12.53606856               85.85793938                0.00010000               -0.80345044               -0.15897244                1.43849540               -2.56886701               21.97167465              -11.96665590
              37.48754407                8.94087997               85.09232897                0.00010000               -0.38654277                0.12391431               -0.56819249               -5.18419085               43.16019047              -26.76219189
              38.48786037                5.34144591               84.31387733                0.00010000                0.45116624                0.32360558               -2.66548045               -5.65975228               41.19792382              -41.06190812
              39.49656739                1.73536670               83.51197162                0.00010000                1.25555867                0.73989083               -4.91850013               -6.10684906               38.24137906              -56.01510208
              40.51297154               -1.87664154               82.67888845                0.00010000                2.05270021                1.27500667               -7.34098162               -6.17324736               34.42734551              -72.31103731
              41.53762140               -5.49181728               81.80562910                0.00010000                2.93887507                1.82969730               -9.91251774               -5.73963165               29.69433332              -90.36622863
              42.57174904               -9.10729040               80.88215997                0.00010000                3.95262265                2.33680634              -12.58318818               -4.84486060               23.96168961             -110.53770229
              43.61667385              -12.72061479               79.89700247                0.00010000                5.06599889                2.78998084              -15.27701425               -3.59896652               17.05555877             -133.09942932
              44.67306902              -16.33002365               78.83612069                0.00010000                6.08171973                3.27253604              -17.90320403               -2.01533302                8.93555611             -157.87679924
              45.73830824              -19.93115749               77.68717953                0.46252824                6.52392261                4.17450411              -20.35386915               -0.75130737                4.67425190             -183.70184099
              39.03863093               17.06536519               86.78296785                0.47319385               -0.61907723               -1.18100422                3.41023975               -0.10304796                0.06978503               15.11582581
              40.03244016               13.53501370               85.44589937                0.00010000               -0.50902383               -0.02071866                0.67187531               -2.88685558               28.09991363              -11.83119245
              41.02845046                9.94529648               84.66911337                0.00010000               -0.04238662                0.66894346               -1.58253084               -5.66397128               55.27108691              -25.13877939
              42.03159243                6.34949046               83.87767460                0.00010000                0.73204867                1.15318485               -3.93645257               -5.86939565               52.82525385              -38.46264265
              43.04309143                2.74768313               83.05650301                0.00010000                1.60634216                1.64079531               -6.46081746               -6.02426029               48.84519605              -52.33172667
              44.06371927               -0.85901274               82.19147688                0.00010000                2.55830944                2.20158987               -9.18401946               -5.92847688               43.47797314              -67.35988461
              45.09425762               -4.46852300               81.26924806                0.00010000                3.59764517                2.80910157              -12.08825494               -5.49405037               36.83880235              -84.03592223
              46.13567218               -8.07844312               80.27670438                0.00010000                4.72057798                3.42993266              -15.11433884               -4.72704073               29.00671666             -102.73792805
              47.18866918              -11.68640627               79.20100325                0.00010000                5.85959180                4.05960366              -18.16882724               -3.64167441               20.08588672             -123.69644734
              48.25286401              -15.28935877               78.03049948                0.00010000                6.90641725                4.76543891              -21.13305286               -2.13705933               10.28774766             -146.88841895
              49.32679752              -18.88194600               76.75664591                0.46281440                7.39335121                5.56936511              -23.88031712               -0.79883127                5.31734837             -172.17665771
              42.56225510               18.05442966               86.50834796                0.47213653               -0.43322778               -1.01312810                2.98064049               -0.09336415                0.09480717               15.42466655
              43.55792282               14.53565419               85.03616229                0.00010000               -0.12336059                0.16156599               -0.10964924               -3.03930245               35.00979569              -11.72824713
              44.55978788               10.95425884               84.26214232                0.00010000                0.50814910                1.09003488               -2.60097409               -5.91972526               68.88866047              -23.40408976
              45.56808580                7.36450961               83.47183398                0.00010000                1.23987493                1.76405191               -5.18190174               -6.05086704               65.91761887              -35.04046015
              46.58458538                3.76818260               82.64495148                0.00010000                2.12611692                2.36244092               -7.94401368               -6.00265384               60.91485137              -47.23511545
              47.61060814                0.16739026               81.76248819                0.00010000                3.12926960                3.00118850              -10.92562607               -5.72794097               54.07815562              -60.53552684
              48.64717077               -3.43563525               80.80673134                0.00010000                4.22416787                3.70871043              -14.11252831               -5.21210233               45.60489344              -75.43219313
              49.69509150               -7.03869175               79.76115435                0.00010000                5.37926155                4.46936822              -17.44027231               -4.45736695               35.68800199              -92.35217790
              50.75475601              -10.63942271               78.61069957                0.00010000                6.53880287                5.26649897              -20.80279767               -3.42931219               24.55641184             -111.65405140
              51.82586755              -14.23471487               77.34278207                0.00010000                7.63750345                6.07563990              -24.06731694               -1.98842586               12.52433699             -133.61385278
              52.90750607              -17.81977018               75.94881291                0.46333207                8.16385214                6.81299517              -27.09650927               -0.74780393                6.46424991             -158.42345003
              46.07431460               19.04510263               86.23520282                0.47228137               -0.24896631               -0.86241779                2.57140997               -0.09117082                0.12812564               15.52805155
              47.07182494               15.53824502               84.62697334                0.00010000                0.34429672                0.37041178               -0.91495100               -3.11906924               42.93027181              -11.79326509
              48.08120053               11.96709718               83.87484424                0.00010000                1.24131944                1.44456937               -3.61214664               -6.04275653               84.49874001              -21.28105620
              49.09665132                8.38477150               83.10482900                0.00010000                1.94785850                2.19906952               -6.38595091               -6.13510194               80.96949874              -30.70616883
              50.12015770                4.79493195               82.29127126                0.00010000                2.81634888                2.87719169               -9.34137360               -5.90103247               74.91457561              -40.71551958
              51.15297830                1.20101103               81.41048252                0.00010000                3.79699389                3.62121574              -12.53193918               -5.42143339               66.60416833              -51.84104910
              52.19609758               -2.39434880               80.44056231                0.00010000                4.86670007                4.46161753              -15.94851533               -4.77977714               56.27921188              -64.54128729
              53.25031230               -5.98905576               79.36097907                0.00010000                6.00042383                5.37233587              -19.52392451               -3.99023205               44.14893997              -79.29685826
              54.31610606               -9.58107629               78.15272193                0.00010000                7.15653312                6.31206070              -23.14445302               -3.00471641               30.45888818              -96.65546024
              55.39344297              -13.16784597               76.79956136                0.00010000                8.29230052                7.21122559              -26.66850218               -1.70868174               15.57334272             -117.19666604
              56.48195207              -16.74568609               75.29010448                0.46405680                8.85091021                7.94252915              -29.95367105               -0.62737652                8.04389538             -141.41937563
              49.57414689               20.03718131               85.96167745                0.47095312               -0.06000119               -0.73455954                2.13682900               -0.10128296                0.16092701               15.40747787
              50.57354688               16.54306242               84.21662726                0.00010000                0.91296915                0.60764109               -1.72078497               -3.20034319               52.14374041              -12.00958811
              51.59240628               12.98315023               83.51147323                0.00010000                2.20010527                1.69670197               -4.60388710               -6.08620278              102.62833210              -18.63025410
              52.61754899                9.40849100               82.78624032                0.00010000                2.89594602                2.40405514               -7.52049557               -6.07323707               98.42875418              -25.26417095
              53.65032520                5.82572644               82.00967008                0.00010000                3.69556150                3.14000215              -10.61614057               -5.54838059               91.22717435              -32.68623306
              54.69146022                2.23981457               81.15388501                0.00010000                4.56584126                4.03312262              -13.96163109               -4.84574488               81.41494297              -41.26178496
              55.74164202               -1.34640290               80.19342691                0.00010000                5.52770682                5.03234153              -17.55347957               -4.09584723               69.23120114              -51.32936153
              56.80201435               -4.93124503               79.10329675                0.00010000                6.59049327                6.09384041              -21.32279308               -3.30079867               54.75910861              -63.37859858
              57.87345189               -8.51318150               77.85841908                0.00010000                7.71446811                7.16629859              -25.15027677               -2.40284174               38.10645733              -78.15925263
              58.95630372              -12.09049036               76.43543260                0.00010000                8.85934505                8.16651497              -28.88815779               -1.32466782               19.61578244              -96.72202275
              60.05063879              -15.66091960               74.81661264                0.46460475                9.43350731                8.94203197              -32.39068686               -0.46083074               10.15664873             -120.07484827
              53.06052671               21.03041143               85.68555709                0.47059497                0.13224471               -0.60814978                1.70685353               -0.09910562                0.25009035               15.22358078
              54.06184915               17.55039784               83.80376809                0.00010000                1.67605994                0.85727445               -2.55523617               -3.37208049               63.01885439              -12.55543296
              55.09404790               14.00103122               83.17778309                0.00010000                3.53806104                1.65988634               -5.55027836               -6.09332932              123.87341095              -14.94181388
              56.13261037               10.43285260               82.52765606                0.00010000                4.19093063                2.19856019               -8.54221345               -5.54370408              118.67847135              -18.38324775
              57.17786652                6.85773199               81.81495652                0.00010000                4.77911819                3.15304313              -11.71807030               -4.65072268              110.09310132              -23.08233779
              58.22819274                3.28167348               81.01077660                0.00010000                5.36868629                4.25601330              -15.16331878               -3.80405471               98.82342318              -28.86587352
              59.28524024               -0.29370197               80.08788360                0.00010000                6.14410982                5.43041150              -18.87714274               -3.07643197               84.93799174              -35.87687033
              60.35107493               -3.86717895               79.01700689                0.00010000                7.10271542                6.63080986              -22.78698838               -2.38088023               68.19673344              -44.53050385
              61.42729455               -7.43775032               77.76499464                0.00010000                8.18063892                7.81662379              -26.76827991               -1.65245235               48.25083679              -55.63741093
              62.51468771              -11.00451567               76.29524907                0.00010000                9.31496912                8.92169311              -30.66904916               -0.86013433               25.17282358              -70.85213467
              63.61359393              -14.56684545               74.57675411                0.46490920                9.89062213                9.79691548              -34.34052243               -0.25770633               13.12670730              -92.78065625
              56.53219197               22.02501831               85.40830533                0.46989617                0.32935203               -0.45824430                1.25271351               -0.10863845               -0.31724818               13.12599174
              57.53548549               18.56020791               83.38305137                0.00010000                2.79464811                1.09818366               -3.41370899               -3.84942610               76.13926974              -11.60412573
              58.58808493               15.01634795               82.88754768                0.00010000                5.72443188                0.56396899               -6.39945073               -4.86535740              149.19468183               -8.76789531
              59.64997413               11.45246220               82.34422208                0.00010000                6.02024627                1.73640277               -9.38500596               -3.79498300              141.61014384               -9.82493226
              60.70848986                7.88878730               81.72169341                0.00010000                5.84194770                3.03964308              -12.58241264               -2.77374294              131.47160932              -12.02512269
              61.76681308                4.32493484               80.99757426                0.00010000                6.02379800                4.38012867              -16.07809245               -2.15960347              119.05661942              -14.92011633
              62.82896582                0.76220533               80.14451823                0.00010000                6.58160124                5.71003194              -19.86499488               -1.68387170              103.93200315              -18.52469240
              63.89844511               -2.79862884               79.13020351                0.00010000                7.43868711                7.01552116              -23.86293818               -1.25695923               85.48410367              -23.08028843
              64.97773956               -6.35684902               77.91415175                0.00010000                8.48755261                8.27548921              -27.94043229               -0.82069147               62.53939895              -29.14676974
              66.06819616               -9.91205650               76.44042663                0.00010000                9.62023333                9.44930660              -31.94381759               -0.38682855               33.59022730              -38.06925835
              67.17014423              -13.46498129               74.63929717                0.46548087               10.19480678               10.46777021              -35.73036206               -0.06534786               17.68891618              -54.99615353
              59.98797473               23.02124655               85.09067161                0.73445516                0.55562558               -0.37717626                0.67356927                0.68977273                5.87920569               11.06359213
              60.99353099               19.57236151               82.98970055                0.45424529                5.82558676                1.21536003               -4.21100455               -4.64224782               95.09804002              -10.25822777
              62.10448647               16.01231060               82.67393977                0.44217607                9.53701894               -0.40373572               -7.03462531               -3.59888945              177.12175414               -4.39267548
              63.18427137               12.46758065               82.25075418                0.43959619                7.27162764                1.51184520               -9.95859206               -1.25956310              165.97777213               -4.88519274
              64.24991902                8.91852486               81.74182869                0.43881197                6.36556326                2.97375562              -13.13907098               -0.77231353              155.15325986               -5.93175156
              65.31158263                5.36927606               81.12675677                0.43945692                6.26037313                4.43412185              -16.64881296               -0.42435402              142.24302501               -7.38280168
              66.37512648                1.82049867               80.37888712                0.44143318                6.67037370                5.82933393              -20.46767084               -0.19116272              126.67113625               -9.20068332
              67.44499011               -1.72686853               79.46506556                0.44521059                7.45909506                7.17603083              -24.50264405                0.01753937              107.63652496              -11.52341883
              68.52430838               -5.27224054               78.34183248                0.45121890                8.50466514                8.46084845              -28.61143890                0.22383191               83.64618939              -14.70076334
              69.61508341               -8.81552954               76.94622477                0.45915083                9.69140885                9.65269607              -32.63446417                0.42624958               50.10446540              -19.47116344
              70.71813656              -12.35749005               75.14409051                0.73286792               10.30531520               10.74912434              -36.45276868                0.60318248               30.35498754              -32.28020227
              25.64151409               13.55420551               89.00887648                0.74225722               -1.37722586               -1.52699563                5.22249043               -0.41496890               -6.95962345                7.41713742
              26.62774183                9.84637229               88.11298008                0.46739608               -1.46960715               -0.88382083                3.49431434               -0.62506488               -9.09127331               -6.00380594
              27.61212195                6.12788549               87.17301451                0.45024803               -1.30117212               -0.50002162                1.90534479               -0.37980847               -8.82875454                0.13683511
              28.60171839                2.39288198               86.27985741                0.44311884               -0.70399617               -0.00824665                0.34489546               -0.37126523               -6.18106116               -0.31898931
              29.59804203               -1.35448983               85.39046036                0.43929900               -0.00606804                0.48899114               -1.25448397               -0.35723989               -5.75651244               -0.19976775
              30.60159703               -5.10918082               84.50413357                0.43925394                0.71624651                0.99744200               -2.88295192               -0.34655430               -5.63739364               -0.13803476
              31.61236696               -8.86608830               83.61657880                0.44261187                1.41751870                1.50658796               -4.53852600               -0.33889857               -6.01251213               -0.06497664
              32.62994741              -12.62112623               82.72349044                0.44936956                2.06040501                2.01567819               -6.22522122               -0.32694399               -6.88518542                0.00877863
              33.65357506              -16.37194889               81.82052726                0.45964002                2.60191540                2.51920433               -7.92568061               -0.31554719               -8.51844792                0.01745150
              34.68198571              -20.11864004               80.89796805                0.47452283                3.02426810                3.01138298               -9.60933192               -0.30390428               -9.04640843                0.79336194
              35.71406042              -23.86423424               79.98854976                0.74332206                3.20747057                3.53401448              -11.32026485               -0.15884236               -8.62893041               -5.48061843
              29.34519762               14.53893555               88.65201501                0.47704212               -1.05464263               -1.59557466                4.54731914               -0.29785986                6.03489945               12.17589094
              30.33465120               10.83753408               87.75388832                0.00010000               -0.50643009               -0.59469686                2.83816726               -0.75503653               13.61344382              -11.08331543
              31.33506902                7.12288527               87.00638397                0.00010000                0.22711016               -0.91632530                1.44471931               -1.85127904               20.04072727              -14.96239334
              32.33919340                3.39279951               86.23772628                0.00010000                0.52160032               -0.58352896               -0.11517422               -2.68510882               19.27674224              -22.17114829
              33.34550103               -0.34959992               85.47662844                0.00010000                0.73686623               -0.08355125               -1.75652335               -3.17446639               19.61710744              -30.17876726
              34.35393072               -4.09920640               84.71656667                0.00010000                0.97248231                0.46709092               -3.45106440               -3.27944696               19.48913645              -39.04613602
              35.36495067               -7.85102242               83.95461493                0.00010000                1.28387678                0.98698662               -5.18342500               -3.00182001               19.04212018              -48.91930022
              36.37960826              -11.60096944               83.18716310                0.00010000                1.71129097                1.42937124               -6.94937393               -2.37234364               18.21441421              -59.98924469
              37.39917649              -15.34675685               82.40994497                0.00010000                2.27405415                1.77480331               -8.70622698               -1.46345330               17.13256166              -72.49990597
              38.42508934              -19.08852621               81.62206053                0.00010000                2.94448492                2.07105568              -10.44057831               -0.36177501               13.74713219              -86.78024848
              39.45806619              -22.82889409               80.77838488                0.47268133                3.29768485                2.30953695              -12.09004553                1.01052506               10.89272150             -106.11904463
              33.03835984               15.52229402               88.38872955                0.46937219               -0.96684518               -1.51259871                4.15513007               -0.07751134               -0.44963667               15.66228059
              34.02869139               11.83447835               87.29241973                0.00010000               -0.92644491               -0.28325363                2.07135440               -1.79218149               16.65177658              -14.18982778
              35.01983094                8.10955898               86.53732392                0.00010000               -0.40949888               -0.76773636                0.48361727               -4.25235984               32.57810036              -29.02023616
              36.02050141                4.38121140               85.75861318                0.00010000                0.33638364               -0.63102143               -1.27000994               -5.14622087               30.46509462              -43.39817640
              37.02655861                0.64383914               84.96372778                0.00010000                0.84645940               -0.15748339               -3.20281579               -5.92045517               28.59399312              -59.27650675
              38.03743060               -3.09983900               84.15176744                0.00010000                1.37674942                0.41564550               -5.30436112               -6.11918116               26.37030220              -76.76158374
              39.05409360               -6.84634857               83.31697804                0.00010000                2.04021809                0.94994323               -7.54832740               -5.68534218               23.56018981              -96.21026239
              40.07823496              -10.59253880               82.45282820                0.00010000                2.88845796                1.35593149               -9.88511449               -4.65985193               20.09228074             -117.98311090
              41.11186276              -14.33645283               81.55147316                0.00010000                3.93262494                1.61216469              -12.24638153               -3.13776028               15.54881211             -142.45796260
              42.15688746              -18.07721893               80.59753082                0.00010000                5.15719617                1.78360143              -14.53987958               -1.41082176                8.72829542             -170.29271796
              43.21500668              -21.81804350               79.55872447                0.45822623                5.81192259                2.18990635              -16.68849202                0.29464951                4.67299930             -199.89696278
              36.71927872               16.50868358               88.09860435                0.46897555               -0.77361201               -1.25959374                3.70856102               -0.09943886                0.07004263               14.87545328
              37.71154260               12.83186901               86.87203076                0.00010000               -0.79949717               -0.20701449                1.37353541               -2.29239046               22.18080412              -12.16030705
              38.70328878                9.10753054               86.08706365                0.00010000               -0.47768901                0.09084698               -0.45716282               -4.62866121               43.55938192              -27.23510217
              39.70198882                5.38017908               85.28804452                0.00010000                0.24267741                0.34089749               -2.45451868               -5.05837287               41.41728072              -41.81049174
              40.70814233                1.64725041               84.46368534                0.00010000                0.98729975                0.79972890               -4.68663572               -5.49469873               38.20260380              -57.06058517
              41.72173482               -2.09089349               83.60613754                0.00010000                1.79006515                1.36055664               -7.16384004               -5.59519178               34.12507222              -73.69657503
              42.74394363               -5.83202356               82.70666172                0.00010000                2.73903304                1.92387029               -9.85436351               -5.23531185               29.17954443              -92.14613168
              43.77651548               -9.57385081               81.75581089                0.00010000                3.85788930                2.42215469              -12.68756794               -4.43765793               23.33566661             -112.76902580
              44.82110141              -13.31451356               80.74301198                0.00010000                5.09740516                2.84624837              -15.55593662               -3.30453247               16.46251013             -135.82626242
              45.87846358              -17.05285418               79.65533320                0.00010000                6.22534540                3.27619518              -18.32281530               -1.85526481                8.55798941             -161.13536690
              46.94560832              -20.78509597               78.48177658                0.45878625                6.71447433                4.11126609              -20.81880881               -0.63530076                4.52078387             -187.50599687
              40.39000020               17.49710214               87.81662635                0.46822263               -0.60035872               -1.07737099                3.31536047               -0.10017188                0.05265578               15.57172861
              41.38399661               13.83033806               86.45242451                0.00010000               -0.55262786               -0.07080896                0.62919145               -2.53606921               28.35837427              -12.07134383
              42.37894764               10.11137592               85.65393980                0.00010000               -0.21912639                0.60372359               -1.41493886               -4.96902006               55.75166128              -25.64379898
              43.37961408                6.38802935               84.83939915                0.00010000                0.43947854                1.11762723               -3.65591416               -5.13061364               53.09265885              -39.21946430
              44.38773721                2.65983372               83.99299947                0.00010000                1.25933243                1.65191106               -6.17073138               -5.28941698               48.81189244              -53.35480292
              45.40480073               -1.07262787               83.10034384                0.00010000                2.23037375                2.25593185               -8.98390850               -5.24165682               43.12869025              -68.68356074
              46.43234469               -4.80787117               82.14832945                0.00010000                3.35855318                2.89483826              -12.06241754               -4.89187425               36.23227373              -85.70891975
              47.47197180               -8.54409571               81.12456027                0.00010000                4.62153962                3.53258128              -15.31967489               -4.23659369               28.26789380             -104.81430691
              48.52477548              -12.27952786               80.01731183                0.00010000                5.91963877                4.16516340              -18.62074431               -3.28579337               19.39451144             -126.22982203
              49.59036457              -16.01169502               78.81637247                0.00010000                7.10043770                4.86352243              -21.79019926               -1.94576885                9.85392124             -149.92714592
              50.66678423              -19.73581818               77.51475911                0.45916097                7.64196624                5.65100672              -24.63145626               -0.67134318                5.13717960             -175.76825101
              44.05080344               18.48713616               87.53793990                0.46765793               -0.42560019               -0.93599470                2.93573266               -0.10883650                0.09290924               15.92011370
              45.04654744               14.83045283               86.03500517                0.00010000               -0.22931742                0.11516792               -0.13083221               -2.64227895               35.34428615              -12.00453429
              46.04621709               11.11960502               85.23691883                0.00010000                0.21856557                1.01827011               -2.39767259               -5.12350926               69.49255413              -23.94747379
              47.05091875                7.40253163               84.42124057                0.00010000                0.83970574                1.71589098               -4.86322969               -5.20465518               66.28433519              -35.81161947
              48.06301121                3.68028863               83.56667950                0.00010000                1.68439088                2.36420005               -7.63002108               -5.17223190               60.94127145              -48.23124327
              49.08460657               -0.04577485               82.65385910                0.00010000                2.72813882                3.05609358              -10.73316665               -4.96605826               53.74559228              -61.78078716
              50.11757398               -3.77412679               81.66528717                0.00010000                3.94168652                3.80961547              -14.14070482               -4.55524118               44.97811021              -76.96969228
              51.16344030               -7.50319919               80.58522790                0.00010000                5.27054417                4.60702053              -17.75572323               -3.92973066               34.90840993              -94.23556160
              52.22298486              -11.23121029               79.39989949                0.00010000                6.61991119                5.43459641              -21.42385118               -3.05072933               23.82418256             -113.94077568
              53.29583852              -14.95558373               78.09832357                0.00010000                7.87214498                6.27381635              -24.94837575               -1.78500948               12.06728563             -136.36275448
              54.38042776              -18.67207583               76.67360698                0.45951031                8.45892443                7.04633264              -28.11601125               -0.61710077                6.27355040             -161.69586014
              47.70119012               19.47838225               87.26099301                0.46741111               -0.25079500               -0.82374595                2.57421299               -0.10874011                0.10748461               16.03283464
              48.69868217               15.83264142               85.61781102                0.00010000                0.16042665                0.33594502               -0.91476036               -2.69024977               43.35335211              -12.09232343
              49.70439866               12.13174132               84.83957835                0.00010000                0.80775940                1.38804197               -3.39116903               -5.18467424               85.27062626              -21.85142799
              50.71483736                8.42234717               84.04221337                0.00010000                1.41001989                2.18037025               -6.05635739               -5.22477770               81.47870285              -31.47545242
              51.73259906                4.70711772               83.19895603                0.00010000                2.25288154                2.91620600               -9.03475529               -5.02669950               75.04656372              -41.65980970
              52.75989499                0.98849400               82.28558229                0.00010000                3.30325714                3.71785312              -12.37716922               -4.64311058               66.33387966              -52.97472619
              53.79866420               -2.73167886               81.28036863                0.00010000                4.52828409                4.61007881              -16.05546857               -4.12837213               55.67665741              -65.90262629
              54.85046068               -6.45195530               80.16361883                0.00010000                5.87406202                5.56848256              -19.96619641               -3.48150933               43.36834582              -80.93743459
              55.91614544              -10.17083593               78.91769974                0.00010000                7.25346248                6.55612916              -23.94181172               -2.64854047               29.71625790              -98.63284817
              56.99552992              -13.88621870               77.52810421                0.00010000                8.56404866                7.51208253              -27.77072982               -1.52004457               15.10969879             -119.57049456
              58.08742641              -17.59489152               75.98521005                0.46018996                9.18964868                8.32208937              -31.22922681               -0.50368587                7.85182261             -144.25227562
              51.34011029               20.47066124               86.98329211                0.46639674               -0.07269218               -0.71983133                2.19560385               -0.10319017                0.16932615               15.90238341
              52.33938337               16.83717173               85.19951284                0.00010000                0.63537856                0.57595827               -1.70635425               -2.73876470               52.68395274              -12.32473433
              53.35281786               13.14736586               84.46629144                0.00010000                1.58317150                1.68777789               -4.37757622               -5.19629174              103.59710816              -19.20549521
              54.37104680                9.44613903               83.71220196                0.00010000                2.17562618                2.46645679               -7.20253682               -5.14997038               99.11932846              -25.99006533
              55.39633038                5.73861275               82.90442264                0.00010000                2.97470685                3.26770581              -10.34327827               -4.70665634               91.49573505              -33.52781604
              56.43054093                2.02858221               82.01436161                0.00010000                3.95627278                4.21176154              -13.87164864               -4.13047506               81.23061042              -42.22872280
              57.47545584               -1.68192522               81.01668245                0.00010000                5.12131258                5.25929941              -17.76437447               -3.52169144               68.67109403              -52.45639144
              58.53296718               -5.39182954               79.88725464                0.00010000                6.44108095                6.37061736              -21.91286861               -2.87101906               53.99096886              -64.71312786
              59.60427746               -9.10008770               78.60246204                0.00010000                7.82630187                7.49797475              -26.13839380               -2.11596354               37.36181595              -79.75429186
              60.68949322              -12.80534208               77.14075849                0.00010000                9.17111220                8.56681055              -30.21642181               -1.17903039               19.14902049              -98.63113700
              61.78769970              -16.50563404               75.48625132                0.46077143                9.82064788                9.44529439              -33.91369795               -0.35618145                9.96508603             -122.35039506
              54.96610534               21.46398562               86.70310678                0.46601210                0.10969259               -0.61679386                1.80681048               -0.11055862                0.24933836               15.71456430
              55.96720227               17.84416059               84.77839003                0.00010000                1.27000904                0.82868311               -2.51521051               -2.86784935               63.69703489              -12.90336853
              56.99150552               14.16549688               84.12310733                0.00010000                2.66943963                1.75951278               -5.32874691               -5.17932420              125.09373956              -15.47095433
              58.02059106               10.47167631               83.44325746                0.00010000                3.22586165                2.41464185               -8.25020095               -4.70623224              119.58102602              -18.99027336
              59.05602275                6.77247184               82.69842524                0.00010000                3.86162028                3.40859347              -11.49708766               -3.95425064              110.50712879              -23.74096809
              60.09782346                3.07272923               81.85881641                0.00010000                4.63096813                4.54270085              -15.15901502               -3.24936995               98.72211569              -29.59028465
              61.14864212               -0.62649287               80.89729819                0.00010000                5.66896585                5.75483567              -19.21464102               -2.65195782               84.41245331              -36.69689281
              62.21120278               -4.32454295               79.78552171                0.00010000                6.93482993                7.00232907              -23.54799285               -2.08183525               67.43200575              -45.48546379
              63.28733871               -8.02087644               78.49187711                0.00010000                8.31464380                8.24357178              -27.96852352               -1.47083184               47.49546552              -56.77080993
              64.37749566              -11.71488249               76.98166670                0.00010000                9.67739945                9.41557424              -32.23801478               -0.77853444               24.69612189              -72.20685687
              65.48088670              -15.40598564               75.22577936                0.46104609               10.33910467               10.38932597              -36.11073394               -0.18090706               12.93230253              -94.39354298
              58.57754918               22.45832536               86.42155518                0.46526548                0.29659364               -0.49769031                1.40500789               -0.11376660               -0.32798724               13.53227430
              59.58051512               18.85374539               84.34917111                0.00010000                2.20832375                1.07726191               -3.35480103               -3.24391192               77.01479815              -11.92964783
              60.62171566               15.18255611               83.82434728                0.00010000                4.47160378                0.94469606               -6.18181481               -4.11997248              150.73949119               -9.13578518
              61.66994719               11.49443187               83.25124869                0.00010000                4.72383923                2.12806445               -9.11935956               -3.23603893              142.72443238              -10.19048598
              62.71619244                7.80678462               82.59622965                0.00010000                4.72855232                3.42543693              -12.41809058               -2.37718479              132.00279892              -12.40020635
              63.76451824                4.11943623               81.83599332                0.00010000                5.17482111                4.77235137              -16.17046236               -1.85909633              119.00178871              -15.31674085
              64.81968886                0.43317149               80.94336640                0.00010000                6.05979036                6.12984696              -20.34656784               -1.46517957              103.40715355              -18.96203048
              65.88571405               -3.25178296               79.88704446                0.00010000                7.27557468                7.48078577              -24.81850376               -1.11501980               84.69692133              -23.58226456
              66.96520036               -6.93521627               78.62818983                0.00010000                8.66588429                8.79777816              -29.38226465               -0.74985005               61.75675880              -29.74020838
              68.05903173              -10.61703060               77.11283840                0.00010000               10.05437510               10.03455231              -33.78564684               -0.36597401               33.09397060              -38.78042483
              69.16628786              -14.29784752               75.27320127                0.46153830               10.72561261               11.12353848              -37.76723974               -0.00944144               17.48719467              -55.84880606
              62.17298995               23.45403181               86.09829562                0.73247628                0.51033316               -0.42935483                0.86748892                0.71147763                6.05637545               11.39267398
              63.17809328               19.86570583               83.94800671                0.45180002                4.77148230                1.19604326               -4.12310479               -3.72423458               96.34419446              -10.54842602
              64.26841959               16.18439080               83.60444514                0.44155085                7.67742449                0.18346911               -6.79760611               -2.90301797              178.96361456               -4.56652719
              65.33164177               12.51423759               83.15199726                0.43960602                5.75275544                1.98057234               -9.69582377               -1.00105383              167.22334864               -5.06528967
              66.38347470                8.84098058               82.61056115                0.43892254                5.13064481                3.41959546              -13.01775290               -0.57484064              155.71747102               -6.11595254
              67.43425466                5.16817626               81.95899238                0.43921517                5.35415022                4.87400343              -16.83639338               -0.27018289              142.15928776               -7.57382464
              68.49055771                1.49610407               81.17096099                0.44100177                6.15177421                6.29325761              -21.10421166               -0.06829044              126.08853476               -9.40261169
              69.55729015               -2.17492723               80.21448013                0.44438021                7.35158252                7.68557222              -25.67569253                0.10636292              106.79238663              -11.74419702
              70.63758936               -5.84492087               79.04786098                0.44905544                8.77586418                9.02953962              -30.33105873                0.27568961               82.82967684              -14.95155659
              71.73280743               -9.51419144               77.61019842                0.45597105               10.23711844               10.28391589              -34.80624012                0.44787019               49.60254106              -19.76462097
              72.84233173              -13.18351487               75.76918946                0.73099503               10.95242934               11.43326581              -38.83122562                0.67204399               30.16847012              -32.63523003
              26.47612426               13.98893302               90.05984756                0.73909869               -1.29879927               -1.43995592                4.95109822               -0.39362732               -7.01488981                7.46582562
              27.46313627               10.14833948               89.14706333                0.46303819               -1.35625338               -0.84264391                3.31016432               -0.57090043               -9.05776269               -6.06728018
              28.44899920                6.29830570               88.19176647                0.44836237               -1.15840620               -0.47642843                1.84051573               -0.35512748               -8.65729831                0.15702488
              29.43996815                2.43412312               87.28351871                0.44269152               -0.58848154               -0.01079112                0.39238873               -0.35567472               -5.97765016               -0.31560404
              30.43722956               -1.44019235               86.37869891                0.43968892                0.05533504                0.46087276               -1.08292265               -0.34350966               -5.56211542               -0.20407318
              31.44107485               -5.32022855               85.47668525                0.43939003                0.70950464                0.94579225               -2.58135428               -0.33595761               -5.46639629               -0.14332514
              32.45141966               -9.20167991               84.57316497                0.44221617                1.34143042                1.43142561               -4.11088031               -0.33009012               -5.87812618               -0.07726933
              33.46790346              -13.08131186               83.66384533                0.44758818                1.91969097                1.91386053               -5.66949706               -0.32542763               -6.78753126               -0.01110964
              34.48981348              -16.95752715               82.74450614                0.45627171                2.40620224                2.38971142               -7.24699976               -0.31756874               -8.44922307               -0.01334438
              35.51602750              -20.83099996               81.80555694                0.46884742                2.78677481                2.86052182               -8.82348239               -0.30035851               -9.01883761                0.74265860
              36.54554897              -24.70509079               80.87947101                0.73972190                2.95214724                3.35825424              -10.43522908               -0.05308801               -8.65097053               -5.46005230
              30.31278153               14.97453346               89.69639387                0.47077594               -1.00406027               -1.46540353                4.31293681               -0.25177930                6.13301530               12.38101418
              31.30274093               11.13991304               88.78156375                0.00010000               -0.51127149               -0.60426636                2.68543232               -0.65197174               13.86592650              -11.19710220
              32.30255610                7.29354142               88.02037595                0.00010000                0.14597480               -0.82859560                1.34752676               -1.60084229               20.31850086              -15.14679825
              33.30566042                3.43401521               87.23636703                0.00010000                0.42071031               -0.46932686               -0.16698285               -2.34604728               19.38692990              -22.44855807
              34.31097031               -0.43558362               86.45902764                0.00010000                0.63993152                0.02453137               -1.76272379               -2.80744248               19.62494830              -30.57342600
              35.31845905               -4.31077063               85.68219592                0.00010000                0.88450517                0.54565657               -3.41897312               -2.93504284               19.43401763              -39.61030707
              36.32866041               -8.18736566               84.90310144                0.00010000                1.20568726                1.01554638               -5.10646485               -2.71389283               18.95633777              -49.71269691
              37.34257280              -12.06217326               84.11834386                0.00010000                1.64107156                1.39113019               -6.81974057               -2.15227305               18.11672001              -61.06223010
              38.36148184              -15.93363004               83.32380122                0.00010000                2.21164665                1.65475006               -8.52591365               -1.29230408               17.04026347              -73.87699984
              39.38680573              -19.80239475               82.51872198                0.00010000                2.88135363                1.85317226              -10.21961835               -0.19815670               13.71336477              -88.45005350
              40.41910891              -23.67150824               81.65880253                0.46728543                3.23031819                1.91618777              -11.81413361                1.34263650               10.90291873             -108.01165404
              34.14032952               15.95962495               89.42936119                0.46425213               -0.92406340               -1.34357277                3.95899722               -0.06810063               -0.51137158               16.04873549
              35.13108888               12.13625415               88.31265773                0.00010000               -0.87246682               -0.35277026                1.97090842               -1.49420451               16.85704698              -14.37854943
              36.12288018                8.28173379               87.54236501                0.00010000               -0.44583232               -0.69896828                0.54505317               -3.56778618               33.00070851              -29.34189360
              37.12217224                4.42473659               86.74656059                0.00010000                0.14931885               -0.47825555               -1.10438223               -4.37558234               30.65894869              -43.89392999
              38.12586656                0.56029828               85.93252233                0.00010000                0.59918948                0.02334625               -2.99807042               -5.12479360               28.52935237              -60.01254073
              39.13415603               -3.30931542               85.09946799                0.00010000                1.13389335                0.58105965               -5.11830847               -5.38148541               26.06350480              -77.84190134
              40.14854442               -7.18136899               84.24196113                0.00010000                1.84831743                1.06371694               -7.43101733               -5.06476549               23.05930395              -97.74365760
              41.17112238              -11.05348926               83.35398103                0.00010000                2.78222302                1.38851340               -9.87466252               -4.17619257               19.48328771             -120.06528090
              42.20418889              -14.92443215               82.42850769                0.00010000                3.94100977                1.53256668              -12.36102944               -2.77636777               14.95938043             -145.14803575
              43.24994257              -18.79393652               81.45123619                0.00010000                5.32199053                1.54110541              -14.76006454               -1.18382021                8.31783115             -173.59206350
              44.31062870              -22.66676703               80.39089448                0.45489374                6.06861251                1.70980867              -16.93714570                0.55336136                4.51512244             -203.83876334
              37.95816111               16.94766201               89.13495461                0.46392059               -0.74131100               -1.10803713                3.55173587               -0.09252634                0.05153246               15.30400242
              38.95074800               13.13285764               87.88541009                0.00010000               -0.77215827               -0.28208744                1.30063815               -1.84473198               22.45238021              -12.37665717
              39.94271795                9.27956205               87.08318572                0.00010000               -0.55818580                0.04157669               -0.27934040               -3.73893380               44.07217377              -27.57705478
              40.93958429                5.42445010               86.26478695                0.00010000               -0.00957516                0.35842675               -2.13163844               -4.12325229               41.66997003              -42.32523788
              41.94252644                1.56488330               85.41823890                0.00010000                0.64561624                0.86473210               -4.32886463               -4.55407539               38.10541356              -57.81212458
              42.95249661               -2.29914944               84.53561165                0.00010000                1.45062461                1.44549572               -6.87492728               -4.70837762               33.67395636              -74.76588385
              43.97153893               -6.16609132               83.60854183                0.00010000                2.48077512                2.00210673               -9.72411997               -4.45556549               28.44070526              -93.62419564
              45.00211211              -10.03440299               82.62840861                0.00010000                3.74314063                2.46714942              -12.78199510               -3.79810457               22.44149451             -114.74031856
              46.04640175              -13.90297870               81.58588374                0.00010000                5.16760466                2.82709603              -15.90261069               -2.83056636               15.60977964             -138.35775270
              47.10546421              -17.77157264               80.46966438                0.00010000                6.47177072                3.15222321              -18.89129887               -1.58903918                8.01015612             -164.27982718
              48.17583716              -21.63731207               79.27080335                0.45539879                7.03729559                3.88128087              -21.49496986               -0.46698635                4.28948175             -191.28691598
              41.76808773               17.93746421               88.84927506                0.46347704               -0.57935285               -0.95983644                3.21427566               -0.09409935                0.03858992               16.06810966
              42.76229420               14.13061241               87.45848320                0.00010000               -0.57893441               -0.13403203                0.57576239               -1.99086393               28.71800004              -12.34698396
              43.75650904               10.28256532               86.64081459                0.00010000               -0.39541324                0.50543813               -1.15607621               -3.90108297               56.40750417              -26.05225073
              44.75438594                6.43190512               85.80455631                0.00010000                0.09377737                1.05064518               -3.22612206               -4.02724261               53.43452832              -39.78957934
              45.75838459                2.57759292               84.93308839                0.00010000                0.82885798                1.63589335               -5.71451971               -4.20223953               48.73883172              -54.13350849
              46.77096310               -1.28040551               84.01179871                0.00010000                1.81510376                2.28427511               -8.63858183               -4.22520354               42.62839857              -69.73734614
              47.79468666               -5.14132685               83.02799970                0.00010000                3.05422867                2.95115216              -11.94671902               -3.99577600               35.38275437              -87.11626994
              48.83204767               -9.00414627               81.97031088                0.00010000                4.50302718                3.59707225              -15.52017267               -3.50140611               27.23343788             -106.65707806
              49.88474721              -12.86789023               80.82858836                0.00010000                6.02237409                4.21762811              -19.17390758               -2.75017717               18.41876586             -128.58564871
              50.95249515              -16.73089206               79.59469549                0.00010000                7.40103117                4.89354687              -22.66010357               -1.66048015                9.23497115             -152.86542797
              52.03276783              -20.58914141               78.26401678                0.45559238                8.02726798                5.65868714              -25.68869078               -0.49628051                4.87000470             -179.35490369
              45.56998273               18.92846528               88.56706261                0.46266928               -0.41531204               -0.85285499                2.88625752               -0.09180089                0.08857710               16.44519339
              46.56582961               15.13017700               87.03354565                0.00010000               -0.32895796                0.06392399               -0.16195755               -2.03910145               35.80834293              -12.31136829
              47.56340357               11.28967081               86.21418887                0.00010000               -0.09088884                0.90653401               -2.08568393               -3.95061625               70.32070198              -24.42939790
              48.56401183                7.44546300               85.37456939                0.00010000                0.36943546                1.61979663               -4.36958922               -3.98039407               66.75754909              -36.44714000
              49.57079228                3.59760117               84.49235106                0.00010000                1.14502389                2.31998460               -7.12337920               -3.97957397               60.94501965              -49.04023200
              50.58691231               -0.25346394               83.54782486                0.00010000                2.22859473                3.07097503              -10.37499208               -3.86946227               53.26485471              -62.81153618
              51.61536418               -4.10706828               82.52391724                0.00010000                3.58675292                3.87651258              -14.07095224               -3.60450405               44.10030568              -78.29003268
              52.65864737               -7.96246154               81.40603989                0.00010000                5.13899070                4.71575404              -18.07631712               -3.16287156               33.81956447              -95.92321549
              53.71814399              -11.81862614               80.18222254                0.00010000                6.74292072                5.57972149              -22.17848210               -2.50207636               22.79410199             -116.07592788
              54.79350578              -15.67370170               78.84381456                0.00010000                8.21331382                6.46006358              -26.09997772               -1.49403512               11.41727646             -139.02488911
              55.88241027              -19.52413833               77.38649269                0.45613320                8.89044819                7.28827343              -29.52648728               -0.44321253                5.99053716             -164.96340997
              49.36282828               19.92040711               88.28668708                0.46292539               -0.25216366               -0.76750357                2.57457826               -0.09616107                0.11062330               16.56998665
              50.36030664               16.13189089               86.60867813                0.00010000               -0.03087832                0.29058640               -0.92059397               -2.06570594               43.92803125              -12.42249233
              51.36221071               12.30069600               85.80702086                0.00010000                0.32705288                1.29202626               -3.04861338               -3.96670445               86.29182288              -22.39342161
              52.36684770                8.46430105               84.98370185                0.00010000                0.77546704                2.10912990               -5.53535322               -3.94554325               82.11549434              -32.16127264
              53.37772005                4.62399261               84.11057615                0.00010000                1.56978002                2.90498700               -8.51969331               -3.79995481               75.16445413              -42.47693983
              54.39824330                0.78101399               83.16293914                0.00010000                2.69370698                3.77349685              -12.04662924               -3.54444526               65.91330071              -53.95364084
              55.43159419               -3.06379660               82.11945294                0.00010000                4.10524042                4.73039953              -16.06479518               -3.20192393               54.81265034              -67.10043588
              56.48034811               -6.90983119               80.96165515                0.00010000                5.71758241                5.75255373              -20.42834692               -2.75462148               42.26384108              -82.42524828
              57.54594584              -10.75629580               79.67388570                0.00010000                7.38892636                6.80907225              -24.90527138               -2.14096152               28.66182149             -100.48647432
              58.62812663              -14.60169078               78.24414677                0.00010000                8.94154972                7.85130544              -29.19626384               -1.25455396               14.44474881             -121.86467769
              59.72477683              -18.44337594               76.66551994                0.45639935                9.66501995                8.78207577              -32.97013298               -0.34128636                7.56225285             -147.06023770
              53.14509196               20.91311521               88.00558953                0.46231641               -0.08653572               -0.69837307                2.25724433               -0.10671366                0.16370797               16.42534582
              54.14422660               17.13598872               86.18250017                0.00010000                0.32836793                0.53906577               -1.69022467               -2.10606076               53.37587363              -12.66787625
              55.15165932               13.31551134               85.42392170                0.00010000                0.87888790                1.64301474               -4.02196810               -3.97492813              104.83360617              -19.78260656
              56.16180436                9.48764560               84.64218958                0.00010000                1.32104652                2.48496747               -6.68318561               -3.88725672               99.94171720              -26.68146036
              57.17808025                5.65570091               83.80280451                0.00010000                2.10041305                3.35565083               -9.85418120               -3.54547570               91.74534022              -34.29899115
              58.20381262                1.82200600               82.87645203                0.00010000                3.20453160                4.36110487              -13.60375501               -3.13211978               80.88041856              -43.09852443
              59.24217088               -2.01246028               81.83813942                0.00010000                4.61207614                5.47364164              -17.88457356               -2.71133259               67.82599838              -53.47297426
              60.29605414               -5.84741047               80.66503938                0.00010000                6.25067383                6.65765679              -22.54174296               -2.25981929               52.87211676              -65.93842825
              61.36718435               -9.68244470               79.33565120                0.00010000                7.97203530                7.87007440              -27.32562595               -1.70760453               36.28160437              -81.25353401
              62.45549485              -13.51667559               77.83110416                0.00010000                9.58852526                9.04790351              -31.91611105               -0.97354263               18.46699334             -100.46413716
              63.55895486              -17.34849681               76.13833868                0.45694619               10.34600120               10.08548383              -35.96503857               -0.22023056                9.66817374             -124.56825584
              56.91494697               21.90643965               87.72169330                0.46169619                0.08423268               -0.63201237                1.91798954               -0.11132382                0.25968018               16.21521934
              57.91578929               18.14267220               85.75346388                0.00010000                0.80541511                0.80047747               -2.46829517               -2.20602977               64.53155305              -13.26587016
              58.93105527               14.33355630               85.07120815                0.00010000                1.65618472                1.83915515               -4.97162970               -3.97669711              126.57388487              -16.02857314
              59.94891299               10.51400040               84.36265204                0.00010000                2.06974341                2.61335358               -7.75062827               -3.58373088              120.60561709              -19.60065186
              60.97245014                6.69110563               83.58501476                0.00010000                2.74245543                3.64731754              -11.05675337               -3.00216738              110.87822405              -24.37481426
              62.00376210                2.86823609               82.70759630                0.00010000                3.71669346                4.82090246              -14.97966339               -2.47649543               98.41784449              -30.26606004
              63.04678401               -0.95432377               81.70359078                0.00010000                5.06870178                6.08811075              -19.47300642               -2.05136406               83.55529802              -37.45354186
              64.10513613               -4.77667805               80.54604703                0.00010000                6.71374319                7.40889620              -24.37018064               -1.65322948               66.26700136              -46.37229013
              65.18105887               -8.59889431               79.20562416                0.00010000                8.47858805                8.74038169              -29.40205478               -1.20791056               46.36147443              -57.83815562
              66.27470789              -12.42073271               77.65048877                0.00010000               10.14778945               10.02394389              -34.22346866               -0.66013358               23.97863682              -73.49473577
              67.38401466              -16.24166627               75.85453943                0.45726572               10.93067661               11.15646498              -38.46238569               -0.08297980               12.61858436              -95.91899994
              60.67040037               22.90047496               87.43640549                0.46072742                0.25889818               -0.54102454                1.57404722               -0.11101459               -0.33495580               13.96510009
              61.67298936               19.15199827               85.31595535                0.00010000                1.51983989                1.05247888               -3.28408364               -2.48522322               78.04522867              -12.28182369
              62.70079717               15.35229444               84.76391139                0.00010000                2.97955257                1.36140122               -5.82088756               -3.16863313              152.53588053               -9.53673392
              63.73258041               11.53991267               84.16183489                0.00010000                3.15020197                2.53886549               -8.63901965               -2.49689167              143.93264807              -10.57462583
              64.76380121                7.72864726               83.47333160                0.00010000                3.35658496                3.82185844              -12.03131145               -1.83327198              132.44074456              -12.77556083
              65.79971211                3.91842405               82.67416502                0.00010000                4.11282639                5.17826705              -16.09164059               -1.43694393              118.67531982              -15.69762166
              66.84605774                0.10930193               81.73758688                0.00010000                5.39239957                6.57905125              -20.76240384               -1.15155849              102.47027035              -19.37279023
              67.90756010               -3.69923254               80.63383343                0.00010000                7.05115324                8.00271291              -25.85991824               -0.90686408               83.42565765              -24.05244868
              68.98708080               -7.50763706               79.32650646                0.00010000                8.87520160                9.41401720              -31.09371770               -0.64197053               60.52041340              -30.29986483
              70.08506413              -11.31619671               77.76471369                0.00010000               10.60407837               10.75953560              -36.08965534               -0.33162963               32.31062266              -39.45104133
              71.19916237              -15.12536751               75.88395238                0.45766246               11.40982414               11.97476196              -40.43346598                0.05838120               17.14114990              -56.61889869
              64.40968005               23.89561916               87.10802139                0.73041743                0.45853026               -0.48558028                1.08611551                0.73822949                6.24995912               11.75596253
              65.41426535               20.16372178               84.90723846                0.44948151                3.50440804                1.17235044               -4.02095033               -2.61414241               97.77081989              -10.87210955
              66.47976821               16.36078432               84.53798765                0.44081584                5.41784922                0.84898804               -6.39995074               -2.05009969              181.04604710               -4.77317365
              67.52262233               12.56477771               84.05683770                0.43943259                3.87525574                2.48650385               -9.20273074               -0.65788342              168.50546606               -5.27393304
              68.55727332                8.76754280               83.48147363                0.43891329                3.58731081                3.88955364              -12.66355892               -0.30160290              156.09708122               -6.31863263
              69.59436855                4.97180143               82.79002890                0.43895201                4.20680546                5.33773810              -16.85185982               -0.04863260              141.68995867               -7.77270554
              70.64140943                1.17725726               81.95680289                0.44048249                5.47846475                6.79553278              -21.68604830                0.11390807              124.96799098               -9.60253504
              71.70393785               -2.61662379               80.95155171                0.44334204                7.18870990                8.26087502              -26.95899358                0.24421342              105.33562392              -11.95406621
              72.78518363               -6.41061397               79.73521130                0.44728202                9.09339518                9.70230948              -32.35842427                0.36437230               81.43703648              -15.18201737
              73.88580575              -10.20554200               78.25009997                0.45299387               10.91701246               11.06547127              -37.49098004                0.49630899               48.71981998              -20.02373533
              75.00352388              -14.00217103               76.36746599                0.72907137               11.77181303               12.31964836              -41.89377182                0.77324816               29.76867252              -32.90090503
              27.32678476               14.43042939               91.10789844                0.73538262               -1.21170838               -1.33871844                4.65296790               -0.36701088               -7.05415975                7.51130169
              28.31466767               10.45602585               90.17918336                0.45855977               -1.21320777               -0.80282198                3.10920572               -0.49912134               -8.99270996               -6.12370348
              29.30252060                6.47380701               89.20982482                0.44669318               -0.97173662               -0.44562553                1.77000295               -0.34611547               -8.42235448                0.16909153
              30.29523294                2.48087325               88.28770519                0.44208889               -0.44437114               -0.00867754                0.44992168               -0.34705040               -5.69909567               -0.32076038
              31.29363318               -1.51922874               87.36880190                0.43965343                0.12850552                0.43368840               -0.88491592               -0.34330245               -5.28264426               -0.20564287
              32.29780305               -5.52306866               86.45250648                0.43925416                0.70055846                0.88733759               -2.23954340               -0.34047306               -5.20990041               -0.15224334
              33.30764435               -9.52750664               85.53436120                0.44169551                1.25262764                1.34341146               -3.62672397               -0.33532711               -5.66247794               -0.08333283
              34.32285560              -13.53034547               84.61010050                0.44591533                1.76173223                1.79957340               -5.04760652               -0.32623660               -6.61722798               -0.03141011
              35.34287899              -17.53080593               83.67558727                0.45296412                2.18942449                2.25075390               -6.49625662               -0.31610944               -8.31233572               -0.03860928
              36.36664409              -21.53011696               82.72149840                0.46380343                2.51669340                2.69104300               -7.93311742               -0.29349696               -8.93021710                0.69495110
              37.39321286              -25.53209833               81.77984517                0.73654845                2.65687668                3.15476828               -9.41685474                0.07692393               -8.62131384               -5.41125410
              31.29751819               15.41704221               90.73827374                0.46540499               -0.95305374               -1.28607010                4.05410822               -0.16672935                6.21634908               12.58009846
              32.28798765               11.44799763               89.80759697                0.00010000               -0.54412187               -0.64824177                2.51656842               -0.47653111               14.08914323              -11.29136974
              33.28663575                7.46935076               89.03333450                0.00010000                0.01463324               -0.69478341                1.23526244               -1.18947528               20.52152761              -15.22744848
              34.28828031                3.48078648               88.23438663                0.00010000                0.27676805               -0.29801851               -0.23569246               -1.79762441               19.40433727              -22.54391671
              35.29217111               -0.51489186               87.44137397                0.00010000                0.51284784                0.18028991               -1.77963635               -2.21883423               19.53327209              -30.74040917
              36.29853727               -4.51419528               86.64818720                0.00010000                0.78791873                0.64879497               -3.38525795               -2.38609146               19.28053271              -39.93456979
              37.30792948               -8.51407252               85.85248563                0.00010000                1.13528067                1.04222653               -5.02597751               -2.25160817               18.77397036              -50.28533685
              38.32124288              -12.51234974               85.05076829                0.00010000                1.58370787                1.32181548               -6.68809014               -1.78636590               17.93424213              -61.95772957
              39.33960364              -16.50829839               84.23942670                0.00010000                2.15562199                1.46549329               -8.34860183               -0.99702869               16.87987763              -75.13786568
              40.36435532              -20.50320653               83.41766816                0.00010000                2.81799123                1.50571826               -9.98212916                0.09804682               13.60858781              -90.06110545
              41.39596347              -24.50055065               82.54210221                0.46232520                3.16081428                1.26393707              -11.49684683                1.90457263               10.84112065             -109.84858035
              35.26153932               16.40470799               90.46790949                0.45987899               -0.87108169               -1.10962250                3.72944641               -0.07068602               -0.58304388               16.43236580
              36.25282850               12.44306102               89.33183790                0.00010000               -0.77985306               -0.47436161                1.85503061               -1.02125959               17.09690742              -14.55628364
              37.24594226                8.45991135               88.54822498                0.00010000               -0.46527164               -0.59054424                0.65578206               -2.47142486               33.50132517              -29.44017514
              38.24352307                4.47491288               87.73652553                0.00010000               -0.08520008               -0.25539382               -0.85509161               -3.17397844               30.86289445              -44.01801557
              39.24423825                0.48437706               86.90376637                0.00010000                0.28694120                0.26668584               -2.69670427               -3.88754246               28.40101730              -60.29817303
              40.24926189               -3.51009276               86.04940127                0.00010000                0.82641939                0.78266989               -4.84234185               -4.23327080               25.62445896              -78.44916424
              41.26076664               -7.50666211               85.16835769                0.00010000                1.60461311                1.17632374               -7.24752403               -4.08925569               22.36896072              -98.84706595
              42.28135415              -11.50390917               84.25533495                0.00010000                2.65142843                1.36813531               -9.83682762               -3.40366936               18.64223969             -121.80391821
              43.31379521              -15.50149606               83.30425257                0.00010000                3.97515660                1.32745537              -12.50078760               -2.18279192               14.12723382             -147.61914089
              44.36085729              -19.50000260               82.30232953                0.00010000                5.60986652                1.06482501              -15.06840162               -0.79658793                7.72813136             -176.80002477
              45.42599254              -23.50681959               81.21998155                0.45172188                6.51352555                0.82970288              -17.32530237                0.97612831                4.28071931             -207.82087873
              39.21939841               17.39484976               90.16963907                0.45924821               -0.70393075               -0.91758280                3.37810858               -0.09311544                0.03338243               15.75917856
              40.21235910               13.43851040               88.89804352                0.00010000               -0.70215089               -0.38990952                1.21665353               -1.16606504               22.82592720              -12.62223943
              41.20535539                9.45753987               88.08147684                0.00010000               -0.60120343               -0.02917974               -0.00818987               -2.38747260               44.77583198              -27.73769650
              42.20033503                5.47567860               87.24541175                0.00010000               -0.29647444                0.37712236               -1.65703640               -2.72951142               42.01419388              -42.52330105
              43.19942590                1.49044186               86.37710805                0.00010000                0.22879948                0.93371666               -3.79875418               -3.15936445               37.98570351              -58.16779914
              44.20491102               -2.49854189               85.46863900                0.00010000                1.02674368                1.52523784               -6.42683187               -3.38962088               33.08923304              -75.41441823
              45.21996078               -6.49054605               84.51217932                0.00010000                2.15462156                2.05450632               -9.47930200               -3.28620918               27.47034926              -94.70601646
              46.24800345              -10.48498703               83.50017099                0.00010000                3.60402299                2.45203097              -12.83687959               -2.82527451               21.24903576             -116.38643894
              47.29204124              -14.48174928               82.42495976                0.00010000                5.28718178                2.69582126              -16.31018698               -2.09760120               14.45260953             -140.66760309
              48.35374709              -18.48191003               81.27750722                0.00010000                6.85393890                2.84244187              -19.63363313               -1.17145096                7.25457110             -167.33426712
              49.42912001              -22.48395659               80.05187718                0.45198213                7.53729250                3.41070006              -22.44262012               -0.22719556                3.96093727             -195.13588935
              43.17235572               18.38635633               89.88091187                0.45956056               -0.55386365               -0.81108761                3.09544599               -0.09882557                0.01018667               16.59574982
              44.16681708               14.43526283               88.46393976                0.00010000               -0.56655558               -0.22399363                0.51652015               -1.18998232               29.23211814              -12.65767595
              45.16102461               10.45932775               87.63081827                0.00010000               -0.53931155                0.36354567               -0.77287149               -2.32777514               57.35084276              -26.32634821
              46.15603085                6.48245533               86.77487671                0.00010000               -0.28765786                0.93823485               -2.59666154               -2.43519268               53.93360473              -40.10523151
              47.15527145                2.50305139               85.87870907                0.00010000                0.32132666                1.57771824               -5.03333628               -2.64065534               48.68401775              -54.58538595
              48.16245738               -1.47958800               84.92757221                0.00010000                1.31080783                2.26979404               -8.08792746               -2.75984573               42.00942779              -70.43557682
              49.18148761               -5.46557198               83.90939507                0.00010000                2.67972567                2.95826847              -11.68782732               -2.69381231               34.29533064              -88.18129143
              50.21605190               -9.45486855               82.81415682                0.00010000                4.36392885                3.59896337              -15.67985702               -2.42424130               25.88198501             -108.20972357
              51.26876618              -13.44757964               81.63383368                0.00010000                6.17918366                4.18615491              -19.82252855               -1.96171070               17.12022693             -130.74095823
              52.33963557              -17.44315376               80.36317040                0.00010000                7.83877794                4.81886198              -23.77944853               -1.24295648                8.39809897             -155.72803614
              53.42554174              -21.43860559               79.00098530                0.45253192                8.59061715                5.55546995              -27.13832900               -0.25707110                4.49877245             -183.02528330
              47.11960891               19.37862800               89.59566505                0.45871786               -0.40208712               -0.75506362                2.83046753               -0.10650921                0.08534092               17.00003249
              48.11558804               15.43403053               88.03176602                0.00010000               -0.40007597               -0.00128878               -0.20063059               -1.18626389               36.46744107              -12.65489447
              49.11160739               11.46481079               87.19520515                0.00010000               -0.38402496                0.74061547               -1.62732702               -2.27002200               71.50326804              -24.82048285
              50.10790754                7.49444330               86.33384878                0.00010000               -0.14756310                1.45230980               -3.64358058               -2.26267283               67.43890808              -36.89556687
              51.10865613                3.52199623               85.42421191                0.00010000                0.52149718                2.20370428               -6.35743583               -2.31049522               60.99973703              -49.59809418
              52.11833748               -0.45314601               84.44635926                0.00010000                1.63544723                3.01910093               -9.78370274               -2.32750332               52.68263071              -63.56047192
              53.14136507               -4.43138068               83.38386813                0.00010000                3.15944015                3.88311150              -13.84444894               -2.25740855               42.98916436              -79.33141067
              54.18152628               -8.41300777               82.22370156                0.00010000                4.98635819                4.77043939              -18.36411091               -2.06963347               32.41061245              -97.36881384
              55.24109223              -12.39802618               80.95632985                0.00010000                6.91938110                5.67927814              -23.06472218               -1.72004796               21.43558305             -118.04000878
              56.31991391              -16.38553279               79.57632401                0.00010000                8.68950047                6.61759509              -27.57134115               -1.08329573               10.54574723             -141.62088087
              57.41488224              -20.37284719               78.08307723                0.45305813                9.49683383                7.53316568              -31.43928422               -0.21227084                5.59965119             -168.30095747
              51.05942049               20.37125506               89.31248458                0.45873476               -0.25114641               -0.72330323                2.57358383               -0.10408794                0.10518337               17.13393243
              52.05690902               16.43523705               87.59939914                0.00010000               -0.21045425                0.24989650               -0.93023629               -1.20671846               44.72165611              -12.78733007
              53.05521140               12.47414006               86.77860608                0.00010000               -0.16585331                1.13578229               -2.54388049               -2.27711739               87.71257046              -22.88702814
              54.05359196                8.51150152               85.93150630                0.00010000                0.07197229                1.95581698               -4.76078219               -2.19618949               82.99038218              -32.72764646
              55.05665085                4.54712548               85.02856217                0.00010000                0.78461342                2.80990469               -7.72478698               -2.11944492               75.35183222              -43.12105012
              56.06928422                0.58079401               84.04464971                0.00010000                1.97751752                3.75502811              -11.46884627               -2.02791578               65.39830177              -54.72817461
              57.09620120               -3.38790975               82.95907273                0.00010000                3.60102548                4.79290673              -15.91511564               -1.91151937               53.71348047              -68.08782099
              58.14130473               -7.35945976               81.75505189                0.00010000                5.53445261                5.90088902              -20.87259125               -1.73564356               40.83191600              -83.72369230
              59.20689025              -11.33399408               80.41959432                0.00010000                7.57429632                7.05646674              -26.03738928               -1.42947853               27.27030023             -102.19899726
              60.29279066              -15.31080186               78.94417893                0.00010000                9.45174349                8.22829799              -31.00533996               -0.88582463               13.55267878             -124.09119455
              61.39592512              -19.28794227               77.32580739                0.45315369               10.31344591                9.34142677              -35.30763641               -0.12844684                7.16067066             -149.89451811
              54.98956317               21.36416194               89.02843699                0.45792730               -0.09944984               -0.68905055                2.31877125               -0.09648352                0.17160320               16.97336756
              55.98856867               17.43902846               87.16570834                0.00010000                0.01187019                0.50754781               -1.67148646               -1.26130277               54.30173827              -13.04049830
              56.98980057               13.48752643               86.38585208                0.00010000                0.12148312                1.53978350               -3.49288165               -2.34425830              106.48309094              -20.35138574
              57.99099833                9.53355964               85.57853825                0.00010000                0.35870835                2.42582169               -5.89707154               -2.20136406              101.01217466              -27.31681741
              58.99697474                5.57819432               84.70733902                0.00010000                1.09080322                3.36614942               -9.07451110               -1.98064776               92.06265359              -34.97132975
              60.01281439                1.62195456               83.74228651                0.00010000                2.32068597                4.44505174              -13.08424998               -1.76983758               80.42347121              -43.83878229
              61.04338846               -2.33552254               82.65899098                0.00010000                4.00416712                5.64492942              -17.85167874               -1.59241963               66.72482750              -54.34689853
              62.09289774               -6.29498999               81.43641978                0.00010000                6.02281538                6.93384769              -23.17259737               -1.40848091               51.40084382              -67.02779623
              63.16384476              -10.25689685               80.05594952                0.00010000                8.16239363                8.27496351              -28.71851443               -1.13703158               34.84141040              -82.64180770
              64.25614561              -14.22096683               78.50243627                0.00010000               10.13746865                9.62075635              -34.05567511               -0.68796691               17.54408026             -102.22333197
              65.36659414              -18.18601865               76.76695054                0.45361712               11.04485270               10.89814698              -38.68962904               -0.04358477                9.25116888             -126.75328670
              58.90775778               22.35747405               88.74146657                0.45755756                0.05606961               -0.64313344                2.03855105               -0.09924497                0.27487700               16.75192941
              59.90831847               18.44538801               86.72902413                0.00010000                0.30186408                0.76529407               -2.41632026               -1.35965981               65.60076547              -13.66457246
              60.91379506               14.50493573               86.02367474                0.00010000                0.52891570                1.87577520               -4.43106014               -2.43084508              128.46418597              -16.60728652
              61.91889679               10.56001796               85.28824489                0.00010000                0.74239555                2.75970274               -6.97588197               -2.11528238              121.86558703              -20.20642398
              62.92864297                6.61444847               84.47729017                0.00010000                1.43537751                3.83101090              -10.32095297               -1.73102170              111.29093386              -24.97106316
              63.94760434                2.66969505               83.55922314                0.00010000                2.63271889                5.05483197              -14.55051691               -1.42523338               97.96624963              -30.87650430
              64.98129735               -1.27501116               82.50783806                0.00010000                4.34525415                6.40130618              -19.58984154               -1.22202286               82.39080200              -38.12861797
              66.03450942               -5.22078280               81.29811810                0.00010000                6.44145578                7.83266874              -25.21827889               -1.05368807               64.69453592              -47.17468039
              67.11012646               -9.16849481               79.90383601                0.00010000                8.68218521                9.30480725              -31.07903862               -0.83601609               44.81925290              -58.82844338
              68.20815312              -13.11838673               78.29719733                0.00010000               10.75153014               10.76521053              -36.69991635               -0.49159346               22.99145356              -74.71204058
              69.32515707              -17.06997933               76.45653165                0.45415219               11.70039411               12.14332970              -41.54899825                0.04270707               12.16883821              -97.35959385
              62.81175035               23.35129927               88.45303612                0.45695617                0.21634417               -0.57773942                1.75194833               -0.10663230               -0.34683815               14.42022240
              63.81391379               19.45433434               86.28348943                0.00010000                0.74016852                1.01547011               -3.19487995               -1.55161933               79.30810220              -12.65915903
              64.82655372               15.52504194               85.70792953                0.00010000                1.26330777                1.79195426               -5.26604992               -1.98172094              154.72962137               -9.96892067
              65.83917995               11.58875369               85.07846830                0.00010000                1.30617454                2.93676793               -7.87437124               -1.54295406              145.34309141              -10.97812911
              66.85267721                7.65481454               84.35560342                0.00010000                1.72947049                4.19376965              -11.34466236               -1.10601673              132.86218830              -13.14911665
              67.87376936                3.72305120               83.51416050                0.00010000                2.83743208                5.56496661              -15.76652430               -0.85953596              118.12181412              -16.05761367
              68.90942585               -0.20749642               82.52811832                0.00010000                4.57691310                7.03162544              -21.05100513               -0.71452219              101.13207578              -19.75014710
              69.96530762               -4.13833661               81.36984610                0.00010000                6.76512580                8.56688432              -26.95442414               -0.61097464               81.64826018              -24.48413054
              71.04472837               -8.07080071               80.00631548                0.00010000                9.12453245               10.12619472              -33.08938925               -0.48353199               58.78679746              -30.82064519
              72.14779827              -12.00566262               78.39104529                0.00010000               11.29525567               11.64740156              -38.93650660               -0.27776683               31.20247456              -40.07759674
              73.27063348              -15.94315206               76.46453195                0.45424443               12.28352145               13.07095670              -43.88923371                0.14185898               16.62932466              -57.29829473
              66.69955499               24.34591926               88.12001793                0.72814961                0.39884282               -0.53800096                1.31251884                0.75827921                6.44876405               12.13635994
              67.70354342               20.46569741               85.86758771                0.44754110                2.00931490                1.13630702               -3.88280675               -1.29425934               99.44928626              -11.21710472
              68.73974129               16.54077482               85.47644613                0.44032764                2.73608421                1.57328786               -5.78812508               -1.02844770              183.51950763               -5.02227446
              69.75826511               12.61875332               84.96794265                0.43916370                1.62419193                2.99996257               -8.40552730               -0.21403197              169.92610347               -5.52155743
              70.77222513                8.69832386               84.35728997                0.43871600                1.72297364                4.35093212              -11.99643513                0.06684514              156.35350769               -6.54800419
              71.79272458                4.78099438               83.62195519                0.43919025                2.80847913                5.79431855              -16.61910532                0.26039646              140.85839173               -7.98499223
              72.82839471                0.86562135               82.73724002                0.44034866                4.64348170                7.31177672              -22.15260794                0.37491098              123.29551453               -9.80390363
              73.88559421               -3.04944512               81.67530026                0.44217853                6.96935607                8.88914943              -28.32289452                0.44904649              103.21773724              -12.15479151
              74.96778183               -6.96597091               80.40069249                0.44552220                9.46774653               10.48297941              -34.71377477                0.50566738               79.39822427              -15.39217123
              76.07494914              -10.88543870               78.86037882                0.45024379               11.75956441               12.02239224              -40.77768156                0.58562315               47.39757481              -20.24574966
              77.20297312              -14.80856020               76.93131402                0.72729375               12.80239789               13.45918610              -45.80984790                0.92181404               29.11865577              -33.06272383
              28.19247123               14.87840846               92.15290692                0.73254283               -1.11155344               -1.22840741                4.32589912               -0.33794160               -7.08165447                7.53758593
              29.18135570               10.76903821               91.20924744                0.45479002               -1.02204740               -0.76070931                2.88913280               -0.37628100               -8.89418535               -6.17218197
              30.17203028                6.65466817               90.22716653                0.44512303               -0.71732737               -0.40758834                1.69450513               -0.31798791               -8.11393590                0.17137187
              31.16700915                2.53434503               89.29251714                0.44127493               -0.26274484               -0.00285017                0.51572988               -0.33601918               -5.33136299               -0.32960388
              32.16677539               -1.58944933               88.36100060                0.43901399                0.21541993                0.40930618               -0.66554279               -0.34301643               -4.90358509               -0.20946487
              33.17131755               -5.71463487               87.43189438                0.43904073                0.69003495                0.82780471               -1.86531360               -0.34325616               -4.85332929               -0.15387785
              34.18057608               -9.83959544               86.50063049                0.44091771                1.15076387                1.25265520               -3.09475840               -0.33377518               -5.35256658               -0.09427155
              35.19433282              -13.96327566               85.56289320                0.44464693                1.57963856                1.67133544               -4.35946967               -0.32076229               -6.36267797               -0.04380114
              36.21216886              -18.08597819               84.61458101                0.45032834                1.94162140                2.09255418               -5.65311522               -0.30717293               -8.09637069               -0.06145640
              37.23316525              -22.20944046               83.64689459                0.45916714                2.21301483                2.49924744               -6.92989499               -0.27891504               -8.76456613                0.64478791
              38.25642915              -26.33782994               82.69113391                0.73324228                2.32638997                2.92137097               -8.27338448                0.22445946               -8.51311161               -5.32798263
              32.29846207               15.86612439               91.77747604                0.46008575               -0.89990333               -1.07507570                3.76860693               -0.05229713                6.27803418               12.75388343
              33.28946303               11.76143111               90.83189511                0.00010000               -0.61325379               -0.71781397                2.33379978               -0.20881294               14.26875544              -11.37055892
              34.28619699                7.65059228               90.04508120                0.00010000               -0.18776641               -0.49401105                1.10265540               -0.54629082               20.63143993              -15.16263234
              35.28570770                3.53431653               89.23165319                0.00010000                0.08190907               -0.04969398               -0.31577239               -0.95344787               19.32532849              -22.39069539
              36.28783517               -0.58535627               88.42343491                0.00010000                0.36251686                0.40250310               -1.81544651               -1.32187874               19.36500967              -30.59975246
              37.29295804               -4.70635682               87.61449076                0.00010000                0.68617784                0.79421834               -3.36398362               -1.54881439               19.04834211              -39.93698813
              38.30155873               -8.82706889               86.80258189                0.00010000                1.06792680                1.07957254               -4.96024976               -1.53958036               18.50677579              -50.56351849
              39.31431658              -12.94656230               85.98458206                0.00010000                1.53103990                1.21526690               -6.54644717               -1.21221471               17.65515598              -62.62584542
              40.33217953              -17.06505265               85.15682918                0.00010000                2.09926983                1.18150784               -8.15013404               -0.51577761               16.61761011              -76.25923406
              41.35630197              -21.18444798               84.31907940                0.00010000                2.74418503                0.98321911               -9.71770307                0.60236925               13.42630667              -91.62655326
              42.38706323              -25.30861623               83.42886559                0.45744062                3.07612528                0.24351811              -11.13334464                2.80866978               10.71689786             -111.67823741
              36.40081183               16.85690695               91.50395012                0.45543295               -0.81002890               -0.81405904                3.47667616               -0.04461248               -0.65339339               16.82498832
              37.39271154               12.75468193               90.34975835                0.00010000               -0.62963902               -0.65600642                1.72605412               -0.30766323               17.40866894              -14.74292933
              38.38821905                8.64478794               89.55548066                0.00010000               -0.44113993               -0.41887263                0.83229725               -0.83307038               34.14211414              -29.23170093
              39.38388874                4.53335115               88.72945875                0.00010000               -0.36039430                0.06581845               -0.49847039               -1.38289824               31.12113081              -43.64566820
              40.38101116                0.41860073               87.87858824                0.00010000               -0.09174300                0.59704424               -2.26779996               -2.04617812               28.23954241              -59.97973312
              41.38205388               -3.69875050               87.00262115                0.00010000                0.44893993                1.03740428               -4.44182035               -2.51763805               25.07207241              -78.43092633
              42.38998996               -7.81800399               86.09701065                0.00010000                1.30092055                1.29099341               -6.96113256               -2.61823114               21.49037314              -99.37562829
              43.40807229              -11.93897032               85.15724448                0.00010000                2.48745110                1.28043359               -9.74532783               -2.21741207               17.55044961             -123.10317108
              44.43973898              -16.06234804               84.17849193                0.00010000                4.03519605                0.95703890              -12.65538386               -1.24337870               13.01508992             -149.82849651
              45.48877621              -20.18977608               83.14986815                0.00010000                6.06000271                0.26745675              -15.47618492               -0.16376516                6.91322560             -179.95215700
              46.56093904              -24.33295958               82.04438843                0.44914005                7.21628239               -0.62086858              -17.89298949                1.64428794                3.94404649             -211.98698321
              40.50201985               17.84984320               91.20251678                0.45547070               -0.65910822               -0.67768619                3.18397330               -0.08202950                0.00273264               16.23635273
              41.49542877               13.74831099               89.90974316                0.00010000               -0.55767469               -0.54727720                1.11973206               -0.16548788               23.35420886              -12.89231510
              42.49086636                9.64221483               89.08302192                0.00010000               -0.55959082               -0.12389481                0.38370059               -0.41540941               45.78143206              -27.65523444
              43.48423695                5.53563290               88.23164623                0.00010000               -0.59265467                0.40061506               -0.98882460               -0.71758608               42.53644994              -42.30053200
              44.47901326                1.42658462               87.34226382                0.00010000               -0.25134740                1.00903036               -3.04605695               -1.14416740               37.91400432              -58.00419906
              45.47921000               -2.68560873               86.40707501                0.00010000                0.52003310                1.59565982               -5.76425495               -1.47109312               32.42267312              -75.51364130
              46.48941393               -6.80124902               85.41895579                0.00010000                1.75511889                2.06812520               -9.06603434               -1.56630971               26.29562479              -95.27710835
              47.51431238              -10.92095363               84.37167102                0.00010000                3.43518911                2.35495064              -12.80933944               -1.37431925               19.75448388             -117.62164687
              48.55811771              -15.04591187               83.25968000                0.00010000                5.46629139                2.41342767              -16.76214349               -0.98730173               12.95918742             -142.72229381
              49.62363821              -19.17909885               82.07699172                0.00010000                7.40991391                2.27532531              -20.57455365               -0.52962144                6.25708957             -170.33740945
              50.70631599              -23.32103360               80.82195095                0.44925779                8.26777761                2.60562247              -23.73621151                0.11524723                3.51594467             -199.19041453
              44.60223568               18.84335322               90.91118398                0.45510330               -0.52055185               -0.64749931                2.95661625               -0.08829612               -0.00249903               17.14841958
              45.59703016               14.74373638               89.46881360                0.00010000               -0.48233650               -0.33456287                0.45232789               -0.04168054               29.97793104              -13.00810354
              46.59258895               10.64231005               88.62535716                0.00010000               -0.59314622                0.16292585               -0.23186588               -0.09265574               58.72339859              -26.41745741
              47.58516723                6.54136346               87.75262308                0.00010000               -0.66097477                0.76445875               -1.71595880               -0.19912153               54.71126054              -40.08356113
              48.57936945                2.43878134               86.83242166                0.00010000               -0.23507874                1.46007876               -4.06581465               -0.44687374               48.74983269              -54.60960565
              49.58046566               -1.66683730               85.85004016                0.00010000                0.73196073                2.19289284               -7.26575232               -0.68620585               41.35453226              -70.67355465
              50.59400866               -5.77664149               84.79424316                0.00010000                2.23915510                2.89374362              -11.22179987               -0.83213844               33.02493766              -88.80834352
              51.62524876               -9.89187131               83.65671374                0.00010000                4.20647501                3.51103684              -15.75008185               -0.86762435               24.23281884             -109.40144834
              52.67813817              -14.01407948               82.43213779                0.00010000                6.40283754                4.03624580              -20.55199585               -0.81413874               15.48576389             -132.66783630
              53.75330551              -18.14426957               81.11910652                0.00010000                8.44876599                4.59854990              -25.18861261               -0.63662511                7.32052842             -158.55305924
              54.84711348              -22.28084713               79.72125020                0.44945858                9.38079741                5.30270142              -29.09192135                0.07128780                4.00956322             -186.91257872
              48.69948760               19.83689322               90.62367196                0.45488234               -0.38492723               -0.65197046                2.77164935               -0.08399184                0.07793529               17.57891999
              49.69563833               15.74161973               89.02953304                0.00010000               -0.40507158               -0.07672110               -0.24766794                0.00841136               37.40928824              -13.03792179
              50.69138617               11.64547335               88.18164233                0.00010000               -0.59275498                0.49992289               -0.98412610                0.05341784               73.21482547              -25.08467427
              51.68378323                7.55092208               87.30169778                0.00010000               -0.65548117                1.18476013               -2.62836622                0.09224338               68.47119928              -37.09257209
              52.67827655                3.45578619               86.36520235                0.00010000               -0.14372585                1.98315831               -5.26523882               -0.02145578               61.23032459              -49.82590272
              53.68090871               -0.64175088               85.35215081                0.00010000                0.97643062                2.86802736               -8.88783637               -0.19636134               52.10472835              -63.94408304
              54.69780516               -4.74337415               84.24702826                0.00010000                2.67445889                3.79828077              -13.39329913               -0.37645342               41.72255014              -80.01608307
              55.73439789               -8.85073290               83.03875767                0.00010000                4.82140175                4.74240263              -18.56957057               -0.52983664               30.72193901              -98.51274121
              56.79423320              -12.96518696               81.72092810                0.00010000                7.16377294                5.70920356              -24.07338218               -0.61541580               19.75226640             -119.80756908
              57.87767335              -17.08712785               80.29238773                0.00010000                9.33318303                6.73213197              -29.41887036               -0.50654957                9.43964554             -144.17970388
              58.98089686              -21.21497957               78.75770700                0.44966921               10.32235054                7.78537537              -33.99821843                0.09581988                5.09130600             -171.81501332
              52.79110282               20.83031381               90.33815876                0.45438451               -0.24845619               -0.66463269                2.56503961               -0.08649909                0.12385124               17.71930073
              53.78861826               16.74220196               88.59007341                0.00010000               -0.33739314                0.19670205               -0.93889349               -0.03986800               45.83525169              -13.18632623
              54.78435496               12.65230851               87.75614325                0.00010000               -0.59595006                0.89708084               -1.83665257               -0.00191237               89.71293140              -23.30546421
              55.77669925                8.56505866               86.88848620                0.00010000               -0.63708334                1.68242947               -3.67216252                0.14568412               84.25924030              -33.12762245
              56.77161329                4.47844451               85.95608041                0.00010000               -0.05002411                2.58800598               -6.58004217                0.13865453               75.74576091              -43.53359504
              57.77569877                0.39052324               84.93356221                0.00010000                1.19241629                3.62038996              -10.56975996                0.03004960               64.90878761              -55.23454319
              58.79546161               -3.70067587               83.80115062                0.00010000                3.03830316                4.76052792              -15.53693239               -0.14087487               52.47179110              -68.80300073
              59.83646484               -7.79702326               82.54420332                0.00010000                5.33815951                5.98501492              -21.25004399               -0.32524782               39.12674434              -84.78246926
              60.90222480              -11.89989541               81.15313791                0.00010000                7.82511483                7.28322066              -27.33394606               -0.44203996               25.55605989             -103.74383247
              61.99296713              -16.00962693               79.62403997                0.00010000               10.12542600                8.64836127              -33.26666400               -0.37710650               12.42624330             -126.26196450
              63.10473332              -20.12513962               77.95936721                0.44993725               11.17661917               10.03463861              -38.40886998                0.15137271                6.63996992             -152.82123222
              56.87398132               21.82360056               90.05196496                0.45434790               -0.11350446               -0.67173537                2.37878924               -0.09335080                0.17313815               17.54569051
              57.87284628               17.74555377               88.14907044                0.00010000               -0.27450464                0.46988500               -1.64881745               -0.16037120               55.55489181              -13.44719694
              58.86849123               13.66341496               87.35406407                0.00010000               -0.61426813                1.35123076               -2.74538513               -0.21099167              108.73724398              -20.89185847
              59.86056091                9.58457067               86.52424815                0.00010000               -0.64530877                2.24416087               -4.78131252                0.00206959              102.48666515              -27.86634775
              60.85558505                5.50754631               85.62131429                0.00010000                0.00345847                3.24877312               -7.93216563                0.08817655               92.58863391              -35.50621283
              61.86063008                1.43065692               84.61476703                0.00010000                1.34745540                4.41543855              -12.23727729                0.05652612               79.98467446              -44.40512312
              62.88253416               -2.64816359               83.48110584                0.00010000                3.32411964                5.73262024              -17.59495571               -0.07230206               65.46574773              -55.03256986
              63.92711248               -6.73103260               82.20158743                0.00010000                5.77309552                7.17126372              -23.75662632               -0.23974432               49.63622777              -67.94091241
              64.99799607              -10.81952255               80.76128091                0.00010000                8.41314755                8.70331375              -30.31547643               -0.34940664               33.05901063              -83.89203236
              66.09537543              -14.91416063               79.14999066                0.00010000               10.84768081               10.30221929              -36.71058351               -0.29450295               16.37457362             -103.90337703
              67.21494969              -19.01428680               77.36454610                0.45045628               11.95742607               11.93500343              -42.26715171                0.18685548                8.70727864             -128.92981974
              60.94532939               22.81687911               89.76246432                0.45386145                0.02670414               -0.66362571                2.15080573               -0.09916063                0.28880257               17.29586371
              61.94559643               18.75159966               87.70513747                0.00010000               -0.21055828                0.73488722               -2.34604337               -0.30671311               66.99808575              -14.08011255
              62.94111823               14.67933312               86.98258695                0.00010000               -0.64935674                1.83648371               -3.66007881               -0.48691405              130.94768890              -17.19892819
              63.93260930               10.60994187               86.22313440                0.00010000               -0.69138313                2.80408335               -5.86121510               -0.23528613              123.51234510              -20.79395791
              64.92729056                6.54341997               85.37859570                0.00010000               -0.00350502                3.90594084               -9.21611343               -0.06710716              111.88251523              -25.51046487
              65.93253920                2.47883201               84.41658596                0.00010000                1.42072639                5.19414056              -13.79445714               -0.02200159               97.48871039              -31.39644710
              66.95570509               -1.58602347               83.31179395                0.00010000                3.52448527                6.65303110              -19.49347349               -0.09752495               81.01290975              -38.69383180
              68.00302890               -5.65359798               82.04168145                0.00010000                6.13298043                8.24676416              -26.04331396               -0.22950018               62.76871235              -47.86524767
              69.07836470               -9.72582914               80.58404339                0.00010000                8.94062122                9.93080470              -32.99908093               -0.31815365               42.88168223              -59.71947536
              70.18184133              -13.80358255               78.91649044                0.00010000               11.51790410               11.66152430              -39.74573816               -0.25443473               21.72563838              -75.84449668
              71.30872278              -17.88643955               77.02355947                0.45075382               12.68814541               13.40855087              -45.55492792                0.20559205               11.57413947              -98.70843368
              65.00255699               23.81032805               89.47144445                0.45358062                0.17010038               -0.62481763                1.91818508               -0.09833486               -0.36026101               14.87425033
              66.00425800               19.76025151               87.25205775                0.00010000               -0.10731296                0.97917374               -3.06881701               -0.44784868               80.88808064              -13.03893854
              67.00041074               15.70014464               86.65859039                0.00010000               -0.62448265                2.19862525               -4.46952611               -0.54569952              157.48901185              -10.42984294
              67.99176835               11.64065233               86.00434747                0.00010000               -0.75289820                3.27279919               -6.75936629               -0.33941232              147.10008071              -11.40069064
              68.98535277                7.58566513               85.24643835                0.00010000               -0.10674291                4.48948189              -10.28385386               -0.15361117              133.39435809              -13.51613281
              69.98963349                3.53453973               84.35883453                0.00010000                1.38304431                5.88401034              -15.11786162               -0.08604803              117.44986652              -16.38762432
              71.01301366               -0.51510297               83.31656677                0.00010000                3.63473283                7.44796245              -21.14121708               -0.11837430               99.47127393              -20.08218076
              72.06232814               -4.56609731               82.09474495                0.00010000                6.43019528                9.14850218              -28.05456128               -0.19961349               79.40201744              -24.86471119
              73.14161756               -8.62090645               80.66471867                0.00010000                9.42845012               10.93088541              -35.37179327               -0.25639860               56.55271701              -31.29101464
              74.25089715              -12.68093014               78.98598356                0.00010000               12.15789893               12.72292474              -42.40860485               -0.19574720               29.75034849              -40.64946506
              75.38477554              -16.74611578               77.00616770                0.45123426               13.38783956               14.47249504              -48.32217964                0.24662572               15.93711508              -57.86964186
              69.04351577               24.80438275               89.13427177                0.72659849                0.33071050               -0.59452981                1.53671188                0.77591581                6.65648968               12.50783530
              70.04682287               20.77118314               86.82958232                0.44553345                0.31438250                1.09316231               -3.69645285                0.20263116              101.45255815              -11.55410713
              71.04980342               16.72330563               86.42222514                0.43996458               -0.32611554                2.31609888               -4.91060760                0.15000435              186.55285482               -5.32916324
              72.04030056               12.67539786               85.88872716                0.43897263               -0.97362387                3.47455265               -7.23545988                0.34842062              171.62110147               -5.82111525
              73.03033094                8.63320961               85.24154493                0.43883043               -0.43571131                4.75444774              -10.94112770                0.55353504              156.59494319               -6.81386849
              74.03158634                4.59651222               84.45764679                0.43903803                1.18218558                6.19724885              -16.06171931                0.68159365              139.74815094               -8.21701776
              75.05397465                0.56293578               83.51375073                0.43968908                3.66268903                7.80387511              -22.43529911                0.73909156              121.12117951              -10.01043642
              76.10484012               -3.47062794               82.38509382                0.44168231                6.70474510                9.54693768              -29.72454138                0.74383668              100.44494883              -12.34800902
              77.18806955               -7.50721143               81.04093581                0.44404385                9.91477996               11.36950217              -37.40697920                0.72039346               76.67799134              -15.58130559
              78.30313572              -11.54912405               79.43454633                0.44802762               12.79785140               13.18060896              -44.75942797                0.73494591               45.59048253              -20.42597024
              79.44402658              -15.59698965               77.45126904                0.72564786               14.08908668               14.91261323              -50.77855101                1.13854405               28.18424718              -33.10056114
              29.07247062               15.33204287               93.19441643                0.72987406               -0.99462575               -1.09661910                3.96037470               -0.29858904               -7.08160684                7.53858652
              30.06252436               11.08728687               92.23696602                0.45089088               -0.77492166               -0.72113195                2.64647776               -0.20856459               -8.74761777               -6.19856169
              31.05697218                6.84140510               91.24371492                0.44332128               -0.38763738               -0.36211186                1.61377966               -0.31045982               -7.72530753                0.15901330
              32.05477161                2.59600909               90.29801978                0.44066364               -0.03939714                0.00218662                0.58801610               -0.31843172               -4.87074079               -0.34225651
              33.05618424               -1.64828666               89.35549105                0.43900104                0.31674809                0.38121108               -0.42498442               -0.32245416               -4.42271480               -0.21727940
              34.06110657               -5.89133897               88.41520021                0.43915926                0.67049772                0.76771516               -1.45220431               -0.32535499               -4.39784543               -0.14954581
              35.06959420              -10.13329488               87.47246603                0.43998474                1.02724748                1.15718224               -2.51363309               -0.32506135               -4.95027874               -0.10465211
              36.08165152              -14.37459921               86.52291110                0.44347745                1.36779999                1.53812870               -3.60612550               -0.31710698               -6.02116219               -0.04542906
              37.09695020              -18.61653140               85.56252496                0.44800119                1.65741724                1.91374019               -4.71973171               -0.29874984               -7.79055577               -0.07977935
              38.11479987              -22.86159083               84.58290050                0.45451626                1.87608901                2.28796631               -5.83253995               -0.27497961               -8.52617516                0.58830817
              39.13447198              -27.11412134               83.61437748                0.73035242                1.96721075                2.67514287               -7.03401851                0.37265412               -8.34944876               -5.20465203
              33.31424072               16.32107668               92.81364588                0.45557123               -0.84831239               -0.79379273                3.45209720                0.11910654                6.31299166               12.90582499
              34.30575760               12.08007555               91.85427296                0.00010000               -0.73671219               -0.84662449                2.13547196                0.18271440               14.38975394              -11.42222691
              35.29950648                7.83778398               91.05538761                0.00010000               -0.46622101               -0.20342453                0.95484440                0.40336745               20.65016220              -14.90162038
              36.29643318                3.59603096               90.22807118                0.00010000               -0.14363731                0.29986923               -0.41079507                0.29039750               19.13691156              -21.91073957
              37.29663373               -0.64447455               89.40506504                0.00010000                0.19619770                0.71200734               -1.85387054               -0.00051578               19.06637492              -30.05494606
              38.30035713               -4.88366182               88.58090753                0.00010000                0.56699850                1.00217154               -3.35401755               -0.30370705               18.68366486              -39.51393214
              39.30797370               -9.12172305               87.75328064                0.00010000                0.98707921                1.13731540               -4.88834304               -0.45997571               18.13073622              -50.45404008
              40.32009871              -13.35921792               86.91983935                0.00010000                1.47424023                1.07688327               -6.41066523               -0.32203035               17.28390286              -63.00013466
              41.33745850              -17.59739400               86.07642402                0.00010000                2.03731644                0.78072926               -7.91780336                0.25149482               16.24179169              -77.21940731
              42.36084504              -21.83871116               85.22331410                0.00010000                2.66352635                0.23163851               -9.42397221                1.42247575               13.15496592              -93.17538608
              43.39072903              -26.08736991               84.31943532                0.45350028                2.98839886               -1.27616325              -10.75923509                4.20217179               10.53649615             -113.58466706
              37.55685499               17.31616701               92.53744301                0.45193905               -0.73836516               -0.43668630                3.20195967               -0.04328389               -0.74016691               17.22045783
              38.54947134               13.07035438               91.36635898                0.00010000               -0.38854316               -0.92333546                1.58721393                0.71750720               17.81654221              -14.93671252
              39.54908413                8.83733661               90.56487093                0.00010000               -0.33166227               -0.16126501                1.09035680                1.56132917               34.99369885              -28.61780863
              40.54283810                4.60200648               89.72655612                0.00010000               -0.66087135                0.52363363               -0.00843321                1.20029130               31.49545909              -42.62413525
              41.53586670                0.36595348               88.85841037                0.00010000               -0.52785807                1.04995071               -1.68225246                0.61707279               28.10606622              -58.87395985
              42.53228093               -3.87129554               87.96056487                0.00010000                0.00420404                1.37140507               -3.87799144               -0.00933316               24.46077605              -77.59717591
              43.53595078               -8.11054857               87.02913504                0.00010000                0.93004622                1.42011634               -6.53080196               -0.42312179               20.45796876              -99.15962378
              44.55088186              -12.35306154               86.06042840                0.00010000                2.27612744                1.11643445               -9.55388099               -0.40490213               16.21014597             -123.83805287
              45.58147333              -16.60091681               85.05114489                0.00010000                4.11717201                0.37764913              -12.79941314                0.22746328               11.59734498             -151.73520033
              46.63322530              -20.85695806               83.99280583                0.00010000                6.71797894               -0.95927122              -15.98852940                0.85225463                5.83470843             -183.11071152
              47.71583291              -25.13964461               82.86212176                0.44631948                8.26076116               -2.86283676              -18.68044021                2.67091546                3.47966373             -216.54062051
              41.80500030               18.31234295               92.23331853                0.45132389               -0.60621583               -0.39987337                2.97100593               -0.06383549               -0.02874804               16.73564202
              42.79893814               14.06160884               90.92043816                0.00010000               -0.29596664               -0.75217499                1.01493169                1.24734572               24.10626489              -13.20148364
              43.79908097                9.83455868               90.08915085                0.00010000               -0.35580073               -0.24892098                0.92033828                2.37468757               47.23093721              -27.25517805
              44.79182213                5.60650363               89.22563526                0.00010000               -0.84018829                0.43630388               -0.08977230                2.11596222               43.36372367              -41.53398249
              45.78227720                1.37652446               88.31618691                0.00010000               -0.75748043                1.09836347               -2.02385620                1.71234877               38.01231421              -57.17596672
              46.77667252               -2.85623372               87.35335390                0.00010000               -0.04999675                1.65803249               -4.83033377                1.28002042               31.78945803              -74.91377767
              47.78127727               -7.09332073               86.33085863                0.00010000                1.28481986                2.03686192               -8.41941027                0.93532431               25.00866505              -95.20000067
              48.80236892              -11.33688923               85.24398420                0.00010000                3.23135075                2.15386902              -12.63958665                0.77057492               18.00765662             -118.34247091
              49.84590428              -15.58984101               84.08971689                0.00010000                5.71245063                1.93661739              -17.22423626                0.68039966               11.13038743             -144.47975736
              50.91661793              -19.85789659               82.86601615                0.00010000                8.18080799                1.36735486              -21.73293311                0.44613961                4.99548685             -173.34751834
              52.00952044              -24.14462665               81.57715295                0.44653482                9.29025127                1.35156969              -25.46772764                0.60763044                2.93833713             -203.65708985
              46.05704649               19.30816955               91.94004419                0.45105410               -0.48439706               -0.45556620                2.82352112               -0.06360791               -0.00617485               17.75068303
              47.05220252               15.05531088               90.47298632                0.00010000               -0.26816990               -0.47982788                0.37334029                1.55269683               31.04603980              -13.41674328
              48.05168310               10.83235819               89.62618096                0.00010000               -0.45054819               -0.11137353                0.49680034                3.00399287               60.71518215              -26.26752260
              49.04319156                6.61073255               88.74055754                0.00010000               -0.94160349                0.51125523               -0.54185880                2.87559710               55.93715854              -39.62821850
              50.03285103                2.38792075               87.79739278                0.00010000               -0.77325139                1.26474787               -2.76009030                2.58324717               49.10495681              -54.09014305
              51.02772653               -1.83813489               86.78225716                0.00010000                0.12308787                2.03420003               -6.10910956                2.21007642               40.82888727              -70.32951049
              52.03531278               -6.06981133               85.68495907                0.00010000                1.75435561                2.73554604              -10.47778409                1.80413369               31.71433467              -88.88400461
              53.06281364              -10.30998416               84.49915518                0.00010000                4.03879477                3.30685290              -15.66662621                1.36615875               22.38224643             -110.14549073
              54.11608868              -14.56218446               83.22279376                0.00010000                6.70600407                3.73316611              -21.33278198                0.84882101               13.55464734             -134.33198802
              55.19693373              -18.82961096               81.85939815                0.00010000                9.26784810                4.19181354              -26.92762711                0.24406188                6.00339466             -161.39467637
              56.30144564              -23.11261321               80.41914687                0.44663014               10.45119155                4.86810916              -31.69025497                0.52724369                3.39723075             -191.20774547
              50.30944547               20.30323163               91.65109804                0.45118108               -0.36420322               -0.54107313                2.70004089               -0.07084809                0.06466691               18.19710910
              51.30580343               16.05201229               90.02681266                0.00010000               -0.28531549               -0.16688805               -0.29308849                1.62633130               38.73893728              -13.47590452
              52.30373916               11.83233121               89.17552263                0.00010000               -0.60159634                0.16254241               -0.12637944                3.20452919               75.66908317              -25.17585500
              53.29377151                7.61672873               88.28128146                0.00010000               -1.04647832                0.78330738               -1.28070131                3.25681232               70.05013790              -36.96252212
              54.28280959                3.40181942               87.31890714                0.00010000               -0.75826879                1.62104408               -3.79480249                3.06802883               61.83529637              -49.63135892
              55.27860613               -0.81554972               86.26860253                0.00010000                0.31998117                2.58109081               -7.62431688                2.71170039               51.73138727              -63.86294433
              56.28920921               -5.03860981               85.11600214                0.00010000                2.17295481                3.58819913              -12.64663744                2.22403351               40.48103191              -80.24817097
              57.32206523               -9.27075218               83.85231015                0.00010000                4.66491421                4.60226270              -18.63062882                1.62354003               28.88641741              -99.27780100
              58.38250750              -13.51517769               82.47486221                0.00010000                7.49313435                5.64804635              -25.18292410                0.93889913               17.81359712             -121.34197914
              59.47192791              -17.77406032               80.98794661                0.00010000               10.17811631                6.79834423              -31.70297091                0.30328645                8.11814723             -146.73526076
              60.58606982              -22.04726446               79.40311286                0.44706022               11.41419094                8.07035994              -37.38594275                0.51080442                4.46921875             -175.64651659
              54.55806821               21.29734808               91.36378537                0.45047644               -0.24386466               -0.62307181                2.56223251               -0.06902145                0.14973215               18.32076850
              55.55562956               17.05197312               89.58062127                0.00010000               -0.35054890                0.15040832               -0.95329314                1.50124572               47.37759710              -13.62438984
              56.55105723               12.83560904               88.74187303                0.00010000               -0.83949832                0.54571771               -0.89217265                3.00270806               92.52051280              -23.61100502
              57.53883960                8.62639870               87.85806305                0.00010000               -1.22835889                1.24278755               -2.22657870                3.22212514               86.12750314              -33.30317958
              58.52649005                4.42034164               86.89696132                0.00010000               -0.82249160                2.18676770               -5.03400735                3.12535846               76.55992840              -43.64251301
              59.52238977                0.21348693               85.83325451                0.00010000                0.42529280                3.31890310               -9.28674159                2.78606070               64.66485568              -55.39199911
              60.53499591               -3.99804735               84.64833408                0.00010000                2.47312823                4.58962703              -14.85970195                2.26239810               51.29088060              -69.16407084
              61.57185233               -8.21793891               83.33005101                0.00010000                5.15894457                5.97329047              -21.50005027                1.61029028               37.30354984              -85.52982740
              62.63817480              -12.44922354               81.87291540                0.00010000                8.16169488                7.47673578              -28.77857684                0.92045444               23.60658108             -105.07556714
              63.73508623              -16.69364407               80.27884565                0.00010000               10.99476119                9.12877333              -36.05351298                0.32307527               11.09455000             -128.37888552
              64.85807003              -20.95120601               78.55762999                0.44756209               12.29837984               10.92285806              -42.48189695                0.52175625                6.00833793             -155.91291143
              58.79881496               22.29077019               91.07601278                0.45070060               -0.12475652               -0.67181286                2.41459079               -0.06900842                0.18098156               18.11425637
              59.79756739               18.05502045               89.13273199                0.00010000               -0.47236088                0.44126650               -1.60594040                1.25016854               57.24697588              -13.87269189
              60.78936774               13.84324557               88.33094438                0.00010000               -1.20429894                1.04109029               -1.74512540                2.51293556              111.81157892              -21.37609426
              61.77348141                9.64158448               87.48291200                0.00010000               -1.55696024                1.88203909               -3.29185803                2.83022722              104.57000543              -28.28990055
              62.75822853                5.44555477               86.54869571                0.00010000               -1.03825428                2.93867361               -6.37497593                2.77977566               93.53997014              -35.85173296
              63.75271633                1.25082834               85.49754097                0.00010000                0.38272376                4.21058429              -10.99882264                2.47092481               79.79117181              -44.73595813
              64.76588301               -2.94681727               84.30709186                0.00010000                2.63654482                5.68493092              -17.04171030                1.96747167               64.26087072              -55.46328871
              65.80544722               -7.15128637               82.96128725                0.00010000                5.53693705                7.33468177              -24.23098827                1.34780909               47.74202658              -68.61354012
              66.87662175              -11.36564298               81.44963999                0.00010000                8.74623357                9.14507324              -32.09932972                0.72889157               31.02824720              -84.95250453
              67.98037190              -15.59148485               79.76822460                0.00010000               11.75035385               11.11872557              -39.95649139                0.24496309               14.99061200             -105.47645769
              69.11162883              -19.82880730               77.92160751                0.44770833               13.12569326               13.27182021              -46.91305400                0.48934366                8.04552871             -131.10510398
              63.02818752               23.28391183               90.78448268                0.45075964               -0.00299562               -0.68966805                2.23400145               -0.08615792                0.30829555               17.81363695
              64.02815756               19.06079845               88.68210326                0.00010000               -0.67178014                0.70451338               -2.23983039                0.97405481               68.81744607              -14.49104022
              65.01475191               14.85643084               87.95047316                0.00010000               -1.75113127                1.67806581               -2.62194343                1.89587630              134.22629277              -17.78939423
              65.99313493               10.66403948               87.17102059                0.00010000               -2.09551016                2.67813175               -4.36109017                2.12682256              125.74114415              -21.34260718
              66.97284171                6.47911511               86.29296790                0.00010000               -1.44773162                3.79939420               -7.68850896                2.07539530              112.86440550              -25.96299117
              67.96418030                2.29769861               85.28333400                0.00010000                0.18091723                5.17047687              -12.64494440                1.82290493               97.20857739              -31.78639436
              68.97646005               -1.88434873               84.11796859                0.00010000                2.67269605                6.78602228              -19.10748156                1.40570075               79.63009786              -39.10278505
              70.01763422               -6.07124527               82.77725182                0.00010000                5.82455318                8.61215803              -26.77788871                0.88877497               60.64890811              -48.39527024
              71.09295112              -10.26632207               81.24385439                0.00010000                9.27577974               10.60647807              -35.14022295                0.39490310               40.63799424              -60.46518366
              72.20314982              -14.47126956               79.50228256                0.00010000               12.47753447               12.73885177              -43.43181191                0.07683878               20.21007642              -76.85178839
              73.34250181              -18.68576961               77.54543309                0.44782128               13.93519899               15.02764196              -50.69048718                0.41892852               10.84097926              -99.93014288
              67.24331854               24.27697683               90.49139983                0.45014422                0.12109245               -0.67452405                2.05566981               -0.09280289               -0.36524507               15.31595381
              68.24452947               20.06911072               88.22211309                0.00010000               -0.96371543                0.93838322               -2.89493724                0.81568503               82.87100347              -13.41677164
              69.22404424               15.87680688               87.61853900                0.00010000               -2.55979337                2.52455999               -3.39251974                1.14690201              161.00287142              -10.91782456
              70.19333360               11.69514712               86.94328097                0.00010000               -2.89834618                3.47660768               -5.24772995                1.14840969              149.38783408              -11.83846559
              71.16607731                7.52154266               86.14992634                0.00010000               -2.03476695                4.63591140               -8.79481596                1.07267043              134.23603737              -13.86638709
              72.15263826                3.35423788               85.21180327                0.00010000               -0.15682012                6.06654444              -14.07825059                0.93310072              116.86841230              -16.67056243
              73.16294091               -0.81109682               84.10529398                0.00010000                2.62789028                7.76967173              -20.95491372                0.68150659               97.67975450              -20.34662158
              74.20519607               -4.97904321               82.80875487                0.00010000                6.08015959                9.70711162              -29.09067985                0.36286465               76.82761781              -25.16911566
              75.28454410               -9.15351341               81.29887961                0.00010000                9.80800697               11.81453903              -37.91672904                0.06367107               53.88887561              -31.68485384
              76.40135621              -13.33670781               79.54287319                0.00010000               13.22316953               14.00929525              -46.57420448               -0.07326501               27.97106293              -41.13869636
              77.54900749              -17.52825446               77.49808836                0.44829444               14.76512847               16.24977626              -53.93670383                0.38087787               15.06387896              -58.29264816
              71.44206367               25.27042134               90.15075216                0.72530664                0.25775335               -0.65554849                1.74025372                0.78899016                6.87321796               12.89282390
              72.44464121               21.07956612               87.79365865                0.44419547               -1.52050597                1.04553957               -3.45715633                1.83620881              103.88126002              -11.90478732
              73.41165355               16.90692204               87.37823398                0.43920563               -3.66369277                3.01151625               -3.72567291                1.46120777              190.34481721               -5.70985535
              74.37136735               12.73357164               86.82323345                0.43891792               -3.82245986                3.84245159               -5.64641914                1.04893956              173.76057680               -6.18764123
              75.33520436                8.57183334               86.13846742                0.43883087               -2.79427790                5.02906777               -9.44570673                1.18559764              156.99660330               -7.12623147
              76.31548179                4.41902950               85.30072080                0.43895905               -0.59165423                6.47916184              -15.11576620                1.24492161              138.53950784               -8.47420506
              77.32337127                0.27104471               84.28853404                0.43944168                2.59131583                8.21415257              -22.46015326                1.23640918              118.60471710              -10.22417651
              78.36730811               -3.87710304               83.08080943                0.44062130                6.42589378               10.19401635              -31.09950883                1.15740428               97.12203791              -12.53299685
              79.45188915               -8.03003129               81.65255291                0.44266749               10.45587283               12.34821219              -40.42149172                1.03547384               73.30786895              -15.74516444
              80.57642557              -12.19108366               79.96519026                0.44577328               14.06617582               14.56241566              -49.51605509                0.96979633               43.28180782              -20.55380523
              81.73321266              -16.36077408               77.91574300                0.72392961               15.67870977               16.74803798              -57.01619059                1.45147455               26.93855786              -32.98166145
              29.96573991               15.79072128               94.23211441                0.72740755               -0.86350638               -0.95069833                3.56578232               -0.25403599               -7.06002511                7.52134070
              30.95710484               11.41045309               93.26217700                0.44816891               -0.46347711               -0.68594735                2.38689283                0.03024261               -8.56096650               -6.20861049
              31.95647037                7.03450306               92.25944212                0.44267467                0.03566809               -0.30991875                1.52022671               -0.25963393               -7.25988477                0.12754678
              32.95781821                2.66739711               91.30427747                0.44005617                0.23351494                0.01682877                0.66267236               -0.27726719               -4.32217304               -0.36526372
              33.96114066               -1.69294289               90.35250091                0.43903510                0.42837260                0.35683834               -0.16549896               -0.30331182               -3.84114596               -0.21348753
              34.96638566               -6.04904043               89.40285030                0.43872535                0.63594760                0.70403084               -1.00759941               -0.31573258               -3.84826066               -0.14481336
              35.97385962              -10.40331770               88.45035783                0.44018023                0.87324933                1.04989974               -1.88751596               -0.31181348               -4.46135920               -0.09863445
              36.98385065              -14.75804074               87.49077069                0.44197008                1.12543613                1.39584437               -2.79671169               -0.30264799               -5.59010118               -0.05360078
              37.99636834              -19.11537188               86.52018638                0.44506878                1.34692916                1.73111579               -3.73687515               -0.30581053               -7.40417212               -0.08364317
              39.01078923              -23.47850149               85.53024379                0.45080781                1.50589364                2.06404522               -4.66494137               -0.27326173               -8.21867709                0.54052014
              40.02648621              -27.85203864               84.55045354                0.72752141                1.56969841                2.39847954               -5.68931637                0.55273442               -8.11579935               -5.05256739
              34.34346774               16.78121430               93.84651798                0.45134865               -0.79513565               -0.45389140                3.11189278                0.35976457                6.32432502               13.03011733
              35.33551638               12.40359362               92.87460455                0.00010000               -0.90328618               -1.03353057                1.92489460                0.73495990               14.44617362              -11.45389079
              36.32540202                8.03140387               92.06417809                0.00010000               -0.83739366                0.20827360                0.79505911                1.76986490               20.52292559              -14.39377470
              37.31876851                3.66756540               91.22343728                0.00010000               -0.45378489                0.79536300               -0.51468690                2.08309485               18.79607833              -21.01638026
              38.31632632               -0.68937451               90.38635750                0.00010000               -0.01763861                1.14712754               -1.89236098                1.92087792               18.61207241              -29.00119094
              39.31841574               -5.04200012               89.54741041                0.00010000                0.44576587                1.29500220               -3.34174301                1.53574381               18.17259981              -38.55475220
              40.32524164               -9.39281870               88.70481503                0.00010000                0.92177595                1.22716202               -4.79798479                1.16720099               17.60902465              -49.84828324
              41.33685126              -13.74408229               87.85636875                0.00010000                1.41494878                0.90822518               -6.25923653                1.05863469               16.79043919              -62.98979178
              42.35354061              -18.09806073               86.99847311                0.00010000                1.97693671                0.25134808               -7.67921047                1.45806810               15.77890533              -77.98575346
              43.37638999              -22.45786104               86.13059995                0.00010000                2.60050512               -0.80954344               -9.11434058                2.68555800               12.77450516              -94.73721320
              44.40555071              -26.82805385               85.21368089                0.44966233                2.91607222               -3.47254886              -10.33550218                6.25143057               10.22904670             -115.64904065
              38.72817656               17.78164345               93.56798931                0.44790894               -0.65620910                0.03702858                2.90923594                0.00079714               -0.82974584               17.62616868
              39.72161447               13.38978248               92.38150262                0.00010000               -0.01403407               -1.29698206                1.43802051                2.16152186               18.37264307              -15.14932253
              40.72789588                9.03866853               91.57728779                0.00010000               -0.06779940                0.21986860                1.44501551                4.92039421               36.16175553              -27.49097559
              41.72025848                4.68330437               90.72929009                0.00010000               -0.93860678                1.16932200                0.63421380                4.85189928               32.07862502              -40.78307486
              42.70912374                0.32999966               89.84494319                0.00010000               -0.98568763                1.67286908               -0.91365230                4.43849150               28.10047365              -56.78969403
              43.70054473               -4.02314039               88.92506133                0.00010000               -0.49189686                1.82117703               -3.11250802                3.65687943               23.89846797              -75.73659068
              44.69928581               -8.37877446               87.96639461                0.00010000                0.48603156                1.58728207               -5.90184206                2.84897201               19.37522068              -98.00415862
              45.71026536              -12.73987623               86.96616686                0.00010000                2.00113193                0.87762277               -9.20259971                2.35927669               14.68777509             -123.84155071
              46.73930845              -17.11034492               85.92250367                0.00010000                4.21140747               -0.45475816              -12.87806784                2.51683875                9.87271787             -153.27896930
              47.79449351              -21.49469236               84.83009757                0.00010000                7.62960021               -2.73902475              -16.59258078                2.42886002                4.45446582             -186.34875681
              48.89190045              -25.92148962               83.67077963                0.44364897                9.74069397               -6.15733278              -19.74234383                4.18319397                2.86590747             -221.74860326
              43.12720563               18.78195487               93.26193690                0.44782085               -0.54838864               -0.05280377                2.75506256               -0.02752121               -0.05805083               17.28636527
              44.12172174               14.37765398               91.93004180                0.00010000                0.15411877               -1.03777312                0.90076105                3.20230451               25.16935036              -13.57157576
              45.13028801               10.03580124               91.10142868                0.00010000                0.13768111               -0.40403534                1.61942574                6.23616780               49.30183951              -26.45339824
              46.12447537                5.69095184               90.22985078                0.00010000               -0.93735500                0.49242549                1.06081875                6.03608641               44.67161722              -40.09338766
              47.11154091                1.34408287               89.30178670                0.00010000               -1.20739600                1.21292978               -0.70433455                5.70583986               38.47848708              -55.52675837
              48.10032745               -3.00557658               88.31046834                0.00010000               -0.62919918                1.72321202               -3.57889463                5.18882238               31.40755622              -73.45005333
              49.09895692               -7.36107306               87.25056758                0.00010000                0.76399030                1.96546854               -7.46926604                4.55791364               23.81667538              -94.31635709
              50.11560725              -11.72652984               86.11887928                0.00010000                2.98682944                1.83845824              -12.24440377                3.93554049               16.16107948             -118.42801431
              51.15869351              -16.10715589               84.91519527                0.00010000                6.02523188                1.22401821              -17.63480112                3.17840023                9.03555419             -145.88879436
              52.23611189              -20.51264153               83.64233306                0.00010000                9.20578057                0.02994005              -23.11422401                1.92410842                3.47479588             -176.44493142
              53.34280912              -24.95120050               82.31259640                0.44412355               10.66972326               -0.47361626              -27.74585681                1.32711280                2.21736357             -208.83653239
              47.53622792               19.78058738               92.96765440                0.44793697               -0.44137365               -0.24303230                2.68455537               -0.04873330               -0.02593896               18.37399972
              48.53181419               15.36902702               91.47628041                0.00010000                0.15467230               -0.65936440                0.28539594                3.71355924               32.54264488              -13.88194774
              49.53932137               11.03058782               90.63529317                0.00010000                0.04421959               -0.47685347                1.42807951                7.20684498               63.55566190              -25.81333610
              50.53269858                6.69315288               89.74178591                0.00010000               -0.97762041                0.16071383                0.93971734                7.02982724               57.83845093              -38.63751352
              51.51976896                2.35425825               88.77721985                0.00010000               -1.16107335                0.97537983               -1.09641503                6.71457361               50.01270754              -52.90485759
              52.50947711               -1.98867614               87.72785797                0.00010000               -0.41858132                1.77847326               -4.57783785                6.21953317               40.72903968              -69.27114737
              53.51139734               -6.33946509               86.58468748                0.00010000                1.27909422                2.46802419               -9.38804763                5.51651682               30.65588301              -88.27878297
              54.53505900              -10.70310707               85.34338121                0.00010000                3.87954046                2.96725435              -15.34846660                4.56297269               20.56457681             -110.33606925
              55.58898815              -15.08586456               84.00548215                0.00010000                7.09806479                3.25038562              -22.11102464                3.25943393               11.46512770             -135.68785689
              56.67702029              -19.49409356               82.58055398                0.00010000               10.32862541                3.56804796              -29.02847766                1.52881825                4.49651016             -164.32123577
              57.79556065              -23.93096195               81.08744510                0.44432752               11.85403602                4.24037386              -35.10946359                1.17014077                2.67651122             -196.17083712
              51.94935169               20.77709422               92.67767278                0.44780246               -0.33592024               -0.43864690                2.61014210               -0.05286683                0.07538902               18.81298771
              52.94599248               16.36446669               91.02367127                0.00010000                0.04736764               -0.26160911               -0.33691686                3.77191485               40.58045684              -13.95930505
              53.95029904               12.02626417               90.17911474                0.00010000               -0.22955023               -0.29605838                0.95793363                7.38507437               79.10926078              -25.04141787
              54.94140148                7.69416612               89.27608375                0.00010000               -1.13188170                0.21058217                0.40470432                7.43943703               72.43068660              -36.42442765
              55.92766140                3.36359047               88.28930630                0.00010000               -1.14800127                1.07737118               -1.93685651                7.18391021               63.11616609              -48.91377160
              56.91844145               -0.97000711               87.19966447                0.00010000               -0.19716123                2.12104835               -5.96260445                6.64214846               51.90895144              -63.20358109
              57.92371818               -5.31171258               85.99409551                0.00010000                1.74123600                3.22090408              -11.54431466                5.79538755               39.61410750              -79.91112125
              58.95326617               -9.66718475               84.66614509                0.00010000                4.55752489                4.32550788              -18.47340285                4.62299602               27.19610652              -99.56189824
              60.01486868              -14.04214818               83.21726962                0.00010000                7.92597341                5.48400109              -26.35156903                3.12389096               15.80695440             -122.58455062
              61.11178564              -18.44128057               81.65832831                0.00010000               11.25400208                6.83054607              -34.48147344                1.44391959                6.66037487             -149.31576229
              62.23994872              -22.86639303               80.00998815                0.44485486               12.81630777                8.45347252              -41.83063691                1.07729178                3.76256299             -179.96601482
              56.36042566               21.77181444               92.38940341                0.44801847               -0.23431234               -0.59529236                2.54055821               -0.06141881                0.15680464               18.88877112
              57.35808254               17.36379483               90.57100754                0.00010000               -0.15511157                0.10756266               -0.95846396                3.48569623               49.45546288              -14.08160258
              58.35732343               13.02466665               89.73829980                0.00010000               -0.69607562                0.05143861                0.29674504                6.89067278               96.38740896              -23.75863240
              59.34416102                8.69736453               88.84395463                0.00010000               -1.48515147                0.58245001               -0.42466268                7.19736200               88.85642074              -33.18756357
              60.32762040                4.37580568               87.85540027                0.00010000               -1.32689466                1.54573023               -3.08418981                7.02371894               78.11264590              -43.36197832
              61.31762313                0.05374482               86.74782738                0.00010000               -0.15688387                2.79326917               -7.59448304                6.43816109               65.03847881              -55.09915546
              62.32448272               -4.27504701               85.50395658                0.00010000                2.01656926                4.23243500              -13.82635158                5.49726890               50.55143274              -69.06073176
              63.35795452               -8.61659691               84.11420232                0.00010000                5.05395330                5.83402723              -21.55091954                4.25005895               35.68599185              -85.85956676
              64.42556179              -12.97618454               82.57756638                0.00010000                8.60945094                7.63182725              -30.33391523                2.79346330               21.63515187             -106.11293048
              65.53014353              -17.35748263               80.90296971                0.00010000               12.08848065                9.70769404              -39.43516732                1.28632732                9.65104422             -130.41406639
              66.66733140              -21.76189250               79.10972927                0.44501710               13.71878656               12.11005258              -47.77902824                1.01629986                5.30173752             -159.22741151
              60.76416252               22.76518838               92.10025677                0.44750259               -0.13083273               -0.70248215                2.41425648               -0.06561896                0.20303194               18.62002184
              61.76285419               18.36661794               90.11695163                0.00010000               -0.48098590                0.43014628               -1.53509128                2.99884536               59.47428006              -14.28642499
              62.75454280               14.02729294               89.31916156                0.00010000               -1.43222485                0.56419789               -0.48456571                5.93002508              115.94004680              -21.76902437
              63.73420970                9.70581512               88.45841099                0.00010000               -2.13936577                1.26781165               -1.43103166                6.39942741              107.51695221              -28.53439032
              64.71175549                5.39450507               87.49381477                0.00010000               -1.80761672                2.35619169               -4.40129132                6.23440078               95.23654123              -35.93794381
              65.69805736                1.08585827               86.39479058                0.00010000               -0.38750987                3.75485006               -9.34182764                5.62589856               80.22278894              -44.74424847
              66.70400529               -3.22706388               85.14027164                0.00010000                2.06737594                5.43828639              -16.13007389                4.67720175               63.50197454              -55.53886512
              67.73940488               -7.55050420               83.71696767                0.00010000                5.38091896                7.38129511              -24.51690481                3.48594989               46.05295962              -68.94078266
              68.81162367              -11.88951163               82.11929432                0.00010000                9.19076334                9.59060529              -34.02486244                2.19547829               28.97064858              -85.72569248
              69.92322015              -16.24712669               80.35086083                0.00010000               12.87353860               12.11078642              -43.85578973                0.98201406               13.48928135             -106.86647780
              71.06909444              -20.62419198               78.42628502                0.44529564               14.58742936               15.01846196              -52.87478133                0.88896728                7.30265436             -133.23839783
              65.15625415               23.75776480               91.80714435                0.44680999               -0.02992761               -0.74053646                2.27992742               -0.05355172                0.34094667               18.30172906
              66.15595488               19.37239776               89.66034087                0.00010000               -0.97636990                0.68713755               -2.09619025                2.49352560               71.14548806              -14.89937469
              67.13672675               15.03595061               88.93014808                0.00010000               -2.55087160                1.33671946               -1.30550905                4.75402407              138.51041599              -18.35260707
              68.10493744               10.72272076               88.13591260                0.00010000               -3.22307449                2.29275199               -2.47660345                5.04534470              128.79158517              -21.81838609
              69.07226526                6.42292951               87.22482552                0.00010000               -2.66136939                3.41663993               -5.73360405                4.79583982              114.54810379              -26.28124395
              70.05171006                2.12884182               86.16368708                0.00010000               -0.89380169                4.89417074              -11.06880332                4.21829705               97.50131773              -31.98265192
              71.05438923               -2.16628128               84.92964432                0.00010000                1.92056058                6.72315168              -18.36001378                3.39195114               78.63058583              -39.27785222
              72.09012127               -6.46897101               83.50612368                0.00010000                5.58523052                8.87334832              -27.32971026                2.38994172               58.66540126              -48.67800113
              73.16609384              -10.78437243               81.88123893                0.00010000                9.71714461               11.31047930              -37.44073896                1.36785942               38.30465925              -60.97488467
              74.28446416              -15.11526691               80.04785421                0.00010000               13.65737378               14.02574644              -47.80082376                0.53693417               18.53802276              -77.64175985
              75.43924132              -19.46152326               78.00974972                0.44547781               15.47771564               17.09566575              -57.17897606                0.70078229               10.00261805             -100.92837297
              69.53382556               24.75037765               91.51255785                0.44701445                0.07133299               -0.71151206                2.14200607               -0.05604527               -0.36671683               15.74288408
              70.53453889               20.38036069               89.19415900                0.00010000               -1.72626373                0.87992589               -2.66166380                2.23305360               85.33348631              -13.79399711
              71.49930029               16.05402733               88.59074000                0.00010000               -4.32005990                2.68839813               -2.02096015                3.08538361              165.45776734              -11.42086727
              72.44813769               11.75167016               87.89939287                0.00010000               -4.88745330                3.45096573               -3.34013626                2.95758767              152.42790651              -12.28023680
              73.40155122                7.46283787               87.07054203                0.00010000               -3.82517980                4.53366555               -6.87194480                2.62909608              135.68308300              -14.17885651
              74.37163410                3.18374168               86.07726952                0.00010000               -1.59470378                6.01756193              -12.61056739                2.25805487              116.73775232              -16.87431265
              75.36965714               -1.09260085               84.89746850                0.00010000                1.68303849                7.91267052              -20.41252975                1.74061070               96.12882136              -20.50190045
              76.40529487               -5.37303724               83.51293135                0.00010000                5.78098066               10.17870120              -29.95919357                1.12197673               74.23541326              -25.34880188
              77.48527676               -9.66330205               81.90638409                0.00010000               10.29073957               12.74555571              -40.64834729                0.50888697               50.99073018              -31.94792357
              78.61110966              -13.96661176               80.05449947                0.00010000               14.51730164               15.52163102              -51.45856624                0.10705023               25.94374152              -41.48298439
              79.77562279              -18.28227866               77.92743363                0.44546307               16.45131327               18.47955434              -60.93115706                0.55585676               14.03361960              -58.48106696
              73.89516716               25.74353456               91.16907684                0.72364365                0.17991044               -0.68430915                1.88221900                0.78033185                7.08938119               13.26977451
              74.89696626               21.38999628               88.76043920                0.44227853               -3.40210981                0.96355859               -3.13201459                3.55193804              106.80637076              -12.25751812
              75.82712496               17.08971857               88.34771169                0.43945090               -7.08438013                3.56912412               -2.22140724                2.86965726              195.08000866               -6.18342174
              76.75527866               12.79174007               87.77579877                0.43865315               -6.71746504                4.00699162               -3.64357002                1.90830897              176.54479346               -6.63550383
              77.69277566                8.51360282               87.05263079                0.43883874               -5.14843934                5.07649497               -7.51117573                1.99509341              157.82636130               -7.49233255
              78.65230987                4.24919306               86.15533147                0.43862649               -2.33976472                6.54513788              -13.75024297                1.98604288              137.56212947               -8.75751413
              79.64598036               -0.00802787               85.06454766                0.43932476                1.54760655                8.45729749              -22.15172500                1.90281984              116.08406740              -10.44165124
              80.68326200               -4.26539698               83.76310365                0.43978857                6.19328694               10.76402548              -32.34661012                1.72504133               93.51992424              -12.70256782
              81.76984610               -8.52946132               82.23250597                0.44102957               11.11598879               13.38407293              -43.68456789                1.48506953               69.43591231              -15.87101394
              82.90558178              -12.80483429               80.44422523                0.44348227               15.59230722               16.17774764              -55.07996329                1.32366944               40.50672758              -20.60596765
              84.08169225              -17.09193217               78.31094522                0.72281492               17.61104701               19.03464902              -64.72765017                1.89715736               25.36845041              -32.64860173
              30.87114494               16.25366254               95.26573207                0.72468111               -0.71676180               -0.78584142                3.14824777               -0.19938440               -7.02480355                7.49054678
              31.86397732               11.73825955               94.28470388                0.44509423               -0.07354600               -0.65874417                2.11312780                0.34544199               -8.34587787               -6.20546894
              32.86967402                7.23448410               93.27411946                0.44123377                0.56460199               -0.24212802                1.41445391               -0.24794493               -6.71454339                0.08206510
              33.87526936                2.75038418               92.31127323                0.43950501                0.55572361                0.03065465                0.73653748               -0.24708737               -3.67455379               -0.38565936
              34.88078849               -1.72026959               91.35218107                0.43889148                0.55075393                0.33289373                0.10170991               -0.27562605               -3.15798099               -0.20614833
              35.88628444               -6.18335546               90.39504822                0.43905248                0.58290603                0.63875691               -0.54794258               -0.28890368               -3.20292007               -0.13576421
              36.89244661              -10.64418197               89.43471571                0.43941124                0.68682544                0.94564726               -1.23525013               -0.30067084               -3.88265857               -0.07847909
              37.90002095              -15.10686735               88.46697687                0.43998603                0.84735220                1.24574264               -1.96279426               -0.30694160               -5.08813739               -0.04916028
              38.90939366              -19.57477774               87.48778746                0.44373083                1.00691040                1.53513746               -2.71990684               -0.29009494               -6.94056626               -0.08048370
              39.92015916              -24.05149276               86.48960168                0.44738595                1.11714097                1.81835514               -3.43565316               -0.24566159               -7.80850749                0.47691045
              40.93173648              -28.54162739               85.50059116                0.72550378                1.15773189                2.09505759               -4.26613165                0.72769808               -7.77085238               -4.83641627
              35.38455408               17.24580412               94.87588374                0.44781959               -0.75331171               -0.01955350                2.75505049                0.69122426                6.31391570               13.14215794
              36.37702096               12.73167211               93.89277085                0.00010000               -1.17109113               -1.31644322                1.70597742                1.49535458               14.43324771              -11.46877678
              37.36113226                8.23206282               93.07128879                0.00010000               -1.34228148                0.78912038                0.62578612                3.69381841               20.25031900              -13.57953515
              38.35017533                3.75069073               92.21777744                0.00010000               -0.81151014                1.47736503               -0.61845821                4.62411791               18.30829877              -19.61936471
              39.34490205               -0.71694066               91.36721782                0.00010000               -0.24118701                1.74999994               -1.93430606                4.68289122               18.00949256              -27.33244078
              40.34535159               -5.17696790               90.51407267                0.00010000                0.31468959                1.71350901               -3.30699915                4.23647970               17.52352430              -36.93998521
              41.35119585               -9.63472550               89.65732094                0.00010000                0.84489108                1.38988415               -4.69154694                3.62305133               16.95943302              -48.62799336
              42.36224942              -14.09440992               88.79465462                0.00010000                1.38047824                0.72321304               -6.07608255                3.19032433               16.16980399              -62.50100912
              43.37880541              -18.55942636               87.92283981                0.00010000                1.94389759               -0.42203118               -7.41797214                3.33520205               15.18149667              -78.49514660
              44.40112737              -23.03330920               87.04102729                0.00010000                2.51713386               -2.20867689               -8.74654175                4.63145257               12.28879498              -96.34863361
              45.42914809              -27.52067681               86.11272527                0.44648148                2.80207218               -6.59523947               -9.83881144                9.26576208                9.85627012             -118.02592342
              39.91323345               18.25327147               94.59562773                0.44519343               -0.56077266                0.63005205                2.60974803                0.01969281               -0.93310876               18.04765905
              40.90762572               13.71193069               93.39511939                0.00010000                0.56491625               -1.81362827                1.27919959                4.14037198               19.12906629              -15.39178859
              41.92453177                9.25026650               92.59377124                0.00010000                0.45647357                0.77112637                1.90421259                9.60886543               37.76609003              -25.73514781
              42.91675519                4.77993148               91.73924040                0.00010000               -1.12134169                2.07246656                1.42912615                9.95925131               32.99883623              -37.96135437
              43.90210494                0.31473040               90.84013732                0.00010000               -1.39781574                2.53266454                0.04352316                9.86552835               28.39214417              -53.52710306
              44.88879888               -4.14908528               89.89831471                0.00010000               -0.98776369                2.44682327               -2.12087852                8.97882362               23.59645210              -72.63187934
              45.88234967               -8.61638429               88.91109820                0.00010000               -0.01352907                1.83923820               -5.00919940                7.73430895               18.45721243              -95.68749347
              46.88852830              -13.09240309               87.87637640                0.00010000                1.63236573                0.58730224               -8.59857604                6.59396637               13.15011804             -122.93320479
              47.91499698              -17.58321836               86.79358354                0.00010000                4.27551805               -1.55845084              -12.80074318                6.05464882                7.91302832             -154.34458848
              48.97403866              -22.09566629               85.66095422                0.00010000                8.83949758               -5.19712120              -17.25281225                4.86357704                2.73741710             -189.74115803
              50.09178693              -26.67353218               84.46727489                0.44163940               11.77482739              -10.86729796              -21.12691070                6.42305877                2.04611442             -228.04514157
              44.46762949               19.25840517               94.28841978                0.44499195               -0.47961263                0.33210961                2.53127406                0.00155098               -0.09762074               17.84867835
              45.46283337               14.69539955               92.93845338                0.00010000                0.88396404               -1.39441155                0.78111063                5.84355568               26.62986437              -14.00132702
              46.48530877               10.24748534               92.12153937                0.00010000                1.10315459               -0.59305464                2.47969791               11.47497854               52.19761467              -25.16964420
              47.48489646                5.79214006               91.24685163                0.00010000               -0.70396935                0.59089146                2.44375372               11.37529929               46.69063236              -37.85732008
              48.47122939                1.33371263               90.30210022                0.00010000               -1.44268494                1.37867989                0.89183172               11.23783430               39.61903391              -52.91403672
              49.45604276               -3.12803143               89.28177601                0.00010000               -1.10147794                1.81656565               -2.00062884               10.71937271               31.66046975              -70.96294502
              50.44919983               -7.59794074               88.18147331                0.00010000                0.24600258                1.87346834               -6.15367253                9.79625438               23.12582666              -92.45988949
              51.46096281              -12.08266388               86.99909613                0.00010000                2.69808826                1.42158655              -11.51522861                8.60637844               14.55425309             -117.72990337
              52.50316159              -16.59059538               85.73702087                0.00010000                6.38749558                0.26012065              -17.88663457                6.93168684                6.87286110             -146.88206574
              53.58871272              -21.13725163               84.40373167                0.00010000               10.50897181               -1.81823199              -24.69199046                4.17174624                1.76018342             -179.72890624
              54.71334103              -25.73802277               83.02223582                0.44190660               12.46283061               -2.99447647              -30.69990665                2.39321987                1.36593444             -215.13448599
              49.03927570               20.25991366               93.99373530                0.44544460               -0.38590467               -0.03313954                2.52230917               -0.02078118               -0.03887919               18.97760833
              50.03541666               15.68404246               92.47869424                0.00010000                0.90075644               -0.86502495                0.20080216                6.58144961               34.57593719              -14.39673660
              51.05729083               11.23840541               91.65474255                0.00010000                1.13086156               -0.94945599                2.54460513               12.79549820               67.48741024              -24.99700900
              52.05803389                6.79174931               90.75935188                0.00010000               -0.51288591               -0.30342998                2.68233646               12.55979081               60.70404237              -37.02239172
              53.04703311                2.34230400               89.77546448                0.00010000               -1.15970927                0.58254714                0.87217560               12.29097628               51.86736921              -50.94238593
              54.03483970               -2.11275397               88.69070040                0.00010000               -0.70629571                1.42203391               -2.69240716               11.73671278               41.55458268              -67.36800958
              55.03290720               -6.57891492               87.49719812                0.00010000                0.92354022                2.09196990               -7.91085610               10.72967639               30.38911700              -86.85078992
              56.05331051              -11.06397136               86.19218585                0.00010000                3.76556342                2.49263167              -14.69909100                9.13747093               19.25423318             -109.84324914
              57.10821847              -15.57801595               84.78057327                0.00010000                7.57952334                2.58212235              -22.79432022                6.76210958                9.53523919             -136.66355861
              58.20490097              -20.13203093               83.27882859                0.00010000               11.64875724                2.72301682              -31.50190024                3.41491999                2.94020944             -167.40078632
              59.34119361              -24.73342171               81.71695760                0.44227718               13.62926390                3.45769195              -39.56844233                2.09394209                1.89846490             -202.13548535
              53.61895627               21.25774237               93.70330088                0.44504465               -0.29856644               -0.36870734                2.51285339               -0.02831633                0.10194137               19.38696756
              54.61597061               16.67809905               92.02007433                0.00010000                0.72778063               -0.34908775               -0.38425186                6.55898127               43.03433821              -14.47617072
              55.63351189               12.22849622               91.19468130                0.00010000                0.81115373               -0.90079193                2.23749573               12.82699526               83.79472887              -24.63571591
              56.63219368                7.78607146               90.28937555                0.00010000               -0.59798459               -0.57145607                2.35659551               12.88505036               75.92607272              -35.40345313
              57.62155219                3.34536358               89.28017001                0.00010000               -1.00988711                0.31447968                0.22754118               12.60874478               65.51260974              -47.57336645
              58.61199594               -1.09959075               88.14935044                0.00010000               -0.32707265                1.45658379               -3.94833564               11.91492022               53.20282045              -61.84177372
              59.61501074               -5.55610134               86.88511585                0.00010000                1.54086562                2.67384086              -10.06400625               10.67609696               39.74095399              -78.86234727
              60.64281325              -10.03281124               85.48284209                0.00010000                4.57263102                3.90092669              -18.01648294                8.79001371               26.20809655              -99.22304317
              61.70646336              -14.53895293               83.94783083                0.00010000                8.48018141                5.22545491              -27.50398540                6.19559660               14.12186236             -123.43196009
              62.81241688              -19.08279129               82.29831714                0.00010000               12.57690275                6.87865069              -37.79572968                3.05636208                5.25045778             -151.91718235
              63.95800142              -23.66886893               80.56650012                0.44228661               14.55845347                9.06852945              -47.61234245                1.86183755                3.04609787             -184.94835920
              58.19799603               22.25253951               93.41459653                0.44509470               -0.21535961               -0.61563432                2.48375150               -0.02140114                0.17470490               19.38635220
              59.19584243               17.67706070               91.56145199                0.00010000                0.39311487                0.09297918               -0.94569001                6.00138269               52.17156711              -14.54497502
              60.20585833               13.22038957               90.74780793                0.00010000                0.15125546               -0.62397139                1.68674711               11.82284586              101.55866612              -23.70457720
              61.19886754                8.78032019               89.84956980                0.00010000               -1.04940530               -0.35663732                1.64684796               12.25887938               92.76111331              -32.70895493
              62.18487022                4.34859360               88.83527753                0.00010000               -1.21322597                0.60035317               -0.82686255               12.05425459               80.85875462              -42.59310596
              63.17460302               -0.08362230               87.68136485                0.00010000               -0.26102949                1.98372157               -5.54951930               11.23437965               66.62318693              -54.22798393
              64.17964963               -4.52543811               86.37180705                0.00010000                1.86796757                3.64095199              -12.41997563                9.82020718               50.90869016              -68.34057896
              65.21196237               -8.98595282               84.89903262                0.00010000                5.12304090                5.53939307              -21.32263972                7.83008699               34.86851575              -85.60903554
              66.28211045              -13.47350685               83.26623709                0.00010000                9.19909206                7.75617748              -31.92560314                5.35865503               20.06202438             -106.70858131
              67.39594422              -17.99445792               81.49014231                0.00010000               13.42375973               10.45461937              -43.45846892                2.61028357                8.29605979             -132.27227493
              68.55058564              -22.55205112               79.60204943                0.44272122               15.46414279               13.76366101              -54.59459880                1.68228634                4.60251768             -162.76307824
              62.76948587               23.24542969               93.12429791                0.44444230               -0.13376666               -0.74470934                2.38461201               -0.01623662                0.25591371               19.04613426
              63.76814820               18.67995863               91.10203017                0.00010000               -0.13882767                0.42714432               -1.44400519                5.14041317               62.33149194              -14.68549402
              64.76670932               14.21601680               90.32125307                0.00010000               -0.94904784               -0.12946521                0.99185667               10.12551288              121.34554607              -22.02143465
              65.74916725                9.77893871               89.45429137                0.00010000               -2.00647734                0.31848464                0.70938760               10.83877471              111.62841591              -28.53213390
              66.72657977                5.35737064               88.46066988                0.00010000               -1.92260053                1.40846859               -2.10879906               10.61520253               98.12987720              -35.67004600
              67.71071524                0.94008368               87.31070441                0.00010000               -0.64171794                2.95944649               -7.31817919                9.70659507               81.87815302              -44.30491127
              68.71374541               -3.48328230               85.98449039                0.00010000                1.83842495                4.91677360              -14.83200956                8.24392377               63.85296358              -55.10668152
              69.74748374               -7.92202338               84.47094916                0.00010000                5.41980736                7.25919201              -24.51775906                6.34190863               45.17197988              -68.75133886
              70.82214156              -12.38382938               82.76914274                0.00010000                9.78415427               10.02986539              -35.99707100                4.17639023               27.31191626              -86.03506093
              71.94316682              -16.87369890               80.89110881                0.00010000               14.23459895               13.33572612              -48.43144065                1.98444684               12.07195883             -107.90743536
              73.10683354              -21.39359571               78.86411188                0.44274957               16.36667169               17.32827201              -60.41805861                1.41919366                6.55999490             -135.18877209
              67.32861341               24.23764533               92.83008123                0.44449026               -0.05498205               -0.77638355                2.26362293               -0.03937201                0.36569141               18.69763301
              68.32806359               19.68560359               90.64017945                0.00010000               -0.96124529                0.65869087               -1.90129882                4.25118936               74.04913155              -15.26519840
              69.30938850               15.21780027               89.92436298                0.00010000               -2.68871982                0.74045670                0.24479208                8.11713448              143.99542239              -18.84551227
              70.27428919               10.78668988               89.12148852                0.00010000               -3.66795995                1.53587467               -0.29712951                8.59425741              132.93906361              -22.16825962
              71.23602930                6.37676297               88.17829582                0.00010000               -3.24506643                2.63948095               -3.44215952                8.20796531              117.37328825              -26.38976641
              72.20938786                1.97556663               87.06195793                0.00010000               -1.46970683                4.25117779               -9.10387127                7.29430000               98.95878621              -31.88245280
              73.20663517               -2.42710263               85.75076832                0.00010000                1.49798832                6.36220604              -17.20127419                5.98872360               78.67257118              -39.09075681
              74.23934763               -6.84076898               84.23065761                0.00010000                5.53393041                8.95120857              -27.57299760                4.38490489               57.41417458              -48.56435920
              75.31731378              -11.27290954               82.49503961                0.00010000               10.30259258               12.00452274              -39.76928975                2.68373081               36.29971120              -61.08296080
              76.44539948              -15.72774340               80.54626609                0.00010000               15.07246772               15.54801871              -52.83120279                1.17192733               16.90509272              -78.03224457
              77.61876313              -20.20548568               78.40185357                0.44332697               17.33636489               19.72622040              -65.23070410                1.07467346                9.13507529             -101.49730629
              71.87278190               25.22990202               92.53423995                0.44434681                0.02351459               -0.74332362                2.13325143               -0.05129792               -0.37706526               16.07294219
              72.87301705               20.69313245               90.16887982                0.00010000               -2.24080948                0.81258881               -2.33736109                3.74970511               88.30745398              -14.10386645
              73.82796572               16.23082593               89.57811980                0.00010000               -5.54636772                2.57549807               -0.39732515                5.25147020              170.99922234              -11.91294825
              74.76208970               11.80965621               88.87647825                0.00010000               -6.30516953                3.06799349               -1.12512481                5.11946256              156.46957570              -12.70124470
              75.70186232                7.41016026               88.01248744                0.00010000               -5.08114286                4.05230968               -4.60146846                4.58103062              138.15755557              -14.41338778
              76.66046684                3.02510724               86.95959192                0.00010000               -2.60034119                5.60943398              -10.74116197                3.96106046              117.63550694              -16.94066746
              77.64985550               -1.35603818               85.69704338                0.00010000                1.02609505                7.75779928              -19.44433280                3.12694147               95.46147993              -20.47376027
              78.68098874               -5.74299921               84.20957100                0.00010000                5.64675447               10.46349995              -30.50575933                2.13499533               72.20203338              -25.31577363
              79.76279059              -10.14373893               82.48591267                0.00010000               10.90963817               13.66071034              -43.39885931                1.12163558               48.25399052              -31.97829979
              80.89918150              -14.56273853               80.51370187                0.00010000               16.05104882               17.25444284              -56.99539117                0.36945058               23.84844479              -41.56101244
              82.08381157              -18.99907130               78.27946522                0.44287697               18.46300630               21.23581822              -69.45786357                0.78565076               12.91067944              -58.26948191
              76.40112659               26.22277885               92.18839654                0.72212015                0.10071918               -0.71231620                1.92341559                0.74211929                7.27846107               13.57178199
              77.40213378               21.70185537               89.73101836                0.44114106               -5.16162178                0.87229173               -2.69091793                5.23824146              110.20821912              -12.54760823
              78.29789415               17.26931023               89.33380583                0.43882559              -10.23948320                3.84842999               -0.44372378                4.30256279              200.87443993               -6.76553820
              79.19734411               12.84804975               88.75036205                0.43843047               -9.28476315                3.83935460               -1.32663809                2.95038835              180.19487964               -7.17355367
              80.11219889                8.45780916               87.98824390                0.43845312               -7.12683020                4.76489023               -5.23511052                3.01893439              159.47533410               -7.91122521
              81.05480751                4.08775531               87.02571594                0.43883343               -3.74592222                6.26480788              -11.99869221                2.94627656              137.36595372               -9.05708588
              82.03728044               -0.27194665               85.84549954                0.43885579                0.74703878                8.40915293              -21.43985387                2.77977936              114.17396666              -10.64761774
              83.06974829               -4.63149898               84.43387723                0.43927047                6.11026821               11.15002272              -33.30312800                2.48852027               90.17757928              -12.83693206
              84.15948581               -8.99969533               82.77886155                0.44010893               11.91862917               14.40435931              -47.01579723                2.11174385               65.40356627              -15.93073580
              85.30812087              -13.38265454               80.86359099                0.44161521               17.38279423               18.00839899              -61.37457497                1.84023764               37.38830687              -20.53692068
              86.50714169              -17.78076931               78.62119000                0.72163582               19.90208228               21.83019911              -74.05280435                2.52153532               23.48427618              -32.00188360
              31.78730023               16.72022889               96.29507937                0.72268742               -0.55003284               -0.60670926                2.70350742               -0.13475442               -6.97288621                7.43787471
              32.78179990               12.07020976               95.30443955                0.44225964                0.41549550               -0.64071887                1.82240239                0.77647777               -8.09825896               -6.19054187
              33.79561014                7.44180569               94.28773120                0.44060457                1.22328071               -0.16443033                1.30057191               -0.19754604               -6.09873979                0.01477163
              34.80626552                2.84667551               93.31900822                0.43917572                0.92979569                0.05354319                0.80453120               -0.17325781               -2.94081654               -0.40987692
              35.81420606               -1.72713935               92.35453511                0.43915987                0.67635496                0.31597751                0.36262896               -0.22251773               -2.39152937               -0.19765940
              36.81979262               -6.28980461               91.39189144                0.43926379                0.50358712                0.57383045               -0.09406178               -0.24887165               -2.48336328               -0.10839237
              37.82427780              -10.85009775               90.42565282                0.43900653                0.46117643                0.83366859               -0.58949745               -0.27168635               -3.24378184               -0.05563196
              38.82901615              -15.41437944               89.45151481                0.43974561                0.53272045                1.08774351               -1.13020230               -0.27819244               -4.52251323               -0.04016464
              39.83493221              -19.98708625               88.46578824                0.44133143                0.63996181                1.33265160               -1.68430598               -0.28518622               -6.39541650               -0.07241037
              40.84181538              -24.57181450               87.46153073                0.44404737                0.70789965                1.56282535               -2.19376330               -0.25094358               -7.32561760                0.43410844
              41.84909020              -29.17303520               86.46513091                0.72301749                0.72748184                1.77791554               -2.82425604                0.89692432               -7.35768231               -4.57923351
              36.43597182               17.71416180               95.90161899                0.44403876               -0.71955388                0.49158500                2.38437250                1.12561925                6.27709522               13.22919924
              37.42877628               13.06380257               94.90872410                0.00010000               -1.52850068               -1.69727887                1.48590087                2.51259882               14.34744958              -11.47505631
              38.40540181                8.44016139               94.07669381                0.00010000               -1.98854106                1.59546543                0.44386803                6.34474486               19.83853071              -12.40854702
              39.38900546                3.84721094               93.21106812                0.00010000               -1.25904340                2.41637952               -0.71611034                8.17313208               17.65700221              -17.64516190
              40.38022094               -0.72397958               92.34767138                0.00010000               -0.51111811                2.58572722               -1.95960739                8.62045091               17.24823723              -24.96116384
              41.37878310               -5.28406631               91.48127042                0.00010000                0.18137048                2.31616546               -3.23622514                8.19693965               16.71240456              -34.57175208
              42.38384835               -9.84176106               90.61098409                0.00010000                0.79726868                1.67105238               -4.53363293                7.33274330               16.15360884              -46.67489532
              43.39472847              -14.40350201               89.73484710                0.00010000                1.34747636                0.56988031               -5.82392129                6.48837852               15.40854171              -61.40224996
              44.41079788              -18.97375973               88.85011367                0.00010000                1.87759754               -1.21657549               -7.08897755                6.26873735               14.45444128              -78.67861558
              45.43228042              -23.55618625               87.95566912                0.00010000                2.42411335               -4.02026978               -8.31499739                7.61194025               11.67943487              -98.06369829
              46.45928014              -28.15525605               87.01690466                0.44345857                2.69997199              -10.94338963               -9.29379802               13.64758020                9.34926549             -120.92862077
              41.11053107               18.73006059               95.62018427                0.44262118               -0.44787831                1.33295378                2.30374351                0.08106880               -1.04980610               18.46328233
              42.10605229               14.03626418               94.40708662                0.00010000                1.42827975               -2.48749896                1.12201932                6.80387856               20.14004483              -15.66918338
              43.13909667                9.47371500               93.61537204                0.00010000                1.39084156                1.56378328                2.45942540               15.95895797               39.93911459              -23.24755902
              44.13386912                4.89500310               92.75787261                0.00010000               -1.06021736                3.32415101                2.33907047               16.97909464               34.42699155              -34.02055552
              45.11789232                0.32457519               91.84581366                0.00010000               -1.61781141                3.72272803                1.14165503               17.51459340               29.24969496              -48.93121873
              46.10151289               -4.24348131               90.88264376                0.00010000               -1.37619805                3.34225672               -0.91784334               16.70643808               23.93162294              -68.10789131
              47.09036836               -8.81667670               89.86621062                0.00010000               -0.53652538                2.26951466               -3.80200984               15.04022274               18.12944558              -91.97983747
              48.09078239              -13.40298184               88.79419534                0.00010000                1.13114179                0.32823283               -7.61381850               13.08376112               11.95670848             -120.86312341
              49.11299120              -18.01141776               87.66648881                0.00010000                4.23840569               -2.90136018              -12.41083122               11.57396267                5.90839742             -154.78446019
              50.17555050              -22.65221990               86.48504132                0.00010000               10.35951009               -8.44538915              -17.87011875                8.66674777                0.70065249             -193.39567019
              51.32018140              -27.39190300               85.24824142                0.43959009               14.46308981              -17.41584446              -22.87369000                9.72365907                0.99199597             -235.97100423
              45.82518602               19.74082087               95.31256238                0.44252637               -0.39865714                0.75989298                2.30137260                0.07324116               -0.13176302               18.40874779
              46.82119945               15.01405259               93.94566401                0.00010000                2.03280164               -1.83964194                0.66111521                9.34447858               28.56620803              -14.49254822
              47.86584205               10.47143705               93.15102264                0.00010000                2.82638571               -0.81046435                3.46374188               18.44783149               56.12325573              -23.34896899
              48.87772716                5.91369396               92.27872585                0.00010000                0.15775799                0.75890190                3.96259378               18.56131520               49.70572078              -34.74715139
              49.86899721                1.35047498               91.31962333                0.00010000               -1.17817036                1.63827792                2.64280310               18.84801854               41.89182330              -49.24503438
              50.85416375               -3.21722118               90.27045576                0.00010000               -1.24219378                1.99352676               -0.17771433               18.52382411               33.18990661              -67.32930670
              51.84415333               -7.79637077               89.12749413                0.00010000               -0.15094996                1.82766362               -4.45354992               17.38048467               23.67542901              -89.47254046
              52.85114475              -12.39693735               87.88857471                0.00010000                2.36809291                0.96319118              -10.31948734               15.52849781               13.86228808             -116.07731677
              53.89151519              -17.03178694               86.55746258                0.00010000                6.74779308               -0.92639644              -17.80129459               12.59511525                5.09250455             -147.34425774
              54.98610061              -21.72509403               85.14849325                0.00010000               12.08021625               -4.22374264              -26.38282707                7.60518252                0.03288809             -183.28481818
              56.13311952              -26.50357294               83.69859826                0.44009680               14.70189026               -6.30164837              -34.48552016                4.00663685                0.43060429             -223.09509883
              50.56553246               20.74525845               95.01810058                0.44205490               -0.32067803                0.15757342                2.36373927                0.05416917               -0.02393903               19.58240851
              51.56232568               15.99947134               93.48029645                0.00010000                2.14397326               -1.09335342                0.11420983               10.31733206               37.22961362              -14.98907243
              52.60841193               11.45750571               92.68618527                0.00010000                3.18659053               -1.54762908                3.77184626               20.08800710               72.74229705              -23.78871918
              53.62605749                6.91018113               91.79543264                0.00010000                0.86779485               -0.89074095                4.52781807               19.82710535               64.87888726              -34.73324025
              54.62576783                2.35734075               90.79466337                0.00010000               -0.36111831                0.09175542                2.94988665               19.75747955               55.23644442              -48.12942682
              55.61883513               -2.20361077               89.67400983                0.00010000               -0.40367987                0.98570702               -0.60363366               19.29620452               44.11018273              -64.51018575
              56.61769423               -6.78012343               88.42647035                0.00010000                0.89666909                1.64011565               -6.07826518               18.03925173               31.85355972              -84.44798466
              57.63676851              -11.38371801               87.04939939                0.00010000                3.76779773                1.92224821              -13.61742267               15.68730570               19.33416776             -108.49295588
              58.69305018              -16.02994569               85.54959575                0.00010000                8.13358200                1.76678665              -23.22995723               11.86694736                8.40054886             -137.12631647
              59.79944015              -20.73669475               83.95051597                0.00010000               13.21108793                1.70780510              -34.31219998                6.20173067                1.63988608             -170.66059151
              60.95727194              -25.51793596               82.29607626                0.44025285               15.78317921                2.65604473              -45.34203040                3.44513829                1.18436325             -209.47850059
              55.31784362               21.74397234               94.72792985                0.44191810               -0.25447919               -0.33569978                2.41946734                0.05513689                0.14306924               19.93164586
              56.31529883               16.99218552               93.01598623                0.00010000                1.95243902               -0.42659248               -0.43618472               10.12444621               46.18385280              -15.04563932
              57.35689240               12.44048447               92.22386466                0.00010000                2.95677007               -1.67511821                3.60540911               19.78303156               89.95652827              -23.93258938
              58.37443423                7.89587914               91.32321566                0.00010000                1.05231537               -1.59557637                4.36794434               19.88409102               80.89613370              -33.84907547
              59.37793870                3.35231009               90.29385712                0.00010000                0.15588969               -0.69485318                2.45055047               19.69232197               69.63869888              -45.52400962
              60.37755202               -1.19750704               89.12069776                0.00010000                0.35534527                0.57209697               -1.77767658               18.94218366               56.49421365              -59.64390589
              61.38504561               -5.76356846               87.79281539                0.00010000                1.85805531                1.94451520               -8.27161807               17.31545849               41.89809031              -76.91969081
              62.41471313              -10.35849239               86.30581543                0.00010000                4.83926340                3.34166629              -17.18249031               14.56217647               26.90955335              -98.04859052
              63.48183088              -14.99645120               84.66718991                0.00010000                9.17061880                4.91388056              -28.50825213               10.50984319               13.48660794             -123.68730865
              64.59812550              -19.69093793               82.90241372                0.00010000               14.13369134                7.04874756              -41.64169140                5.34057025                4.24988608             -154.44026224
              65.76450470              -24.45045204               81.05774130                0.44026936               16.63792024               10.15850709              -55.06642739                2.96336720                2.47180138             -190.70139047
              60.07020884               22.73854445               94.43907844                0.44262451               -0.19063634               -0.66729898                2.40318393                0.03813657                0.22011409               19.80477444
              61.06830248               17.99093949               92.55209374                0.00010000                1.50850494                0.09975373               -0.92367600                9.13444714               55.59830111              -15.01347777
              62.10037894               13.42400335               91.77203474                0.00010000                2.18056068               -1.50876349                3.15226740               17.98151233              108.23409480              -23.40758927
              63.11191369                8.87826961               90.87689159                0.00010000                0.63107493               -1.63127105                3.75300513               18.61836571               98.18944216              -31.79907171
              64.11300044                4.34344369               89.83886301                0.00010000                0.08218278               -0.71121156                1.46671028               18.47814198               85.41826893              -41.22323092
              65.11355735               -0.19216883               88.63683700                0.00010000                0.59941547                0.83369973               -3.36166144               17.47855428               70.32017931              -52.61265589
              66.12498875               -4.74123312               87.25555707                0.00010000                2.36687191                2.77048383              -10.70964925               15.55291769               53.42716245              -66.78525914
              67.16089479               -9.31688469               85.68774952                0.00010000                5.53519210                5.06682073              -20.73262249               12.65220218               35.86768275              -84.52072919
              68.23569259              -13.93166808               83.93905431                0.00010000                9.96788030                7.87179155              -33.41162529                8.85181772               19.63851872             -106.59505630
              69.36025239              -18.59571980               82.03380033                0.00010000               14.99374583               11.47693751              -48.10738720                4.42334680                7.40074227             -133.72040614
              70.53556751              -23.31476582               80.01783730                0.44079192               17.53151153               16.13402423              -63.24828595                2.58457182                4.06682152             -166.36791107
              64.81381627               23.73062636               94.14794901                0.44238953               -0.12873980               -0.83845179                2.30480213                0.01355794                0.30094759               19.32730187
              65.81252888               18.99418059               92.08807153                0.00010000                0.76881273                0.46523268               -1.32239544                7.70180570               65.85244520              -15.02537911
              66.82919253               14.41030920               91.33899869                0.00010000                0.74161627               -1.09148573                2.54853819               15.20101588              128.19743620              -22.07868749
              67.82736120                9.86325372               90.47259874                0.00010000               -0.56262727               -1.05504603                2.88773584               16.28244218              117.22444734              -28.19814817
              68.81793998                5.33808586               89.45163879                0.00010000               -0.77806422               -0.00635335                0.23319704               16.10872076              102.82638035              -34.91855862
              69.81179992                0.81916696               88.24842700                0.00010000                0.14399186                1.72370454               -5.12428785               14.93056474               85.65085626              -43.23670583
              70.82081982               -3.70815878               86.84363145                0.00010000                2.31961032                4.02918554              -13.19226378               12.89146457               66.37227331              -53.93495258
              71.85819212               -8.25715597               85.22661249                0.00010000                5.84412634                6.90023247              -24.11705536               10.11910412               46.10872460              -67.77068240
              72.93770235              -12.83901537               83.39935290                0.00010000               10.57490300               10.44332530              -37.83126709                6.82718940               26.79450130              -85.57619089
              74.06969018              -17.46139918               81.38223202                0.00010000               15.82929179               14.86074699              -53.61446028                3.33717403               11.10043663             -108.28017506
              75.25428818              -22.12777156               79.21792385                0.44101855               18.45979997               20.39715520              -69.79198026                2.12277998                5.96679041             -136.63365006
              69.54337153               24.72177542               93.85241681                0.44179986               -0.07157788               -0.85525910                2.16184938                0.00628490                0.40865683               18.89492226
              70.54265576               20.00024414               91.62231489                0.00010000               -0.40226989                0.66319326               -1.64358671                6.23387273               77.53816066              -15.50814685
              71.53532614               15.40217363               90.93504392                0.00010000               -1.64349394               -0.19918399                1.89538903               11.97091585              150.78744165              -19.21146943
              72.50978588               10.85716869               90.12997001                0.00010000               -2.80322608                0.27590067                1.94178691               12.84716754              138.47355120              -22.31091904
              73.47926161                6.34331662               89.15598233                0.00010000               -2.56862967                1.32680882               -1.06697072               12.43926225              121.92739677              -26.17037860
              74.45841328                1.84230526               87.98160965                0.00010000               -1.00603213                3.10016838               -6.91799530               11.20111737              102.46052576              -31.32378054
              75.45914097               -2.66064941               86.58561883                0.00010000                1.78600898                5.56757538              -15.63551613                9.34512728               80.80026095              -38.33788471
              76.49413346               -7.17888004               84.95466373                0.00010000                5.86693082                8.72918242              -27.33895003                7.00609850               57.88940224              -47.81262624
              77.57647959              -11.72280157               83.08585314                0.00010000               11.08092976               12.61626954              -41.87628837                4.44492661               35.35089892              -60.51075867
              78.71575206              -16.29850486               80.99123015                0.00010000               16.71441363               17.31211327              -58.37425835                2.04073360               15.66294772              -77.70259458
              79.91076786              -20.90682272               78.70513564                0.44095720               19.50158032               23.03834129              -74.99592482                1.56928927                8.37937187             -101.26027333
              74.25700452               25.71352118               93.55522288                0.44227749               -0.01964009               -0.75592072                2.00198815               -0.00161113               -0.36293666               16.23642148
              75.25680812               21.00744446               91.14741178                0.00010000               -2.26591070                0.72614434               -1.90977035                5.29349699               91.75820730              -14.28942432
              76.21168630               16.40632552               90.58279349                0.00010000               -5.68232762                2.04310593                1.34619606                7.56356000              177.66569095              -12.34945054
              77.14316156               11.86877173               89.87689037                0.00010000               -6.50488245                2.16663516                1.16604563                7.66244102              161.77105411              -13.05564564
              78.08158865                7.36462204               88.97851266                0.00010000               -5.16866337                3.02743909               -2.22266371                7.00327162              142.22891362              -14.49791490
              79.03978830                2.88117033               87.86244628                0.00010000               -2.63404959                4.67490252               -8.61209996                6.12653590              120.42992125              -16.77027816
              80.02890766               -1.59680727               86.50858184                0.00010000                1.03389769                7.13784376              -18.01456408                4.92073945               96.71116274              -20.13849239
              81.06046625               -6.08257232               84.90281617                0.00010000                5.86590200               10.40659831              -30.50606683                3.47177002               71.70679461              -24.92364957
              82.14622570              -10.58668998               83.03840691                0.00010000               11.70298753               14.44138814              -45.84752467                1.95697411               46.38697966              -31.60361319
              83.29452600              -15.11515692               80.91459164                0.00010000               17.80419890               19.15769563              -62.94902166                0.74763298               22.02343301              -41.16350992
              84.50230968              -19.66700473               78.53827636                0.44138387               20.77836796               24.57016538              -79.56150214                1.08581306               11.82362792              -57.37573637
              78.95549275               26.70665700               93.20754515                0.72113912                0.02286051               -0.68641762                1.83012007                0.65982615                7.39025479               13.74292249
              79.95572135               22.01476703               90.70662084                0.43984213               -6.51113424                0.73225713               -2.12218427                6.71026124              113.97380258              -12.72726783
              80.82527006               17.44303575               90.33883721                0.43846640              -12.54915872                3.67102302                1.46169451                5.64509414              207.73309704               -7.46084867
              81.70473818               12.90050139               89.74926601                0.43861367              -10.91708065                3.17296581                1.05587520                4.19914426              184.92796889               -7.79881467
              82.60692845                8.40386540               88.94792858                0.43860334               -8.11824355                3.92433648               -2.87153511                4.29907585              162.48468029               -8.36382747
              83.54237331                3.93580331               87.91535762                0.43869818               -4.28150203                5.46329834              -10.00699952                4.17060439              138.80419762               -9.34267887
              84.52129841               -0.51789254               86.63575059                0.43873217                0.55391319                7.89147339              -20.27541859                3.91150590              113.89813209              -10.80654487
              85.55345157               -4.97074807               85.09704109                0.43816993                6.34526255               11.18242525              -33.71175568                3.49446885               88.05220638              -12.89684283
              86.64820366               -9.43397381               83.29219003                0.43905203               12.87839469               15.27161740              -50.04564901                2.96765221               61.86699637              -15.87434536
              87.81101947              -13.91535095               81.21673373                0.43999965               19.39880462               19.98059670              -68.11104761                2.57706660               34.19598365              -20.26995795
              89.03617975              -18.41541941               78.82988914                0.72057823               22.51602881               25.15853220              -84.97890832                3.38016138               21.33794700              -30.88058211
              32.71296684               17.18934078               97.31980222                0.72122805               -0.36065273               -0.40575759                2.22370016               -0.05422310               -6.89039675                7.34867472
              33.70936031               12.40587962               96.32115192                0.44022206                1.00818614               -0.63556980                1.50915784                1.32915827               -7.80653114               -6.14376301
              34.73313056                7.65685430               95.30013090                0.43866764                2.01444047               -0.06032700                1.17737421               -0.14781038               -5.42464919               -0.07032433
              35.74964912                2.95806683               94.32736386                0.43869792                1.34720570                0.08562572                0.86219401               -0.09861224               -2.14811621               -0.41558320
              36.76007468               -1.71049532               93.35943365                0.43900178                0.79251668                0.30528394                0.60021883               -0.15842374               -1.58123535               -0.17615105
              37.76549946               -6.36428127               92.39316699                0.43904204                0.39364672                0.51260252                0.32317988               -0.19433990               -1.73200044               -0.07215370
              38.76794761              -11.01595715               91.42292576                0.43925136                0.19679063                0.71759443                0.01179561               -0.22832462               -2.56983862               -0.02163715
              39.76943527              -15.67433523               90.44437282                0.43942055                0.17608989                0.91997831               -0.33461909               -0.26044277               -3.91105099               -0.00415638
              40.77146941              -20.34487681               89.45410134                0.43981037                0.24344322                1.11775639               -0.69498484               -0.27732605               -5.79528946               -0.06760170
              41.77430413              -25.03108737               88.44572641                0.44165978                0.29565241                1.29936102               -0.99841406               -0.23204414               -6.76388838                0.38136300
              42.77738246              -29.73675956               87.44410604                0.72161672                0.30783244                1.43998325               -1.41418220                1.06076629               -6.83249581               -4.27415107
              37.49588577               18.18528320               96.92357119                0.44087612               -0.69906308                1.11264725                2.00693590                1.69736182                6.20612037               13.27932481
              38.48889514               13.39952392               95.92248887                0.00010000               -2.01634568               -2.21362540                1.27099600                3.84231792               14.15422623              -11.46254439
              39.45555885                8.65625103               95.08016615                0.00010000               -2.82786620                2.70660965                0.24714797                9.93983358               19.27517906              -10.82021571
              40.43233781                3.95892309               94.20345524                0.00010000               -1.79471796                3.68979006               -0.80200817               13.07553861               16.86730918              -15.05029757
              41.41966449               -0.70744249               93.32802567                0.00010000               -0.80254216                3.73247000               -1.95009418               14.20873393               16.34636543              -21.86270154
              42.41628697               -5.35915525               92.44934817                0.00010000                0.05134251                3.19264142               -3.10924094               14.00980990               15.77607794              -31.40858967
              43.42069134              -10.00878120               91.56664828                0.00010000                0.75018504                2.17330354               -4.27837792               12.97295927               15.20497662              -43.89920822
              44.43129067              -14.66513545               90.67817619                0.00010000                1.31904381                0.54710343               -5.45795872               11.65154859               14.45356541              -59.56333914
              45.44707222              -19.33369924               89.78106025                0.00010000                1.83172001               -2.06898350               -6.64952208               10.89456091               13.53200708              -78.41643950
              46.46792507              -24.01809376               88.87472734                0.00010000                2.32950440               -6.26582245               -7.80412252               12.16672396               10.92314655              -99.89347897
              47.49366231              -28.72235973               87.92684931                0.44110186                2.57372382              -16.89431490               -8.64797068               19.96561362                8.71101618             -124.60633156
              42.31843264               19.21159373               96.64170260                0.44005416               -0.31937898                2.16903014                2.00405905                0.14659956               -1.18655570               18.89240842
              43.31523885               14.36160711               95.41755978                0.00010000                2.70477156               -3.35925880                0.98103063               10.30974494               21.42890355              -16.02209741
              44.37252807                9.71098649               94.64295975                0.00010000                2.98072815                2.67208546                3.08187683               24.47043553               42.79393478              -19.94819709
              45.37485341                5.03186264               93.78602181                0.00010000               -0.51001856                5.03569576                3.26068197               26.56199776               36.56524972              -28.91805111
              46.36232770                0.36415408               92.86297042                0.00010000               -1.39095184                5.37023610                2.23374569               28.26901860               31.07260271              -42.97996746
              47.34703437               -4.30042845               91.87995784                0.00010000               -1.44703498                4.65858066                0.38375473               27.95189859               25.52911167              -62.08740594
              48.33338700               -8.97249108               90.83505800                0.00010000               -0.98250472                3.05649621               -2.28022372               26.04666978               19.16315864              -86.70065042
              49.32738428              -13.66339316               89.72410003                0.00010000                0.44659735                0.28605894               -6.09129925               23.15920259               11.85080912             -117.35738215
              50.34231894              -18.38625648               88.54536691                0.00010000                3.94574110               -4.34441139              -11.44664656               20.25051339                4.33813275             -154.32475168
              51.40629910              -23.15640382               87.30355184                0.00010000               12.14538585              -12.51644397              -18.24370389               14.59601744               -1.54618559             -197.29333526
              52.58522666              -28.07464586               86.00980109                0.43843863               17.89275603              -26.26999290              -25.02859502               14.57983485               -0.35240819             -246.24325163
              47.19879098               20.22866381               96.33444723                0.44012240               -0.30937117                1.23003198                2.08481883                0.16612196               -0.16135661               18.98485313
              48.19569727               15.33233875               94.95167569                0.00010000                3.79605315               -2.38341626                0.54646259               13.88571655               31.02893460              -15.09635303
              49.27471204               10.70969274               94.19081421                0.00010000                5.73564584               -1.05987399                4.47645452               27.58853883               61.25414075              -20.98862612
              50.31041019                6.05963701               93.32610351                0.00010000                2.13119525                1.03660312                5.38416985               28.12748111               54.04795474              -30.77840958
              51.31733595                1.39996224               92.35495628                0.00010000                0.07799544                2.06638008                4.23041231               29.26182365               45.95475533              -44.53827400
              52.31197009               -3.26598364               91.27822172                0.00010000               -0.63732452                2.36143817                1.61264868               29.52942399               37.03330480              -62.51866335
              53.30458946               -7.94765128               90.09240231                0.00010000               -0.18649868                1.96476005               -2.47283959               28.38855984               26.75773088              -85.22417245
              54.30824012              -12.65941427               88.79270638                0.00010000                2.02518459                0.61609842               -8.52537801               25.82740017               15.35536616             -113.24479094
              55.34509315              -17.42058747               87.38099498                0.00010000                6.99973418               -2.20065637              -17.09355214               21.18927739                4.61403475             -147.05575544
              56.44823480              -22.26842264               85.87607513                0.00010000               13.83249651               -7.13797067              -27.99656049               12.88734824               -1.28613121             -187.12441863
              57.62174308              -27.24775959               84.33252541                0.43802581               17.35082757              -10.37444454              -39.30335797                6.49298803               -0.45256329             -233.36991737
              52.11440519               21.23619437               96.04101008                0.43984985               -0.24809463                0.33668155                2.22732119                0.12013823                0.00678721               20.17114772
              53.11192425               16.31393879               94.48097843                0.00010000                4.12976967               -1.34748909                0.01473772               15.08051183               40.54815793              -15.67817562
              54.19700059               11.68978901               93.73017947                0.00010000                6.76046439               -2.28488866                4.94733700               29.46784424               79.49300071              -22.21565161
              55.24713353                7.05259470               92.84990824                0.00010000                3.80921131               -1.60030046                6.12707328               29.27031862               70.74075683              -31.79975392
              56.27318481                2.40548168               91.83446221                0.00010000                1.90514175               -0.46392501                4.68487795               29.68568746               60.90587804              -44.46559284
              57.28523637               -2.25319968               90.67862773                0.00010000                1.07020078                0.53437987                1.28659173               29.61371489               49.64402285              -60.62572992
              58.29458883               -6.93319588               89.37563281                0.00010000                1.58160514                1.20347040               -4.09089316               28.26969510               36.61236060              -80.89941880
              59.31686847              -11.65107119               87.91983740                0.00010000                4.02620190                1.36405439              -12.03538983               25.06579768               22.37002950             -106.02358150
              60.37511287              -16.43026960               86.31597412                0.00010000                8.71748559                0.92148981              -23.17720750               19.32060200                9.25704449             -136.79622268
              61.49121818              -21.29916324               84.59258459                0.00010000               14.93237220                0.67708760              -37.33328303               10.33816315                1.20061600             -173.97248523
              62.67376031              -26.28213475               82.81011699                0.43888666               18.25421261                2.15509038              -52.78809173                5.45480902                0.78200466             -218.51404168
              57.04570490               22.23539744               95.75169022                0.43995226               -0.19920385               -0.37892631                2.31786629                0.09727810                0.18547684               20.38354685
              58.04371286               17.30538897               94.01135063                0.00010000                3.98540617               -0.46164712               -0.49019718               14.57627176               50.03691358              -15.65067049
              59.12541302               12.66399497               93.26678948                0.00010000                6.82055182               -2.63426317                4.84087197               28.54919115               97.72223754              -22.94601590
              60.18012389                8.02763100               92.37673443                0.00010000                4.57155294               -2.88195123                6.01076311               28.76916726               87.70932590              -31.75801485
              61.21684408                3.39068374               91.32918102                0.00010000                3.13990258               -1.95671836                4.20374983               28.85891718               76.31196203              -42.70193365
              62.24292195               -1.25529604               90.11379691                0.00010000                2.55053971               -0.52024852                0.08694454               28.24052871               63.09624441              -56.45702522
              63.26785487               -5.92358187               88.71968349                0.00010000                3.18539276                1.06182649               -6.40902886               26.29271909               47.73725955              -73.82636075
              64.30662980              -10.63213318               87.13919228                0.00010000                5.58711800                2.69533667              -15.92770299               22.51872565               30.96546790              -95.68720423
              65.37959723              -15.40215767               85.37766579                0.00010000               10.01167073                4.63493201              -29.13830271               16.54847200               15.18838003             -122.95483685
              66.50686322              -20.25488089               83.46548331                0.00010000               15.85925283                7.52394488              -45.90853074                8.57288934                4.31927244             -156.54813558
              67.69678229              -25.20465778               81.46517158                0.43876671               18.99190734               12.12714324              -64.57648461                4.52670243                2.32030972             -197.08437551
              61.97636770               23.22861584               95.46266021                0.44042270               -0.15155425               -0.83800406                2.28996045                0.08674533                0.28038755               20.04050052
              62.97485215               18.30470585               93.54297847                0.00010000                3.46873405                0.19204682               -0.89175594               12.94612399               59.70322202              -15.43198811
              64.04574238               13.63710375               92.81085328                0.00010000                6.04879769               -2.62805508                4.43741606               25.54838178              116.48105616              -22.85084130
              65.09582811                8.99495567               91.92462990                0.00010000                4.37739069               -3.28668327                5.42769288               26.50678831              105.47267876              -30.39979149
              66.13329019                4.36634731               90.86461173                0.00010000                3.42422217               -2.44017933                3.24527299               26.59373605               92.58740120              -39.12064623
              67.16431255               -0.26360465               89.61413162                0.00010000                3.19950808               -0.70635269               -1.49721536               25.52555506               77.42730168              -50.02865992
              68.19728035               -4.91195935               88.15761406                0.00010000                4.07531174                1.57693808               -8.92386046               23.07953534               59.74571534              -64.07085467
              69.24581879               -9.59716446               86.48438017                0.00010000                6.57748313                4.38909737              -19.70863278               19.08476798               40.33621155              -82.17719728
              70.32883002              -14.33757096               84.59800459                0.00010000               10.96786455                8.00028250              -34.52386806               13.56474717               21.63681370             -105.28767453
              71.46517608              -19.14868434               82.52799456                0.00010000               16.75090599               12.90743330              -53.21289540                6.88602332                7.60712204             -134.25449770
              72.66384814              -24.03959189               80.33708371                0.43917845               19.86720584               19.55453620              -74.03097346                3.80941527                3.96418035             -169.56208831
              66.89525979               24.21863736               95.17039395                0.43942485               -0.11123590               -1.01729674                2.16578726                0.09038857                0.37692858               19.39316359
              67.89414743               19.30922990               93.07558226                0.00010000                2.54355213                0.56972776               -1.17103543               10.70720194               69.97315488              -15.26119428
              68.94613083               14.61143386               92.37222383                0.00010000                4.34343366               -2.36638342                3.91635255               21.22036359              136.49289501              -21.88214946
              69.98101610                9.96189733               91.51204608                0.00010000                3.05741485               -2.93879012                4.63381557               22.87199902              124.59445940              -27.42625282
              71.00727913                5.34188015               90.46533382                0.00010000                2.53618016               -1.99328934                2.08777748               22.91634886              110.08355477              -33.50524607
              72.03173970                0.73057691               89.20821866                0.00010000                2.78631310               -0.06618028               -3.19432924               21.53630338               92.79679092              -41.27991285
              73.06300539               -3.89204311               87.72064511                0.00010000                4.10985368                2.65743108              -11.39210268               18.86889073               72.65273623              -51.68066529
              74.11393678               -8.54435123               85.98860805                0.00010000                6.97033333                6.19696371              -23.18041278               15.04868340               50.46877677              -65.57406979
              75.20241205              -13.24215202               84.01251740                0.00010000               11.63339143               10.76961206              -39.18049504               10.32771618               28.64597360              -83.84933941
              76.34660461              -17.99673223               81.81881960                0.00010000               17.61868172               16.72647125              -59.13511833                5.13924105               11.18222574             -107.42130675
              77.55478569              -22.81356706               79.46827228                0.43909109               20.81810831               24.42741181              -81.14738504                3.05108923                5.77161648             -136.94892718
              71.79699038               25.20826990               94.87331822                0.43988166               -0.07906890               -0.95676291                1.97111163                0.07732904                0.45518925               18.86153875
              72.79619969               20.31610040               92.60730772                0.00010000                1.02459225                0.69040556               -1.33301425                8.39846671               81.50467063              -15.60300281
              73.81748222               15.58977608               91.96227076                0.00010000                1.33110581               -1.56951172                3.38186454               16.28747908              158.83378806              -19.36803755
              74.82282180               10.93617987               91.16032426                0.00010000                0.27276866               -1.63250229                3.78697013               17.87404758              145.64167218              -22.12617688
              75.82293759                6.32648152               90.15695641                0.00010000                0.30700383               -0.68122186                0.89015935               17.62487188              128.93546721              -25.44269336
              76.82896188                1.73507174               88.92359803                0.00010000                1.33243583                1.26883952               -4.89502761               16.09820651              109.22771501              -30.06449658
              77.84958631               -2.85881073               87.43805799                0.00010000                3.39697441                4.15516643              -13.77994699               13.62032753               86.56985186              -36.71771803
              78.89690137               -7.47322519               85.68387861                0.00010000                6.90895103                8.02508367              -26.41388898               10.39973981               61.66150758              -46.06136947
              79.98776533              -12.12217872               83.65751385                0.00010000               12.12372821               13.00019707              -43.31753309                6.77064619               36.65674837              -58.83109789
              81.13937593              -16.81415491               81.37878092                0.00010000               18.53871255               19.26099568              -64.04098563                3.21555905               15.40179011              -76.14696441
              82.35853958              -21.55104365               78.90193507                0.43930786               21.91636504               27.11137661              -86.48062343                2.21757718                7.97296088              -99.61479381
              76.68114537               26.19950210               94.57427971                0.43988868               -0.05347856               -0.76385729                1.73253650                0.04308837               -0.33460639               16.17567818
              77.68061058               21.32303801               92.13068441                0.00010000               -1.46722142                0.63957464               -1.38505575                6.73298080               95.53687642              -14.29889694
              78.65180094               16.58004363               91.60504372                0.00010000               -3.94094873                0.91148702                2.94872290                9.93189841              185.33701941              -12.67486690
              79.60179161               11.92924729               90.89979916                0.00010000               -4.54581243                0.55711556                3.09667443               10.61011997              168.54463119              -13.26136347
              80.56088469                7.32825571               89.96803417                0.00010000               -3.13977640                1.26096244               -0.20555236                9.97848489              148.60438253              -14.31175738
              81.53899608                2.75595370               88.78734992                0.00010000               -0.85879130                3.00036511               -6.55940582                8.84560411              126.33238200              -16.20637842
              82.54370887               -1.80893978               87.33675210                0.00010000                2.31517441                5.81978461              -16.17492930                7.20850263              101.42928969              -19.30844082
              83.58529957               -6.38384956               85.59944967                0.00010000                6.75229194                9.76697547              -29.65942313                5.21216513               74.31569977              -23.95398163
              84.67875471              -10.98214808               83.56896217                0.00010000               12.72405727               14.87151176              -47.43792446                3.08525022               46.58236847              -30.56561741
              85.83978071              -15.61151231               81.25472144                0.00010000               19.70799992               21.09085194              -68.79368144                1.28870303               21.05752628              -39.97443470
              87.07291470              -20.27133952               78.68823517                0.43933395               23.31339889               28.47185678              -91.09261972                1.46979096               11.00440191              -55.37922508
              81.55078031               27.19299276               94.22499895                0.71985603               -0.04625389               -0.65093406                1.58437794                0.55340789                7.42262892               13.71992523
              82.55031777               22.32889190               91.68857467                0.43840606               -7.04346971                0.58538804               -1.43358240                7.72137202              117.90492677              -12.73573532
              83.40991092               17.60800582               91.36303972                0.43795400              -13.17528265                2.79621920                3.21424810                6.73251197              215.46576655               -8.26977079
              84.28681212               12.94732218               90.77147956                0.43847007              -10.70550185                1.80748957                3.04538388                5.68679854              190.91168494               -8.48104381
              85.19580088                8.35170077               89.93081320                0.43889717               -7.18713317                2.34450592               -0.90274503                5.87946185              167.54429143               -8.79889083
              86.14306946                3.79507904               88.82557595                0.43849904               -3.11206286                3.91253455               -8.10267388                5.70154725              143.10193521               -9.55138108
              87.13355962               -0.74241503               87.43999117                0.43839552                1.56417574                6.65247487              -18.67226757                5.33683958              116.83959422              -10.85399208
              88.17435297               -5.27788568               85.75964211                0.43798992                7.17867320               10.59638835              -33.19648558                4.78866746               88.73218107              -12.82007898
              89.27713309               -9.82474849               83.77794857                0.43765332               13.99942321               15.73995953              -52.10366869                4.11522825               59.99594662              -15.63200716
              90.45434144              -14.39233788               81.50137004                0.43858417               21.52283696               21.91744364              -74.62584405                3.61317062               31.45252108              -19.69904017
              91.70758983              -18.98160651               78.92161183                0.71975947               25.32483910               28.97330095              -97.21164258                4.54064833               19.06156831              -29.05828640
              33.64679289               17.65966445               98.33955337                0.72001876               -0.14522856               -0.18165416                1.71065896                0.04621168               -6.77091055                7.22205000
              34.64534061               12.74466060               97.33462271                0.43927854                1.70561664               -0.65167738                1.17504089                2.02573501               -7.46558497               -6.06161205
              35.68090523                7.88032869               96.31127868                0.43821799                2.93299161                0.05995335                1.03330925               -0.02059612               -4.70400113               -0.17940263
              36.70400044                3.08618108               95.33625210                0.43881307                1.79364968                0.13659490                0.89051665                0.04041383               -1.37513688               -0.40632343
              37.71677822               -1.66784641               94.36653948                0.43907123                0.88300284                0.30760307                0.78193786               -0.04184754               -0.81610127               -0.14822307
              38.72166050               -6.40361006               93.39835504                0.43901806                0.24484849                0.45810979                0.65930755               -0.10430153               -1.01928940               -0.03229001
              39.72167519              -11.13797554               92.42588874                0.43867372               -0.10204757                0.60980668                0.51574065               -0.17849602               -1.90649638                0.02933101
              40.71961955              -15.88206931               91.44482243                0.43840948               -0.20011790                0.75733124                0.35154594               -0.24220243               -3.27883712                0.04553482
              41.71767283              -20.64235611               90.45188854                0.43790563               -0.15433133                0.90020183                0.18007237               -0.28458565               -5.13580529               -0.03461963
              42.71653292              -25.42218910               89.44156244                0.43878849               -0.09959009                1.03078419                0.09210029               -0.24029566               -6.11464949                0.34365307
              43.71568103              -30.22400478               88.43684727                0.72003145               -0.08518896                1.09270488               -0.11305941                1.17598159               -6.20395396               -3.88409585
              38.56225886               18.65784791               97.94175771                0.43881561               -0.69930198                1.86841292                1.64093430                2.44422789                6.09091822               13.27362514
              39.55526584               13.73814383               96.93414402                0.00010000               -2.61599184               -2.90125927                1.07225622                5.55564606               13.82771629              -11.43767782
              40.50993902                8.88092822               96.08163677                0.00010000               -3.83868562                4.18871581                0.08086293               14.75056547               18.49254431               -8.78924782
              41.47849213                4.08754703               95.19502796                0.00010000               -2.43418550                5.39063596               -0.86473107               19.77321987               15.93468497              -11.88394514
              42.46125531               -0.66477038               94.30866949                0.00010000               -1.14050427                5.29458202               -1.86877830               22.10270683               15.32290642              -18.15842915
              43.45568204               -5.39902896               93.41908561                0.00010000               -0.10677284                4.47535406               -2.86884225               22.56199822               14.73227807              -27.56091326
              44.45911986              -10.13187747               92.52541653                0.00010000                0.68528827                3.07658989               -3.90050269               21.61735558               14.13043574              -40.29608406
              45.46938781              -14.87449600               91.62568793                0.00010000                1.28835069                0.87048225               -4.97151170               19.81967469               13.35249769              -56.82496779
              46.48488687              -19.63335409               90.71712323                0.00010000                1.77832436               -2.77457035               -6.07270275               18.26219738               12.43295037              -77.48969111
              47.50495430              -24.41188126               89.79958667                0.00010000                2.21848239               -8.86226440               -7.17272215               19.19680289                9.99624798             -101.79386393
              48.52925652              -29.21307773               88.84394525                0.43858101                2.43022232              -24.92196749               -7.89508384               29.12803914                7.93470121             -129.40101125
              43.53508562               19.69703271               97.66026545                0.43839144               -0.17123967                3.16812723                1.71233157                0.22242658               -1.34331473               19.28949127
              44.53337322               14.68663542               96.42670723                0.00010000                4.57138571               -4.47184785                0.86491577               14.86078081               23.00651567              -16.46964137
              45.62651333                9.96410300               95.67700958                0.00010000                5.58951102                4.17582921                3.71781815               35.69582029               46.43680990              -15.82454471
              46.64516344                5.19399380               94.82308625                0.00010000                0.94475080                7.33461502                3.96873407               39.49971358               39.64235081              -22.78852011
              47.64540835                0.43804523               93.89048857                0.00010000               -0.25779462                7.64940489                2.97127510               43.33110059               34.46372522              -35.91074668
              48.64000755               -4.31410297               92.89031885                0.00010000               -0.79595023                6.63823130                1.45527722               44.36064054               29.41413139              -54.75297648
              49.62948934               -9.07644374               91.82060615                0.00010000               -1.12589430                4.52242210               -0.59612258               42.75733704               22.93341936              -79.79567787
              50.61748966              -13.86465967               90.67236935                0.00010000               -0.45936503                0.84627328               -3.88349554               38.94339105               14.26059889             -112.03771027
              51.62030204              -18.69784752               89.43755588                0.00010000                3.13514753               -5.50775823               -9.48635750               34.03827722                4.25603389             -152.44764659
              52.68019261              -23.59943439               88.12016724                0.00010000               14.01663518              -17.23669479              -17.96786608               23.96483267               -3.64135916             -201.21533524
              53.90063475              -28.72244413               86.74766951                0.43685827               22.04421326              -37.91047294              -27.62071104               21.79458455               -2.01239413             -259.77301060
              48.58750198               20.72121046               97.35425876                0.43798646               -0.20908156                1.72028511                1.88904730                0.28193622               -0.17689997               19.54970629
              49.58541117               15.64870687               95.95659326                0.00010000                6.44975311               -3.02012671                0.43797254               19.69902922               34.00867070              -15.85524353
              50.71649704               10.96444480               95.24055173                0.00010000               10.45665052               -1.34428008                5.34306899               39.41806323               67.68708798              -18.18466726
              51.79454418                6.23423933               94.38640925                0.00010000                5.97385299                1.47806640                6.23109710               40.75996809               60.08234142              -26.13936125
              52.83597410                1.48821771               93.40423158                0.00010000                3.14198218                2.78794666                4.97935147               43.46269452               52.76082285              -39.01581215
              53.85738382               -3.26626433               92.30270873                0.00010000                1.44245933                3.12012082                2.71941608               45.04453468               44.81904084              -56.66256697
              54.86482329               -8.04142903               91.07803734                0.00010000                0.61377946                2.55253793               -0.60991908               44.39681155               34.54454589              -79.64472217
              55.86965941              -12.85757053               89.71806715                0.00010000                1.78019254                0.69920604               -6.10850902               41.21289496               21.33890348             -108.91687510
              56.90042714              -17.74350926               88.21559154                0.00010000                6.95940748               -3.23467147              -15.35094172               34.30486045                7.27824950             -145.54982290
              58.00884756              -22.75661516               86.58856204                0.00010000               15.53702700              -10.30591235              -29.15333284               21.06695300               -1.28015292             -190.97947456
              59.21116768              -27.97128719               84.91253110                0.43680743               20.23201223              -14.92094165              -45.47176365               10.39342198               -0.94574153             -246.61132765
              53.68573151               21.73143841               97.06264701                0.43808618               -0.16120542                0.43913475                2.09150300                0.21596486                0.04603475               20.67901043
              54.68411946               16.62623288               95.48059120                0.00010000                7.18053118               -1.57673986               -0.08832977               21.06528304               44.46891721              -16.46996723
              55.82934213               11.93721740               94.78513201                0.00010000               12.62352179               -3.17772303                5.77082202               41.33892766               87.76921544              -20.39726158
              56.93658989                7.22355513               93.91797410                0.00010000                9.29118844               -2.41210740                6.81352756               41.41358968               78.66623925              -28.37101767
              58.01516590                2.49380416               92.88836093                0.00010000                6.69775464               -1.00479093                5.19900998               42.79428382               69.95633001              -40.04177101
              59.07054498               -2.25170056               91.69974166                0.00010000                4.67829363                0.20564506                2.14823307               43.61967387               60.01168856              -55.67203241
              60.10873177               -7.02539298               90.34465249                0.00010000                3.66414033                0.96760533               -2.48914287               42.52985741               47.14190736              -75.96431884
              61.14382779              -11.85067555               88.80869160                0.00010000                4.83560501                1.03956424              -10.03056947               38.46164058               31.01430978             -101.96745885
              62.20544388              -16.76254095               87.08605160                0.00010000                9.27409059                0.29654267              -22.29971686               30.20016099               14.29237121             -135.04532904
              63.32930960              -21.80555264               85.20385031                0.00010000               16.62016843               -0.03477261              -40.26796235               16.49177952                2.79262155             -176.77425035
              64.53784724              -27.02086296               83.24031442                0.43738186               20.85376410                2.60904581              -62.40306551                8.48730218                1.19438358             -229.16265327
              58.80223234               22.72999315               96.77428717                0.43802833               -0.12945015               -0.53938379                2.20046620                0.19032071                0.26217359               20.66483994
              59.80093784               17.61717207               95.00618229                0.00010000                7.18605041               -0.40823913               -0.55406161               20.04757950               54.46828252              -16.26510271
              60.94595335               12.90089034               94.32068210                0.00010000               13.26456861               -3.78326138                5.55570770               39.39158061              107.00397679              -21.76782956
              62.06622921                8.18599718               93.44343092                0.00010000               11.05810604               -4.42965022                6.51585773               39.91252381               96.68507162              -29.18738756
              63.16711547                3.46812190               92.37793212                0.00010000                9.13726133               -3.44631010                4.53624916               40.59661138               86.58427852              -39.05388053
              64.24897444               -1.26215143               91.12243665                0.00010000                7.36399785               -1.77316101                0.77444689               40.41786257               74.85157348              -52.07012793
              65.31439543               -6.02207692               89.66463481                0.00010000                6.35328751                0.08905705               -5.02941910               38.31474554               59.73227372              -69.17668755
              66.37604019              -10.83677925               87.98726137                0.00010000                7.24560138                2.04155741              -14.31710046               33.39496110               41.04015646              -91.51476664
              67.45930745              -15.73757840               86.08442386                0.00010000               11.04824870                4.51338830              -29.02389311               24.94196204               21.43180680             -120.42251774
              68.59700516              -20.75731061               83.98424311                0.00010000               17.61134567                8.57032973              -50.24350470               13.12391201                6.63061384             -157.35621197
              69.81153437              -25.91910627               81.76621161                0.43758014               21.45292053               15.58773354              -76.52523131                6.76171274                3.10350026             -203.29097879
              63.91518008               23.72065074               96.48487765                0.43793476               -0.10062244               -1.10807634                2.15056129                0.17903052                0.38380170               20.07789778
              64.91417385               18.61806810               94.53425863                0.00010000                6.65842787                0.37276920               -0.86391737               17.50628460               64.29947617              -15.80056822
              66.04834863               13.86155217               93.86078306                0.00010000               12.67174811               -3.98208090                5.10068361               34.67636426              126.10674698              -22.04957558
              67.16760881                9.13496213               92.98544545                0.00010000               11.34490557               -5.34814401                5.86966290               36.16184859              114.84975458              -28.46468836
              68.27524675                4.42487796               91.90376847                0.00010000               10.07461193               -4.62428160                3.56133335               36.70985645              103.32750327              -36.11484880
              69.36910105               -0.28716378               90.60689269                0.00010000                8.72038789               -2.68731371               -0.79436738               35.74801054               89.67704425              -46.15881488
              70.44965450               -5.02361184               89.07707986                0.00010000                7.90637212               -0.00695482               -7.55840802               32.82045537               72.21804478              -59.71125081
              71.52722850               -9.80984440               87.29357687                0.00010000                8.75799869                3.43217207              -18.23073986               27.54969195               50.82082892              -77.89848542
              72.62481448              -14.67227318               85.24857695                0.00010000               12.30436072                8.10334914              -34.77174092               19.84005844               28.15163913             -101.91357700
              73.77331571              -19.63414604               82.96954242                0.00010000               18.59291716               14.83494676              -58.25288814               10.18697749                9.99891649             -132.84933123
              74.99667282              -24.70910829               80.53721783                0.43768824               22.33571106               24.37524041              -87.06036036                5.46781486                4.75193273             -171.19798760
              69.01097823               24.70783162               96.19126476                0.43811699               -0.08161313               -1.27651524                1.98227263                0.14539548                0.45281812               19.19385720
              70.01016209               19.62462746               94.06465082                0.00010000                5.58041902                0.75069196               -1.01466905               14.15199371               74.45697010              -15.36158722
              71.12258661               14.82124873               93.41732574                0.00010000               10.79891516               -3.97795931                4.63876450               28.25217868              145.96785512              -21.37453493
              72.22614040               10.07903430               92.56527505                0.00010000               10.04259483               -5.40350268                5.15734759               30.73562006              133.90389566              -26.08222578
              73.32343850                5.37563626               91.49339434                0.00010000                9.31420237               -4.65577774                2.54996036               31.22592173              120.76892699              -31.18847929
              74.41242444                0.68410229               90.18454041                0.00010000                8.50233248               -2.54760797               -2.30484039               29.74563303              104.93058787              -38.08211410
              75.49348515               -4.02221602               88.61578939                0.00010000                8.16354618                0.62505376               -9.84964244               26.41824089               84.92031709              -47.87042578
              76.57569537               -8.76813581               86.76300423                0.00010000                9.34625582                4.94476773              -21.58763959               21.36919323               60.67688712              -61.54485828
              77.68041027              -13.57551142               84.61574300                0.00010000               13.09422253               10.82024404              -39.42018917               14.87109513               34.85234511              -80.08024867
              78.83757982              -18.46061167               82.19952965                0.00010000               19.52024427               18.84000299              -64.29223984                7.49804411               13.32342080             -104.40237615
              80.07081515              -23.43160146               79.59497615                0.43771708               23.32353350               29.50134000              -94.35620778                4.26331906                6.38850204             -135.05167218
              74.08449632               25.69512043               95.89183904                0.43819882               -0.06996930               -1.12388032                1.68280483                0.12238892                0.49956382               18.46946643
              75.08379662               20.63308194               93.59565461                0.00010000                3.72445216                0.77860558               -0.98103352               10.67460466               85.67861878              -15.45364894
              76.15898536               15.78199299               93.00268121                0.00010000                7.20685261               -3.45947514                4.25356916               21.02677352              167.80462743              -19.21283345
              77.22793368               11.02689207               92.20570941                0.00010000                6.78559145               -4.33225703                4.48896872               23.73463797              154.55618968              -21.43225751
              78.29469719                6.33176240               91.17378552                0.00010000                6.69661594               -3.55530844                1.58702110               23.88395132              139.19676772              -23.94665617
              79.36186600                1.66188406               89.88370910                0.00010000                6.77801167               -1.45187299               -3.73953812               22.12101965              120.79225631              -27.77520339
              80.43025742               -3.01111076               88.31001989                0.00010000                7.30208841                1.86533788              -11.97396278               18.95377278               98.12446989              -33.83232394
              81.50790776               -7.71094904               86.42638595                0.00010000                9.22274120                6.53601755              -24.58445044               14.70586345               71.08550683              -42.82896056
              82.61471225              -12.45586830               84.21950248                0.00010000               13.57294351               12.85371821              -43.35293262                9.78970465               42.15324614              -55.46034966
              83.77936663              -17.25734598               81.71041044                0.00010000               20.46032652               21.16884734              -68.99232091                4.78052578               17.09943019              -72.66250517
              85.02391878              -22.11908149               78.97552317                0.43771545               24.45521439               31.86677338              -99.39137374                3.05420376                8.31666020              -95.72503451
              79.13750299               26.68535402               95.58987361                0.43776116               -0.07213585               -0.77516970                1.32549587                0.09943307               -0.27676451               15.79504575
              80.13678163               21.64019957               93.11971067                0.00010000                0.59044756                0.55949306               -0.78565904                7.93438471               99.32530448              -14.05474944
              81.14931194               16.75205922               92.64176795                0.00010000                0.71410540               -1.01723263                3.98223651               12.24423734              193.61150283              -12.79568295
              82.15106374               11.99238916               91.93882386                0.00010000                0.84067985               -1.96861765                3.96363601               13.98677989              176.86891464              -13.17837200
              83.16612554                7.30453010               90.97440161                0.00010000                2.33271322               -1.47164400                0.67314795               13.58481839              158.05373438              -13.66609897
              84.19771800                2.65506484               89.73125816                0.00010000                3.96340868                0.32197872               -5.21378893               12.19643481              136.85389757              -15.02750527
              85.24539371               -1.98490926               88.18508326                0.00010000                5.84260844                3.48301262              -14.17988467               10.06432089              111.75240794              -17.73455585
              86.31457017               -6.63741546               86.30962770                0.00010000                8.86037948                8.17072499              -27.64656942                7.43511140               82.39596901              -22.12489812
              87.42260130              -11.31843706               84.08964842                0.00010000               14.09166747               14.56407742              -47.29547493                4.59315740               50.79933989              -28.53635598
              88.59640352              -16.03723473               81.53871802                0.00010000               21.63844682               22.73585112              -73.52532202                2.06055269               21.96086231              -37.59194491
              89.85537024              -20.79426600               78.71642396                0.43778642               25.89667159               32.78715161             -103.59443488                1.94731102               10.87418787              -51.77245575
              84.17679387               27.67961704               95.23923271                0.71895108               -0.10147610               -0.57369788                1.16533333                0.39456450                7.30248264               13.45228566
              85.17577911               22.64427180               92.67794919                0.43735492               -6.25566807                0.40722304               -0.63635021                8.00131290              121.58201429              -12.52835003
              86.05168051               17.76164833               92.40312217                0.43778759              -11.02903559                0.95891119                4.36555539                7.39925307              223.58504766               -9.15202883
              86.95519840               12.98751972               91.81017369                0.43881015               -7.39813133               -0.48694443                3.92344297                7.44752554              198.17924398               -9.14215936
              87.90371789                8.30232952               90.92987368                0.43838790               -2.99821773               -0.22005723               -0.09855647                7.79943055              175.43229279               -9.11409492
              88.89523405                3.66832364               89.75330415                0.43826182                1.01531232                1.32588013               -6.87977608                7.56260249              151.83020634               -9.57603299
              89.92402413               -0.94145051               88.26230524                0.43788431                4.74518708                4.34587484              -16.81098843                7.07013298              125.23475126              -10.69358926
              90.99013779               -5.54753454               86.43311137                0.43739447                9.11852673                8.98809129              -31.31150257                6.39994947               94.69888977              -12.52953847
              92.10639467              -10.16458675               84.25011666                0.43719429               15.31344187               15.38503049              -52.11143012                5.62461554               61.82018115              -15.13787888
              93.29640663              -14.80262896               81.72421685                0.43673027               23.52664327               23.46057660              -79.64083780                5.06272506               30.15404324              -18.73329680
              94.57692753              -19.46333846               78.88565628                0.71881337               28.05209066               33.09275384             -110.00981469                6.08477988               16.98292088              -26.28322735
              34.58740995               18.12937310               99.35401540                0.71902937                0.09133560                0.06705266                1.15774232                0.17532259               -6.59356587                7.03673132
              35.58832330               13.08560476               98.34465274                0.43631248                2.50056045               -0.69189104                0.82645645                2.88355839               -7.07271770               -5.93475993
              36.63742116                8.11255007               97.32079708                0.43683540                3.92811405                0.21851071                0.89370300                0.04965910               -3.99783425               -0.23401726
              37.66688558                3.23238865               96.34517419                0.43834304                2.21142755                0.20213870                0.86651767                0.19782675               -0.72832490               -0.36308175
              38.68164971               -1.59771981               95.37507241                0.43881521                0.94394152                0.31596511                0.86013305                0.10268416               -0.22656235               -0.10109987
              39.68576441               -6.40638820               94.40635314                0.43893324                0.08502960                0.40508807                0.85167902                0.00679185               -0.45377997                0.01718364
              40.68335030              -11.21442612               93.43324057                0.43807209               -0.39528472                0.50058272                0.85088912               -0.10362319               -1.32375128                0.07752433
              41.67785872              -16.03515554               92.45140374                0.43715249               -0.56685067                0.59738120                0.85304398               -0.20310162               -2.66042116                0.09904703
              42.67201329              -20.87603857               91.45770279                0.43655835               -0.54031506                0.68781723                0.86579793               -0.27344088               -4.43357606                0.01195493
              43.66705242              -25.74026276               90.44756841                0.43677666               -0.46397771                0.76869215                0.98412488               -0.23238481               -5.38574887                0.28984152
              44.66273373              -30.62863745               89.44184485                0.71938983               -0.43186871                0.74352438                0.97955995                1.25307543               -5.46552805               -3.44506485
              39.63293151               19.13004363               98.95638987                0.43668372               -0.73611077                2.77547020                1.30020294                3.42786465                5.91037609               13.16397737
              40.62557040               14.07868585               97.94393400                0.00010000               -3.42028526               -3.79198566                0.92210372                7.74966395               13.37099493              -11.41563679
              41.56452581                9.11473517               97.08178341                0.00010000               -5.07858066                6.15152845               -0.05083843               21.15941336               17.51897169               -6.32282365
              42.52399879                4.23441003               96.18616061                0.00010000               -3.12304160                7.61611463               -0.86488906               28.90202594               14.87640875               -8.36943754
              43.50206497               -0.59456016               95.29065010                0.00010000               -1.49066496                7.40484327               -1.65324626               33.29862706               14.21382714              -14.27649151
              44.49418549               -5.40233732               94.39197132                0.00010000               -0.26836186                6.36385503               -2.46846353               35.22874360               13.56756620              -23.45951241
              45.49669774              -10.20942030               93.48863823                0.00010000                0.62242189                4.67003415               -3.35064294               34.99050889               12.90620372              -36.07969756
              46.50663393              -15.02918173               92.57874596                0.00010000                1.25673761                1.93144754               -4.31354538               32.90238511               12.08879916              -53.04763093
              47.52183249              -19.86916040               91.65960620                0.00010000                1.71970400               -2.88195738               -5.32384834               30.21171658               11.13522364              -75.49339488
              48.54102801              -24.73257584               90.73127290                0.00010000                2.09033405              -11.47115664               -6.37813965               30.21320287                8.87536144             -103.50794869
              49.56363917              -29.62120220               89.76894764                0.43667544                2.26111609              -35.50272402               -7.00350691               42.49938902                6.98125281             -135.72790471
              44.75868279               20.18488250               98.67594924                0.43677070               -0.00577559                4.36163757                1.43382672                0.37087786               -1.49989606               19.62835459
              45.75862503               15.00976505               97.43485809                0.00010000                7.31012266               -5.86679743                0.79670175               20.73527199               24.84516462              -17.08392072
              46.90488524               10.23558064               96.71731611                0.00010000                9.77982009                6.15708951                4.27327972               50.45289481               50.88594627              -10.99982499
              47.95422144                5.38471094               95.86539649                0.00010000                3.97421809               10.37759499                3.97311340               56.95873997               44.05507329              -16.11863237
              48.98436960                0.55037706               94.92239593                0.00010000                2.54889952               10.81668976                2.63200833               64.51829544               40.38675628              -28.49468736
              50.00519943               -4.27911110               93.90906338                0.00010000                1.28176398                9.68397681                1.55334705               68.44785814               37.30119934              -46.78825371
              51.01000488               -9.12102544               92.82313555                0.00010000               -0.47764498                7.24141136                0.71018237               68.30043673               31.75446768              -71.50703094
              51.99564653              -13.99652659               91.64643012                0.00010000               -1.51815766                2.75538557               -1.08752681               63.90888900               21.91153979             -104.46878489
              52.97964173              -18.93367772               90.35563976                0.00010000                1.38558772               -5.54596234               -5.96257031               56.25857298                8.02759097             -148.14149002
              54.02335828              -23.96968590               88.94419452                0.00010000               15.51662519              -21.95596816              -16.21517231               38.98249822               -4.50209589             -204.29172690
              55.28997423              -29.33869193               87.45738687                0.43597500               26.66159539              -52.57144230              -30.70769252               32.66194407               -3.88847542             -277.61631749
              49.99058398               21.21727638               98.37222818                0.43669863               -0.10062681                2.24318279                1.69424107                0.44508793               -0.17911610               20.06579855
              50.98957771               15.96134990               96.96043514                0.00010000               10.40269173               -3.74073143                0.34242435               27.03965732               37.38348135              -16.81362687
              52.19863781               11.23787697               96.29767559                0.00010000               17.93997298               -1.69336093                5.72233207               54.53643921               75.40189059              -15.17370198
              53.34837717                6.44196193               95.45072545                0.00010000               12.88075558                2.17208671                5.54607579               57.34523198               68.37074109              -21.27645626
              54.45625292                1.62177364               94.45454331                0.00010000                9.30839908                4.02843299                3.60521593               62.77772655               63.82183289              -33.14768581
              55.53454515               -3.20865779               93.33261004                0.00010000                6.19345173                4.63714295                1.87941318               66.88067214               59.10438644              -50.07899037
              56.58012196               -8.06459207               92.08020393                0.00010000                3.14594186                4.09728558                0.13787911               67.65279628               50.45764218              -72.69158067
              57.59746399              -12.97407402               90.67053620                0.00010000                2.00206479                1.84559986               -3.50155074               64.23107307               35.82466268             -102.52660518
              58.62016325              -17.98007965               89.07397615                0.00010000                6.41140965               -3.31653905              -12.18821837               54.42693286               16.72860877             -141.77496957
              59.72569218              -23.17169520               87.29300847                0.00010000               16.73634293              -13.03217088              -29.14863963               33.84490524                2.16826418             -193.77988285
              60.95489011              -28.67263105               85.42309014                0.43611810               22.91979316              -19.01881957              -53.58877132               16.64369203               -0.21682370             -262.98119253
              55.27943750               22.22974616               98.08284014                0.43605606               -0.06199047                0.45936109                1.93424014                0.34913443                0.12774382               21.10360978
              56.27881759               16.93495042               96.47921184                0.00010000               11.77822503               -1.74652056               -0.19132580               28.45365682               48.73359429              -17.40290594
              57.51500200               12.20171342               95.84559591                0.00010000               21.92059049               -4.24448213                5.68312671               56.14041786               97.33443855              -18.60597724
              58.71722940                7.42815267               94.98617879                0.00010000               18.77709285               -3.27750146                5.36100493               56.87152175               89.17237764              -24.71751210
              59.89054385                2.63094572               93.93844241                0.00010000               15.59745868               -1.37875307                3.01422948               59.93750428               83.94939153              -34.99123028
              61.02917858               -2.18636824               92.72159239                0.00010000               11.89665932                0.24040816                0.57147061               62.43400617               77.86375727              -49.55591715
              62.12847704               -7.03907973               91.32584996                0.00010000                8.32884946                1.25245372               -2.38683152               62.21536571               66.99505209              -69.20155022
              63.19575556              -11.95961459               89.71922601                0.00010000                6.86622673                1.33801168               -8.12011245               57.46255635               49.46790131              -95.40274980
              64.26580157              -17.00000850               87.86997979                0.00010000                9.85261118                0.34731298              -20.28333991               46.01868300               27.39795642             -130.45992338
              65.39280779              -22.23032931               85.78722535                0.00010000               17.94590935                0.19989828              -42.49530384               25.64678712                8.73951318             -177.41966002
              66.62471976              -27.71906832               83.56205568                0.43621661               23.19119741                5.26251432              -74.83333098               13.12735856                3.46300863             -240.08466610
              60.58715814               23.22646360               97.79569955                0.43698746               -0.04745576               -0.82749736                2.06044950                0.28780311                0.35902816               20.80816369
              61.58668359               17.92641949               96.00026940                0.00010000               12.05428863               -0.23622363               -0.63063538               26.63211988               59.10312869              -16.92721112
              62.82824392               13.15298732               95.37790364                0.00010000               23.49458593               -5.11224147                5.06275842               52.58404561              117.37040299              -20.56522460
              64.05657530                8.37641190               94.50705159                0.00010000               22.06400045               -6.21674483                4.60043680               53.69098190              108.16463426              -26.21087030
              65.26952393                3.59419858               93.41990600                0.00010000               19.83377072               -5.11788023                1.98789935               55.37938177              101.80793985              -34.44681762
              66.45325072               -1.20384962               92.12928585                0.00010000               16.40758480               -3.12582352               -1.06004963               56.08109516               94.13792529              -46.11450605
              67.59767562               -6.03954299               90.61909511                0.00010000               12.71965837               -0.91296081               -5.14881396               54.15079353               81.14795293              -62.27695049
              68.70764389              -10.94731378               88.85285028                0.00010000               10.67880065                1.43687822              -12.72378125               48.06961592               61.06301720              -84.38591336
              69.81125163              -15.97313339               86.79718792                0.00010000               12.50219275                4.64234274              -27.64583330               36.48561073               35.87168631             -114.42232138
              70.95768774              -21.16769724               84.46061322                0.00010000               19.18318293               10.46859018              -53.74420617               19.47291844               13.31805624             -154.75528534
              72.19491529              -26.56738076               81.93466695                0.43657166               23.72275514               21.33760696              -91.06544301                9.97245840                5.73321021             -206.92107075
              65.88528177               24.21319621               97.50567144                0.43684414               -0.03455078               -1.54552446                2.00099323                0.22226729                0.50656199               19.86887415
              66.88493627               18.93022595               95.52570012                0.00010000               11.57043620                0.70913440               -0.86597209               22.84073160               68.93837496              -16.09217341
              68.11669050               14.09946859               94.91286695                0.00010000               23.24507598               -5.54711546                4.42088278               45.51058049              136.52203507              -21.08203217
              69.34983779                9.30381778               94.04202316                0.00010000               23.08512591               -7.82115238                3.82414935               47.77848193              126.48335911              -25.93361984
              70.57839302                4.52858811               92.93583840                0.00010000               21.73521320               -7.30525291                1.04017519               49.05829466              118.73163200              -31.96095309
              71.78454205               -0.24888471               91.59824427                0.00010000               18.82820279               -5.20160804               -2.48550426               48.43893142              109.12009992              -40.57347747
              72.95495707               -5.05733894               90.00644590                0.00010000               15.30981128               -2.14243306               -7.49046348               45.16399866               93.77108804              -53.02714120
              74.09073827               -9.93087703               88.11976538                0.00010000               13.04700866                1.96281516              -16.47802829               38.50271638               70.93483310              -70.64347014
              75.21589724              -14.90716165               85.90256977                0.00010000               14.28876289                7.92254330              -33.34994543               28.08007100               42.55523213              -94.97476056
              76.37651353              -20.02095751               83.36293680                0.00010000               20.38193655               17.10247371              -61.90462524               14.54987986               16.49974612             -127.54267847
              77.62353598              -25.29231618               80.59587650                0.43630091               24.70224431               30.72374584             -101.88158123                7.70150542                7.22457124             -168.88968808
              71.15754402               25.19555311               97.21003940                0.43639071               -0.03181776               -1.70729160                1.76872530                0.20834421                0.54020637               18.64450210
              72.15722584               19.94060218               95.05528888                0.00010000               10.36598394                1.08708163               -0.88253363               18.02427640               78.82158342              -15.27120592
              73.36486370               15.04204501               94.46499912                0.00010000               21.28997893               -5.91956912                3.97503384               36.31080729              155.94257551              -20.51446242
              74.58302542               10.21998886               93.61519303                0.00010000               21.92643058               -8.49159311                3.24972211               39.95260040              145.18964013              -23.98857799
              75.80339231                5.44809352               92.51633303                0.00010000               21.24654924               -8.10234947                0.32082930               41.13048012              135.77487586              -27.65958331
              77.00795640                0.69211822               91.16212185                0.00010000               18.97777999               -5.91326811               -3.61125599               39.67727056              123.84993354              -33.22990819
              78.18294791               -4.08239166               89.52365226                0.00010000               15.97822552               -2.37060619               -9.36192830               35.71330460              105.85806643              -41.94407337
              79.32752091               -8.90805748               87.55685526                0.00010000               13.99928135                2.72245787              -19.40532815               29.30498901               80.13783141              -54.89077974
              80.46293354              -13.81468252               85.22411362                0.00010000               15.31594788               10.09352554              -37.57075923               20.66591178               48.61701596              -73.16593057
              81.63383987              -18.82564776               82.53297480                0.00010000               21.43646018               20.71820638              -67.50138546               10.53034905               19.32851090              -97.79573601
              82.89166274              -23.95290585               79.58114812                0.43633348               25.78228668               35.26620119             -108.59576397                5.82975883                8.54396143             -129.21642030
              76.39935052               26.17905038               96.90697432                0.43643298               -0.04206281               -1.37718846                1.34836777                0.21131747                0.57672793               17.65832814
              77.39892989               20.95196758               94.58768705                0.00010000                8.20847246                0.95231310               -0.64964476               13.00116595               89.56261038              -15.01505560
              78.56351997               15.98107721               94.04734215                0.00010000               17.19556991               -5.91780018                3.79863112               26.10362191              176.97035962              -18.58936768
              79.74284129               11.13398591               93.25010363                0.00010000               18.26766454               -7.93866451                2.92069756               30.44873678              165.16394072              -19.96322947
              80.92887326                6.36654112               92.18869683                0.00010000               18.28656730               -7.46239733               -0.18193846               31.24983908              153.45018980              -21.34095705
              82.10857263                1.63284992               90.84880726                0.00010000               17.02628012               -5.31548355               -4.53577132               29.30718965              138.76703998              -24.08563304
              83.26939886               -3.10475107               89.19857874                0.00010000               15.02781429               -1.67622939              -10.96090991               25.40808894              117.98931532              -29.25902749
              84.40912892               -7.87642787               87.19218960                0.00010000               13.87034523                3.74922650              -21.85450868               20.02964046               89.45276651              -37.58677437
              85.54680576              -12.70529113               84.79045519                0.00010000               15.81074595               11.55965695              -40.91564015               13.62760724               54.96817167              -49.71790284
              86.72534384              -17.60659338               81.99893450                0.00010000               22.39207742               22.42450693              -71.53989304                6.83407621               22.52353614              -66.41510721
              87.99464731              -22.58699216               78.91410760                0.43664717               26.93034742               36.79920474             -112.80934113                4.12631429               10.12257415              -88.65290787
              81.61593597               27.16800934               96.60078963                0.43646196               -0.07136345               -0.78650559                0.81704912                0.16623459               -0.21255995               14.98656062
              82.61522233               21.95964844               94.11497123                0.00010000                4.44909169                0.49401333               -0.17387592                8.74091889              102.57882206              -13.46129165
              83.70491780               16.92368901               93.68468845                0.00010000                9.56569526               -3.94102022                3.79509978               14.37172639              201.71646420              -12.55014218
              84.80653624               12.06121557               92.97907188                0.00010000               11.23036397               -5.61032864                2.75514026               17.79803820              186.63152030              -12.56820543
              85.92952508                7.29884557               91.98149713                0.00010000               12.94280753               -5.40331918               -0.67756467               17.85180000              171.23499842              -12.29154364
              87.06539239                2.58580854               90.68307415                0.00010000               13.54312008               -3.66917550               -5.56797796               16.19537895              153.52294940              -12.97485069
              88.20038748               -2.11591624               89.05315441                0.00010000               13.16307007               -0.29898531              -12.70430242               13.50835325              130.17201420              -15.15598612
              89.32865379               -6.83307295               87.04651828                0.00010000               13.26318546                5.04920423              -24.39669731               10.19086443               99.25699227              -19.14837166
              90.46565119              -11.58348938               84.62305267                0.00010000               16.17843135               12.84242967              -44.25318725                6.57703958               62.22945337              -25.19275715
              91.65222242              -16.37715763               81.78421499                0.00010000               23.46676896               23.42959488              -75.36695031                3.15532313               26.57507658              -33.65090573
              92.93498657              -21.21692175               78.61634648                0.43674786               28.27641535               37.06282233             -116.09751216                2.50969091               12.22323059              -46.14368398
              86.81939701               28.16332027               96.24830561                0.71821590               -0.13284096               -0.46890726                0.59067026                0.19886188                6.96506490               12.75661453
              87.81806860               22.96184785               93.67584767                0.43663108               -3.50048185                0.21994049                0.20874547                7.23145322              124.29918216              -11.93819044
              88.74938737               17.90225680               93.45035083                0.43715202               -4.72115541               -2.14322079                4.26353029                7.44353168              231.19786915              -10.01389149
              89.72364549               13.02177934               92.84994841                0.43826307                0.59644538               -3.94362245                2.71388976                9.52182204              206.58597417               -9.61743310
              90.76131628                8.25847474               91.92884207                0.43903767                6.17982690               -4.03708323               -1.48114676               10.06347340              186.85316777               -9.12741886
              91.84724203                3.55946641               90.68798043                0.43872716                9.85655711               -2.63421312               -7.24300931                9.72468821              166.62161550               -9.27212316
              92.95844742               -1.11073077               89.10377140                0.43813238               11.66386594                0.51854686              -15.25342443                9.06048382              141.74916032              -10.21148734
              94.08051935               -5.77544379               87.13341206                0.43710537               13.19919056                5.76291641              -27.82535939                8.30096730              109.51424168              -11.95333821
              95.22243123              -10.44844254               84.73571997                0.43622402               17.06816622               13.50468400              -48.64868487                7.55011913               70.81027833              -14.40151242
              96.42188267              -15.13800148               81.90855328                0.43610569               25.09690740               23.91561417              -80.93978139                7.10136702               32.31214697              -17.40562698
              97.72436938              -19.84573571               78.72141554                0.71809387               30.24867086               37.11860422             -121.94789611                8.16485853               15.89652047              -22.52756947
              35.53364690               18.59565013              100.36270822                0.71761092                0.34576797                0.35434900                0.53971745                0.34840051               -6.29431619                6.71771915
              36.53710457               13.42740290               99.35115184                0.43543337                3.33900993               -0.77771529                0.49151316                3.92003989               -6.56131076               -5.70911073
              37.60042709                8.35367568               98.32915274                0.43688387                4.90270207                0.42770392                0.74184503                0.24365975               -3.44433355               -0.25018293
              38.63515862                3.39694660               97.35358245                0.43782686                2.53204659                0.29893803                0.73149210                0.46452547               -0.45774903               -0.29387591
              39.65106803               -1.50102380               96.38374214                0.43873326                0.96290571                0.34000720                0.77013454                0.29284430               -0.00976769               -0.05928742
              40.65441673               -6.37450276               95.41538862                0.43840100               -0.04592329                0.35733042                0.84631613                0.15302314               -0.18178778                0.05031343
              41.65014956              -11.24722036               94.44290652                0.43829656               -0.62339115                0.38539626                0.95375464                0.01847125               -0.93346549                0.12136497
              42.64194891              -16.13477281               93.46188331                0.43709889               -0.86564615                0.42978097                1.08494435               -0.11048232               -2.13097279                0.13944951
              43.63283664              -21.04592384               92.46920450                0.43591885               -0.86365128                0.47648730                1.25205304               -0.22864447               -3.71860847                0.06688564
              44.62467588              -25.98380124               91.46124494                0.43552178               -0.75095174                0.51348952                1.55385738               -0.21497015               -4.57257403                0.24859496
              45.61781760              -30.94711165               90.45643847                0.71801280               -0.68582800                0.39338103                1.71680617                1.24040791               -4.59329993               -2.91227087
              40.70537814               19.59919362               99.96776177                0.43480515               -0.80859371                3.90556808                0.99252844                4.72436629                5.61750905               12.84936106
              41.69729220               14.41962574               98.95258610                0.00010000               -4.36431497               -4.94735174                0.86980222               10.52820784               12.67026095              -11.39597143
              42.61809184                9.35795272               98.08062000                0.00010000               -6.50692947                8.72693251               -0.10503913               29.67884996               16.31933159               -3.47434237
              43.56715361                4.39993598               97.17773018                0.00010000               -3.91853463               10.50548607               -0.67891035               41.52250123               13.74942584               -5.15592907
              44.53972115               -0.49762373               96.27560457                0.00010000               -1.90541859               10.26410364               -1.23265844               49.37715606               13.00215313              -11.24683260
              45.52904524               -5.37092945               95.36971634                0.00010000               -0.46259251                9.19979961               -1.88737492               54.25662556               12.24056609              -20.13240865
              46.53046930              -10.24336640               94.45840367                0.00010000                0.55752903                7.45351511               -2.61109707               55.87584281               11.47769340              -31.94854028
              47.54019582              -15.13047500               93.53941702                0.00010000                1.22975550                4.44736007               -3.43139872               54.17373892               10.60388873              -48.34699565
              48.55506441              -20.04115896               92.61064626                0.00010000                1.64621335               -1.45617145               -4.32591203               50.10307405                9.61799576              -71.83267666
              49.57312009              -24.97866634               91.67202388                0.00010000                1.92338442              -13.16016336               -5.32374271               48.08544148                7.54036324             -104.34439918
              50.59353209              -29.94317784               90.70387511                0.43526319                2.04120070              -49.09006647               -5.88684205               62.48199730                5.82005978             -144.14156728
              45.98726998               20.67376150               99.68894199                0.43507405                0.16396545                5.82209471                1.12785498                0.57581687               -1.65418747               19.83241226
              46.98890964               15.32845586               98.44264126                0.00010000               11.32119362               -7.57725777                0.81661552               28.23970093               26.81857919              -17.91697473
              48.21369386               10.52821433               97.76247517                0.00010000               16.61377262                8.73691225                4.56956511               69.73765817               56.70384714               -5.66294614
              49.32118509                5.60705632               96.90254852                0.00010000                9.78913618               14.39959625                2.09684091               80.69907987               50.64295400              -10.03912111
              50.40947658                0.70425827               95.94312874                0.00010000                8.20534090               15.34206227               -0.33243345               94.66209680               51.35070554              -22.20771348
              51.48529191               -4.19050677               94.92138579                0.00010000                5.88676899               14.52781542               -0.54521837              104.11786810               52.19229037              -39.54651938
              52.52721196               -9.09815006               93.83480979                0.00010000                1.89621703               12.26956773                0.31505143              107.51309188               49.34268776              -62.51671720
              53.52321625              -14.04582561               92.65061881                0.00010000               -2.20612491                7.47882375                1.15316548              103.76437108               39.69615963              -94.14029821
              54.48308946              -19.07504726               91.31830447                0.00010000               -1.74063298               -2.60948555               -0.71845660               92.81418707               21.21667540             -139.35739850
              55.48840359              -24.24700450               89.79586380                0.00010000               15.66955422              -24.82886502              -11.29172917               63.80565222               -0.78469576             -203.84213934
              56.79648055              -29.92891298               88.13351566                0.43517612               30.80769563              -69.62010060              -34.42281677               49.46594103               -4.90372219             -300.09864425
              51.40750575               21.71563552               99.38814358                0.43544948                0.01276411                2.81388723                1.40189038                0.65815761               -0.15009438               20.49722987
              52.40763339               16.26808059               97.96344175                0.00010000               16.33693984               -4.50576800                0.31561359               36.20906899               40.78119178              -18.00715090
              53.73424454               11.53269096               97.35499837                0.00010000               29.87289411               -2.16722619                4.76658917               73.76087043               84.62781432              -12.57797412
              55.00509127                6.68792790               96.49733077                0.00010000               24.81408131                3.29112154                1.18621144               79.12662023               80.36250849              -16.88632071
              56.23052617                1.80921751               95.47633590                0.00010000               20.43598305                6.21792995               -2.08062208               89.04812538               82.55154898              -27.62481870
              57.41381093               -3.08037315               94.34029700                0.00010000               15.27619025                7.55060295               -2.70536129               97.39640594               83.88081787              -43.17270320
              58.53604997               -7.99797504               93.08079492                0.00010000                8.92847585                7.49174496               -2.21527352              101.16309321               79.24578101              -64.22930296
              59.59238045              -12.98089852               91.64803614                0.00010000                3.82385360                5.23904946               -2.57462060               98.52330547               65.05511830              -92.99974950
              60.61252705              -18.09334867               89.97182717                0.00010000                5.53592003               -0.99519643               -8.08718546               85.39845408               40.18907861             -133.34262994
              61.70309885              -23.47524364               88.00558924                0.00010000               16.70704111              -13.72730404              -27.00050198               54.06946014               14.04841937             -192.47799964
              62.94666787              -29.33557985               85.84075568                0.43527585               24.35690200              -20.26100563              -64.70116986               27.01468918                4.53024144             -280.62829509
              56.89554300               22.73003924               99.10133181                0.43542645                0.04925756                0.38448064                1.70702378                0.46849879                0.23930427               21.41536296
              57.89603557               17.23834050               97.47676469                0.00010000               18.67604746               -1.79705101               -0.28562479               37.39967505               52.68787267              -18.46254227
              59.26906395               12.48486980               96.89879454                0.00010000               36.55776855               -5.51880754                3.38868905               74.34364642              108.10966320              -17.17860724
              60.62719094                7.67287875               96.02519420                0.00010000               34.48380950               -4.09962447               -0.45795049               76.30876628              103.49936724              -20.94882759
              61.95874014                2.82861687               94.94864552                0.00010000               30.66108203               -1.37139792               -3.95072109               81.90701893              105.92871291              -29.13629709
              63.24041259               -2.03949471               93.71117107                0.00010000               24.61295317                0.96398558               -5.09114954               87.09004389              106.61131192              -41.76250485
              64.45099920               -6.94831516               92.29691586                0.00010000               17.43217009                2.48815834               -5.61097156               88.80950859              100.27454413              -59.56013768
              65.58905599              -11.94104462               90.64628935                0.00010000               11.72022308                2.79308184               -7.97626357               84.00956170               83.34720408              -84.34071960
              66.68540366              -17.09495119               88.68038480                0.00010000               11.14839921                1.73669300              -17.37551271               68.79726122               55.30852091             -119.67518457
              67.81202397              -22.52155058               86.35394424                0.00010000               18.60215441                2.35579366              -42.83643406               39.18032560               23.72760229             -171.33233471
              69.05744675              -28.33413309               83.74364780                0.43550450               24.54227792               12.21156720              -90.58669520               20.31291088               10.13554541             -246.07803463
              62.40027320               23.72332513               98.81549616                0.43529406                0.05231226               -1.31754375                1.87295476                0.36699094                0.48889331               20.80321587
              63.40079632               18.23213957               96.99356958                0.00010000               19.31530097                0.14323252               -0.71539305               34.43499721               63.11157244              -17.62486547
              64.78657922               13.42231481               96.42193726                0.00010000               39.33616042               -6.60268788                2.10868251               68.35991001              128.25010374              -19.57468838
              66.18751953                8.60593541               95.53543966                0.00010000               39.72303925               -8.23652347               -1.73477356               70.32941730              122.81383133              -22.71737429
              67.58104001                3.78178955               94.41769010                0.00010000               37.25121520               -6.96924995               -5.18149966               73.39446429              124.13152817              -28.52945088
              68.93254384               -1.06109343               93.10123565                0.00010000               31.63750250               -4.59873123               -6.71642140               75.52407657              123.33699921              -37.97479900
              70.21379006               -5.94821188               91.56165853                0.00010000               24.33319390               -2.01983289               -8.18692798               74.43062538              115.02877491              -52.08402462
              71.41920771              -10.92503689               89.73278575                0.00010000               17.75940914                0.71629165              -12.28781062               67.51711851               95.63942260              -72.45851387
              72.56897824              -16.05861481               87.53150719                0.00010000               15.33397728                4.81285538              -24.51208988               52.21265758               64.29650786             -101.86030188
              73.72588726              -21.42812777               84.90935898                0.00010000               20.45564318               13.20946921              -54.13808280               28.26231155               28.32211332             -144.26515740
              74.97809110              -27.09134851               81.94490275                0.43570903               25.22038424               30.03749345             -107.12546359               14.56983046               12.33095459             -202.25459834
              67.88525395               24.70368836               98.52489751                0.43534544                0.04918919               -2.19531730                1.85677321                0.30218857                0.64317339               19.44751633
              68.88574584               19.24120515               96.51693918                0.00010000               18.86061770                1.25384220               -0.92151654               28.99827025               72.74723883              -16.33107947
              70.26246630               14.35281605               95.94920071                0.00010000               39.42793553               -7.29152653                1.14766094               58.09489359              146.94855640              -20.02447853
              71.67430455                9.50814828               95.06192843                0.00010000               41.55959864              -10.73765718               -2.55844393               61.37477904              140.70560865              -22.60051814
              73.09365827                4.68923187               93.92457198                0.00010000               40.32955007              -10.61016929               -5.89593528               63.56747926              140.38726407              -26.31142892
              74.48089555               -0.13146933               92.55718260                0.00010000               35.49484442               -8.49827136               -7.75892406               63.58081795              137.52147759              -32.79092388
              75.80355516               -4.98871182               90.92727059                0.00010000               28.44528718               -5.25092222              -10.01264280               60.34367825              126.88372114              -43.26931011
              77.04980129               -9.92671878               88.96401630                0.00010000               21.45962682               -0.66693721              -15.38784606               52.44003300              104.81632015              -59.08708621
              78.23274770              -14.99869409               86.58157804                0.00010000               18.01013021                6.59496773              -29.40902796               38.85051938               70.27489006              -82.20006510
              79.41000390              -20.25736120               83.73144992                0.00010000               22.12685710               18.78018348              -61.27490549               20.32695664               30.81206345             -114.95583834
              80.67528484              -25.73338322               80.49958620                0.43596264               26.52809419               37.85937723             -116.47743727               10.76062967               13.36348535             -158.31282238
              73.33128340               25.67941878               98.22663926                0.43575280                0.03506460               -2.30757975                1.59260538                0.24733576                0.65716720               17.77368578
              74.33163405               20.25721641               96.04700015                0.00010000               17.51252803                1.59466631               -0.84309956               22.30003306               82.20747039              -15.00782679
              75.68153396               15.27648428               95.49682642                0.00010000               37.34826224               -8.11498735                0.71196196               45.37377667              165.51845057              -19.26053265
              77.07859929               10.39118227               94.63026950                0.00010000               40.52366213              -12.21998215               -2.80731464               50.43275745              158.55385289              -20.86935710
              78.49200720                5.56958617               93.49981092                0.00010000               40.17522950              -12.47263535               -6.07158556               52.45489745              156.25815862              -22.60057131
              79.88210388                0.76894114               92.11231529                0.00010000               36.19529344              -10.46557812               -8.28047583               51.18064224              150.89172346              -26.39579732
              81.21591307               -4.05323032               90.42855083                0.00010000               29.79433799               -6.85408207              -11.21233533               46.78947305              137.60160766              -33.47169772
              82.47799064               -8.93837563               88.37489767                0.00010000               23.03589851               -1.28143835              -17.52662999               39.09001054              112.75796334              -44.85094519
              83.67663104              -13.92671546               85.86432781                0.00010000               19.45624446                7.47643358              -32.65959557               28.02173079               75.23297270              -61.76745537
              84.86711553              -19.05252410               82.84950194                0.00010000               23.43583495               21.02364400              -65.62605465               14.43677755               32.85370547              -85.61044619
              86.14534774              -24.33416096               79.42306087                0.43558472               27.82322113               40.30226115             -121.52001412                7.87327525               14.20657483             -116.94568177
              78.73460541               26.65753677               97.91880639                0.43537971                0.00755935               -1.78324256                1.07950194                0.23643019                0.66315045               16.36242945
              79.73468100               21.27309848               95.58266171                0.00010000               15.06852816                1.27983538               -0.45611832               15.29023663               92.33078375              -14.22860316
              81.03597597               16.19051630               95.07865383                0.00010000               32.75884034               -8.92182928                0.85302657               31.43283884              185.38309221              -17.29895075
              82.38985781               11.26374864               94.26412336                0.00010000               36.45106908              -12.50009995               -2.48447693               37.87745205              177.36223202              -17.32708075
              83.76499735                6.43977916               93.17014675                0.00010000               36.87335380              -12.55160939               -5.79543031               39.51432524              172.46771217              -17.28524847
              85.12732488                1.65921911               91.79299367                0.00010000               34.08320184              -10.62732405               -8.46690947               37.44216058              164.13348567              -18.73628931
              86.44666139               -3.12579346               90.09080169                0.00010000               28.88808776               -6.99956593              -12.07525807               32.89550671              148.04943807              -22.76912864
              87.70508664               -7.95234755               87.98929577                0.00010000               23.03346957               -1.16148584              -19.16783067               26.42245786              120.52437744              -29.98055180
              88.90733078              -12.84916541               85.40118967                0.00010000               20.05491563                7.95792411              -35.06410282               18.41609203               80.30856651              -40.99025348
              90.10618495              -17.83688832               82.27961258                0.00010000               24.43466456               21.63262376              -68.55112569                9.46615667               35.23530799              -56.57820611
              91.39602407              -22.92733800               78.71933635                0.43572977               28.98391202               40.48566725             -124.36294022                5.46623920               15.27669156              -77.50214127
              84.10488859               27.64375393               97.60621459                0.43502583               -0.04293413               -0.89097046                0.30878862                0.22620106               -0.12079752               13.62729319
              85.10445925               22.28281312               95.11623315                0.00010000               10.73259930                0.53283177                0.32337935                8.96651492              104.49334441              -12.41299419
              86.31954058               17.09804770               94.71766995                0.00010000               24.12131109               -8.02352751                1.38204060               16.19641657              208.67727147              -11.64615625
              87.58688547               12.14118027               93.99392667                0.00010000               28.36413324              -10.51653267               -1.85763364               21.95375606              197.59844037              -11.04460496
              88.88682324                7.31855398               92.96085032                0.00010000               30.48171215              -10.73439502               -5.46133780               22.64831303              188.60850112               -9.88825211
              90.19651971                2.55639466               91.61989860                0.00010000               29.92833112               -9.30752493               -8.77546515               20.68182616              177.08042431               -9.84406561
              91.48538986               -2.19322164               89.93099721                0.00010000               26.66460195               -6.05603901              -13.10290729               17.44571554              158.44781517              -11.44883006
              92.72981175               -6.96160535               87.82169376                0.00010000               22.20518948               -0.40206617              -20.89752388               13.45260373              128.65616360              -14.88798376
              93.92949365              -11.76755698               85.20458467                0.00010000               20.23997488                8.56069100              -37.41666339                9.09309761               86.10708504              -20.32276192
              95.13461125              -16.61987162               82.03137901                0.00010000               25.30391164               21.87351198              -71.26865318                4.69391999               38.53925319              -27.99139666
              96.43557189              -21.52444762               78.39447372                0.43574784               30.09606354               40.16550133             -126.62721746                3.19786835               17.05682616              -38.72733710
              89.46101106               28.63971736               97.25104612                0.71744900               -0.12935215               -0.40365728               -0.03926179                0.01602212                6.32796334               11.51931947
              90.45971754               23.28375511               94.68212410                0.43527033                2.02630446                0.09419940                0.95204131                5.04224839              125.11390308              -10.86180669
              91.50153715               18.03004575               94.48839278                0.43687524                7.43545529               -6.80019456                2.01911655                6.68280093              237.19995706              -10.63771434
              92.60842664               13.05341799               93.86445148                0.43794519               15.06060395               -8.77622870               -1.68494953               11.90639293              215.92979120               -9.55725108
              93.80274923                8.22509126               92.90025075                0.43869225               22.21551927               -9.34627197               -6.03181688               12.57512981              202.27017565               -8.62076512
              95.05273703                3.47306861               91.60844396                0.43855155               25.54132387               -8.33260504              -10.19445532               12.02145655              188.29660827               -8.46573830
              96.31357571               -1.24691424               89.95723675                0.43793192               24.78685101               -5.36925986              -15.22721513               11.14571012              168.34042246               -9.34934809
              97.54847405               -5.96038887               87.87660419                0.43676565               21.69416525                0.12164728              -23.58512432               10.31436199              137.27041225              -11.11010268
              98.74745901              -10.67795159               85.27714296                0.43579547               20.42399721                8.96053828              -40.66685851                9.84507541               92.76793084              -13.52568610
              99.95695399              -15.39941808               82.10542122                0.43538517               26.08372092               22.04535430              -75.15172271                9.93045536               42.19927148              -16.24331747
             101.26913343              -20.12402797               78.44669836                0.71763155               31.21794349               40.04196446             -130.53816182               10.89516499               18.37172336              -18.33233749
              36.48463638               19.05362038              101.36480975                0.71776377                0.60161880                0.71767012               -0.09964268                0.59303245               -5.62032315                6.00244124
              37.49065256               13.76855404              100.35448300                0.43489058                4.07337503               -0.92770366                0.24396203                5.09605819               -5.89755367               -5.13894070
              38.56610388                8.60461189               99.33563398                0.43537844                5.62443191                0.73140078                0.37357516                0.44953015               -3.55591666               -0.04907912
              39.60314120                3.57821568               98.35980403                0.43695850                2.67721527                0.41097039                0.34473302                0.72403924               -0.93941759               -0.24250134
              40.61964818               -1.38263041               97.39047510                0.43839765                0.99115410                0.37470029                0.46844254                0.43471750               -0.40965649               -0.04449215
              41.62296428               -6.31403736               96.42327946                0.43797918               -0.07309381                0.30546971                0.62898269                0.30520571               -0.41774926                0.06498626
              42.61818631              -11.24299314               95.45231567                0.43723672               -0.70115011                0.26987591                0.80602138                0.16663024               -0.97161993                0.15873938
              43.60894128              -16.18743398               94.47310263                0.43633915               -0.99534124                0.25768315                0.99528583                0.02322113               -1.91121218                0.19434053
              44.59827948              -21.15758438               93.48274385                0.43562738               -1.02871542                0.26704784                1.22118968               -0.14013068               -3.14493870                0.13263456
              45.58836697              -26.15684873               92.47864556                0.43446595               -0.88993986                0.27660529                1.62009078               -0.18464383               -3.75130990                0.21848169
              46.58048068              -31.18175616               91.47618097                0.71726035               -0.78862896                0.06454101                1.88297391                1.09497852               -3.60029907               -2.28070557
              41.77563304               20.06079708              100.97624044                0.43481636               -0.95156497                5.37642811                0.60745818                6.52619779                4.96368757               12.00437862
              42.76611739               14.75927700               99.96133004                0.00010000               -5.49323408               -6.39920671                0.99109380               14.09698423               11.52696105              -11.22071681
              43.66576836                9.61192589               99.07968263                0.00010000               -8.10573245               12.16657274                0.23833759               41.79997159               15.05218966               -0.45195519
              44.60400274                4.58232538               98.17258241                0.00010000               -4.78232410               14.30561239               -0.07011499               59.62382257               12.48077058               -4.01561738
              45.57012188               -0.37888340               97.26599693                0.00010000               -2.39025175               14.40609328               -0.57985233               73.97951088               11.48330802              -11.29777761
              46.55619771               -5.31098267               96.35422383                0.00010000               -0.67854790               13.67076051               -1.16045298               83.64944596               10.59362271              -19.34594188
              47.55655092              -10.24029438               95.43641629                0.00010000                0.51357048               12.46210533               -1.77903913               88.77824120                9.85337848              -29.52385170
              48.56646912              -15.18485715               94.51011798                0.00010000                1.25173156                9.97411569               -2.41191974               89.12571168                9.02878416              -43.86741531
              49.58158555              -20.15491390               93.57308796                0.00010000                1.60686537                3.77888905               -3.09215936               84.56126233                8.04751195              -66.18166979
              50.59860642              -25.15408268               92.62479804                0.00010000                1.73761714              -11.16226589               -3.92134502               78.89446772                6.13393110             -102.62749201
              51.61633789              -30.18111075               91.65121080                0.43485648                1.77314692              -64.78946108               -4.43146665               94.10296194                4.51691343             -155.49080812
              47.21820049               21.16114894              100.69850633                0.43502069                0.32629444                7.70170366                0.29939630                1.00973221               -1.85638592               20.05469709
              48.22146343               15.64056990               99.45119040                0.00010000               18.04272211               -9.60967698                1.31134881               37.95118829               28.51855448              -19.26823782
              49.57905493               10.84794334               98.80870741                0.00010000               28.24817607               11.90361098                2.72339266               95.76473709               63.35448451               -1.01537776
              50.78642695                5.86432792               97.90733331                0.00010000               20.67457584               19.96322290               -6.43657813              114.39175964               66.49412907               -6.97613250
              51.99254644                0.90549146               96.91574726                0.00010000               18.54686125               22.13219446               -7.80363249              139.46228606               74.49770886              -20.04057778
              53.15736418               -4.04062215               95.89815902                0.00010000               13.75395853               22.45427660               -6.91283134              157.61311446               80.56205045              -35.23878573
              54.26762562               -8.99375103               94.82943658                0.00010000                7.43554322               21.45050907               -4.67025056              167.67090024               81.67489011              -54.51856578
              55.30607504              -13.98795167               93.66949343                0.00010000               -0.44476793               17.75588051               -1.30980560              167.64047076               75.59325295              -81.50234177
              56.25873026              -19.08200660               92.34127063                0.00010000               -5.68109346                7.29506660                2.08217165              154.63318936               55.84452762             -123.28906970
              57.19245317              -24.38009405               90.71835994                0.00010000               12.89328989              -21.26264784               -2.04082764              107.17934306               19.59823265             -192.84848758
              58.51659605              -30.47754538               88.76893053                0.43483655               32.41428826              -85.71091714              -37.62105967               78.19607629                0.32757948             -326.85390257
              52.83698575               22.21483115              100.40026599                0.43470223                0.13609964                3.47759483                0.79722349                0.98309808               -0.04391369               21.30669692
              53.83834675               16.56708346               98.96674741                0.00010000               26.01596616               -5.24990792                0.46853740               47.44079244               43.06972747              -19.84190567
              55.35730508               11.84999811               98.39300737                0.00010000               49.79715325               -2.83704794               -1.98922853               98.21085990               96.78425207              -10.35446425
              56.83428982                6.98158984               97.47444968                0.00010000               45.35062976                5.33696521              -11.87483169              108.23505964              105.24966279              -12.96630952
              58.26431767                2.06376049               96.41293087                0.00010000               38.67063337               10.06870540              -13.79601736              124.35539117              117.81281084              -21.86365628
              59.60770248               -2.86189713               95.27850282                0.00010000               29.64903830               12.90325771              -12.87858297              139.03628049              126.19249200              -34.78849200
              60.85729844               -7.81128420               94.03589846                0.00010000               19.99158086               14.13024670              -10.63383691              148.16908130              126.93243147              -52.24367189
              62.00753410              -12.82973954               92.61904379                0.00010000               10.45466394               12.83865364               -8.08166962              148.77136471              117.10327164              -76.75075311
              63.06639172              -18.00901257               90.91223244                0.00010000                6.50989806                6.44071954               -7.98351092              132.79953764               90.49687469             -113.30198106
              64.13773206              -23.57933564               88.75299843                0.00010000               15.43851768               -9.03258477              -22.77471298               86.26635687               48.24299383             -175.01847088
              65.37516207              -29.89532909               86.12906674                0.43473410               23.74300097              -13.36153503              -79.51114371               44.97202888               20.74069794             -287.24461120
              58.53335783               23.23070083              100.11698062                0.43477645                0.17544870                0.20655331                1.35754907                0.67726226                0.37790356               22.09295508
              59.53511231               17.53557174               98.47349934                0.00010000               29.77039604               -1.66678867               -0.34029373               48.23143663               54.68369516              -20.06079805
              61.12876575               12.79120238               97.91336969                0.00010000               60.11267293               -6.94553664               -4.79245113               96.47831576              119.40859430              -16.16583189
              62.73736577                7.97106723               96.97701978                0.00010000               59.71877456               -4.81298263              -14.37561363               99.92362297              127.73671178              -16.48873960
              64.32314124                3.10686557               95.85942799                0.00010000               53.78843474               -0.80386949              -16.00114436              108.42082975              140.70882004              -21.60294079
              65.81313447               -1.78255700               94.61976940                0.00010000               43.78542047                2.62700004              -15.18170018              117.51540637              148.83999582              -31.10777022
              67.19884965               -6.71114610               93.21363052                0.00010000               33.30481213                4.98529885              -13.46683593              123.03904947              148.32405899              -45.17568893
              68.47923071              -11.73117860               91.55970073                0.00010000               23.27337283                5.77642635              -12.39054121              120.05017337              136.01399839              -65.52272790
              69.66431711              -16.95319221               89.52246953                0.00010000               16.24330588                4.87399494              -15.91943672              101.23248439              106.21401495              -96.45432686
              70.80409683              -22.56074575               86.93049667                0.00010000               19.18532152                7.44147849              -37.90789149               59.07092598               57.68149146             -147.36626751
              72.04802354              -28.74477608               83.75032178                0.43504757               24.39267080               26.34589796             -105.59644563               31.36120606               26.44817855             -232.27984643
              64.24078918               24.21896222               99.83315864                0.43459779                0.16847538               -1.98486975                1.68157033                0.51375047                0.65435889               21.07514973
              65.24247394               18.53374769               97.98596154                0.00010000               30.52933640                0.73010216               -0.85030443               43.62953448               64.84650173              -18.74642183
              66.85137591               13.71108738               97.42007729                0.00010000               63.73125782               -8.35562612               -6.80132849               86.67445633              138.60418122              -18.28741382
              68.51709909                8.88533019               96.47235612                0.00010000               66.74912927              -10.70448258              -15.69257036               89.39043182              145.42712429              -18.00385104
              70.18635849                4.04768310               95.31627601                0.00010000               62.94615912               -9.33134266              -17.04594048               93.65277850              156.82257755              -20.58849272
              71.77602227               -0.80935713               93.99495742                0.00010000               54.01712661               -6.66129153              -16.36704087               97.99386023              163.42839307              -26.95512421
              73.26670103               -5.71157822               92.45535655                0.00010000               43.72807040               -3.92356729              -15.26786545               99.10471334              161.23657284              -37.50820063
              74.65058368              -10.71421101               90.60709406                0.00010000               32.69537647               -1.17760389              -15.48447571               92.67860315              146.83175199              -53.62685767
              75.92060856              -15.91153267               88.30694613                0.00010000               23.00753849                3.46043191              -21.34954091               73.66746360              113.90145727              -78.40034356
              77.11073445              -21.43050607               85.37785156                0.00010000               22.49191507               15.02642547              -46.79527916               40.68856783               60.84980912             -117.75394153
              78.37044686              -27.36841113               81.79215768                0.43522528               25.97124058               40.40226653             -118.11359413               21.53497232               27.67761380             -178.39860287
              69.91406190               25.19100344               99.54280690                0.43492587                0.15159425               -3.09221367                1.77777717                0.37585519                0.77121611               19.19452250
              70.91557784               19.55017379               97.50726979                0.00010000               29.83052401                2.04877153               -1.09266387               36.09002883               74.08649986              -16.88523192
              72.51067238               14.62408986               96.93582017                0.00010000               63.65004282               -9.18530698               -7.82623076               72.36956203              156.10918714              -18.37578799
              74.18857869                9.75697758               95.99085428                0.00010000               69.01058756              -14.24616987              -16.01988711               76.50838683              161.41812255              -17.87402778
              75.89088413                4.92023871               94.81791969                0.00010000               67.18471459              -14.85878880              -17.23638310               79.36953936              170.60568248              -18.77460051
              77.53227299                0.08421717               93.44306579                0.00010000               59.74568349              -13.11258335              -16.81694310               80.55862702              175.04689577              -22.66021693
              79.08579780               -4.78961744               91.80619305                0.00010000               50.02421199              -10.18892460              -16.30643998               78.33744066              170.81843604              -30.15889663
              80.53275723               -9.75473067               89.81200845                0.00010000               38.40818169               -5.80724219              -17.45534495               70.09766924              154.15794194              -42.34409312
              81.85396143              -14.88398357               87.31438921                0.00010000               27.09947081                2.09447075              -24.60823271               53.34467982              118.41359408              -61.25072987
              83.07474664              -20.26021724               84.13743869                0.00010000               25.02858381               17.22433591              -51.46439679               28.43496494               62.30148054              -90.33158478
              84.35453311              -25.93673075               80.26632776                0.43485116               27.97864643               42.84207508             -123.79108455               15.26012535               28.09303401             -133.09127973
              75.52996559               26.15711794               99.24189151                0.43434698                0.12225002               -3.21399000                1.57127797                0.30256733                0.80225070               16.90183786
              76.53118809               20.57472312               97.03842689                0.00010000               28.09988852                2.39943656               -1.01277033               27.01917929               83.11009018              -14.88950495
              78.09196336               15.52738124               96.47923836                0.00010000               60.99649423              -10.49175970               -7.92658772               55.23657286              173.32507115              -17.17197354
              79.75111797               10.60040679               95.55904674                0.00010000               67.72731634              -16.65952239              -15.37684193               61.65701972              177.08195012              -16.24176115
              81.44650969                5.75050732               94.39490132                0.00010000               67.29664974              -18.02209786              -16.66184904               64.32287365              183.76627902              -15.78674837
              83.09705097                0.92839120               92.99651233                0.00010000               61.29439989              -16.68381724              -16.66602114               63.62251937              185.66446088              -17.70659512
              84.67239769               -3.91535671               91.29940556                0.00010000               52.49261133              -13.64812908              -16.77035196               59.47703327              179.10888253              -22.60634602
              86.14690320               -8.83035586               89.20632266                0.00010000               41.02955152               -8.40521616              -18.63427726               51.10923583              160.12511261              -31.24906862
              87.49298872              -13.86964326               86.57092171                0.00010000               29.26388658                0.93152537              -26.51905431               37.65176852              121.88453069              -44.84423023
              88.73218093              -19.08601935               83.22045371                0.00010000               26.78438354               17.00913325              -53.90848223               19.76151535               63.40854554              -65.39098614
              90.02867639              -24.51156963               79.15074784                0.43498026               29.64954583               41.41414583             -126.17759077               10.75499650               28.36527761              -94.98912849
              81.08490289               27.12672364               98.92856436                0.43411525                0.07952313               -2.44012310                1.04673428                0.31975373                0.79058848               14.79946755
              82.08569812               21.59816252               96.57856468                0.00010000               25.24086345                1.86015256               -0.57367091               17.49884026               92.66421502              -13.30591889
              83.58972016               16.41425467               96.06440268                0.00010000               55.64474431              -12.31771508               -7.07837578               36.72154803              191.64724613              -14.89838760
              85.19859301               11.42378713               95.20041409                0.00010000               62.98185127              -18.02057237              -13.80242698               45.48743930              193.39664399              -13.11805784
              86.84935719                6.55979676               94.07278822                0.00010000               63.59971967              -18.97653928              -15.41411669               47.79835892              197.02012862              -11.61241213
              88.47058740                1.75054083               92.67946907                0.00010000               59.23641662              -17.74571281              -16.09187063               45.87131184              195.97349540              -11.97791549
              90.03408552               -3.06258002               90.95707358                0.00010000               51.93205423              -14.79855940              -16.90843669               41.08875606              186.97358381              -14.72020357
              91.50922849               -7.92283500               88.80883299                0.00010000               41.42873861               -9.38925907              -19.42689165               33.92566814              165.75606176              -20.23249459
              92.86266029              -12.86535306               86.08917314                0.00010000               30.13374161                0.18726759              -27.82664321               24.39596753              125.33469003              -29.05726991
              94.11190332              -17.92003457               82.62791199                0.00010000               27.90366511               16.16125703              -55.44525856               12.89213699               64.80768720              -42.25614439
              95.42073359              -23.10844783               78.42684879                0.43480666               30.88302734               39.63695618             -127.28044724                7.22153865               28.86755071              -61.32383679
              86.59348291               28.10831548               98.60696540                0.43391573                0.01509609               -1.13400157                0.05764380                0.30593956                0.04172813               11.74255711
              87.59363387               22.61192617               96.12143882                0.00010000               20.36434019                0.73336453                0.43507956                8.50066669              103.93609476              -10.93301756
              89.00076971               17.28102694               95.71232926                0.00010000               46.08454016              -13.30989076               -5.44030336               17.47040681              213.11626955               -9.59363547
              90.51532467               12.23999534               94.94191921                0.00010000               53.74767287              -16.71012220              -11.48939331               26.08699644              211.08266912               -8.23455588
              92.07572317                7.37097653               93.87227037                0.00010000               56.07646576              -17.62690849              -13.92416151               27.34258655              210.18932916               -6.27031219
              93.63685399                2.57347694               92.50756484                0.00010000               54.59127308              -16.87399477              -15.57383054               25.16481770              206.05988497               -5.81539492
              95.16754863               -2.21132790               90.79109626                0.00010000               49.56678067              -14.38083946              -17.19120475               21.56960701              194.91935618               -6.91397310
              96.62818960               -7.01814104               88.62856780                0.00010000               40.52795055               -9.23158499              -20.29284440               17.11114427              171.85024101               -9.65512352
              97.97810764              -11.86589790               85.87471941                0.00010000               30.24644180                0.06401141              -29.15074649               12.08296742              129.50984777              -14.10236401
              99.23311844              -16.76279421               82.35884193                0.00010000               28.59130185               15.45411539              -56.90133087                6.57383879               66.93593839              -20.53093416
             100.54993368              -21.71883050               78.08380213                0.43438531               31.68152421               39.58080421             -128.48507634                3.82216929               29.83371332              -30.06556595
              92.08380031               29.10404361               98.24752038                0.71722332               -0.08003107               -0.42718728               -0.46969753               -0.08963963                5.29996984                9.61366640
              93.08300000               23.61282981               95.69488849                0.43516227               11.36294085                0.09036404                1.27607511                1.13727530              122.80818574               -9.17072970
              94.31105913               18.14805685               95.49073316                0.43669761               27.36916734              -13.29700888               -3.81945614                4.86668539              240.73393062              -10.28650082
              95.63038335               13.08958468               94.81624942                0.43792166               37.58340944              -15.04106558              -10.05851120               14.46595426              227.19759160               -8.75383681
              97.06272732                8.20725859               93.80820573                0.43859937               46.29024228              -16.37179476              -13.66476105               14.87422705              221.39433059               -7.25503005
              98.55618819                3.41306093               92.48409132                0.43839837               49.71841642              -16.04160131              -16.31575906               14.06065058              215.27072898               -7.12504996
             100.05709564               -1.35019681               90.79922710                0.43781717               47.49165948              -13.88689138              -18.52182680               12.92832001              203.43993194               -8.17505323
             101.50602138               -6.10746670               88.66170958                0.43678941               39.59385834               -8.93256579              -21.78118663               12.08937700              179.49672382              -10.26904830
             102.84897281              -10.86407283               85.92238280                0.43549328               29.51456579                0.18250698              -30.60206239               11.91223862              135.22892262              -12.85256495
             104.09631270              -15.61095226               82.40551883                0.43463986               28.01383808               15.18419445              -58.50325043               13.68148052               69.90015363              -15.53941381
             105.40924957              -20.31683175               78.11065230                0.71737862               31.29368752               40.19987575             -129.88665565               15.34364116               30.94367308              -18.13882280
              37.44189392               19.49283757              102.36071536                0.71682141                0.64353479                1.27470369               -0.44974758                1.06712084               -3.76628535                4.04365417
              38.44832927               14.11093001              101.35603108                0.43477167                4.10469056               -1.24260017                0.06407726                6.19395777               -4.61834409               -3.53972048
              39.52398773                8.86459680              100.33662424                0.43577603                5.65999388                1.12433830               -0.55446295                1.17004365               -4.18503658               -0.03125241
              40.56152915                3.76653982               99.36047711                0.43667589                2.77058667                0.55545326               -0.26949042                1.01485098               -1.77430183               -0.21757004
              41.57939947               -1.25295732               98.39311099                0.43618752                1.13460137                0.41058775                0.00732034                0.75306280               -1.08452540               -0.06762228
              42.58422118               -6.23509177               97.42796828                0.43690064                0.07472625                0.23639165                0.26428490                0.66324167               -0.95885037                0.06797600
              43.58089399              -11.21224682               96.45902695                0.43603780               -0.54623474                0.12824705                0.45683706                0.58362426               -1.27529511                0.14591828
              44.57329648              -16.20491671               95.48178902                0.43542480               -0.82495321                0.07026038                0.61010415                0.49470786               -1.85166596                0.18549784
              45.56439493              -21.22395936               94.49362829                0.43508014               -0.85419598                0.06402268                0.75666803                0.35297336               -2.52966175                0.15042193
              46.55621256              -26.27173656               93.49364676                0.43474888               -0.68270632                0.08060062                1.04309725                0.20502899               -2.65664652                0.13279148
              47.55074080              -31.34278541               92.49409794                0.71728253               -0.54717597               -0.29581522                1.27700258                0.92552084               -2.29225088               -1.52327653
              42.83447269               20.50558461              101.97991093                0.43463228               -1.00834589                7.89961586               -0.09705875                9.43595024                3.38623325                9.36297309
              43.82438924               15.09850401              100.97240797                0.00010000               -6.32947146               -8.66281377                1.39148442               18.55029758                9.27302760               -9.66821402
              44.70788327                9.87584018              100.08538675                0.00010000               -9.69672586               16.49926167                1.62276787               58.71216241               12.44852225               -0.35300549
              45.63045472                4.77209435               99.17632788                0.00010000               -6.00686886               19.95632894                0.90779134               92.89035262                9.74249232              -10.98046769
              46.58774589               -0.24885144               98.26400752                0.00010000               -2.99781891               20.47350480                0.17198916              116.21916900                8.58681882              -17.40557412
              47.57049834               -5.23272785               97.34650728                0.00010000               -0.80515906               20.77651476               -0.49709383              131.82547572                7.85789372              -24.07562548
              48.57164271              -10.21096435               96.42282289                0.00010000                0.68007462               21.21216349               -1.08124943              141.84975494                7.38949617              -32.23353754
              49.58409983              -15.20421411               95.49117863                0.00010000                1.48459404               21.00592325               -1.54320379              146.87979941                6.90866881              -43.78040013
              50.60133459              -20.22331914               94.54880307                0.00010000                1.67880204               17.19931142               -1.91955093              146.00010643                6.19418221              -62.20779620
              51.61767587              -25.27093056               93.59359698                0.00010000                1.48551346                1.97809592               -2.32335104              138.70356775                4.60680365              -96.84947399
              52.63104486              -30.34574356               92.61524578                0.43396855                1.33689833              -80.05307845               -2.49931027              150.07620679                3.14186363             -169.44228777
              48.44477413               21.65082989              101.69492991                0.43379042                0.43055191               10.88552806               -1.98328832                0.64398119               -1.46043926               17.90398169
              49.44907965               15.93767374              100.46886824                0.00010000               28.99332532              -12.47852379                2.84844198               49.78247306               27.41027020              -18.13428481
              51.02464064               11.19458203               99.81694303                0.00010000               54.74740882               17.25496071              -24.01610362              134.11683568              117.19212228                6.00871516
              52.54402783                6.16566640               98.77381696                0.00010000               44.19822057               29.34104427              -24.31850564              171.08185224              131.21167323               -7.74197506
              53.90860505                1.15651277               97.78705609                0.00010000               31.94078830               33.85575493              -23.49006257              210.48777452              146.34322491              -17.51289126
              55.18284359               -3.81956147               96.78312916                0.00010000               24.03851494               36.74872404              -22.41826505              239.98392593              153.13680033              -27.62310754
              56.38937535               -8.78800355               95.74140478                0.00010000               17.02018331               39.19609604              -21.35742579              259.86390741              156.87738737              -39.68570210
              57.52324726              -13.78479824               94.62442270                0.00010000                8.08690793               39.90466083              -19.37165360              269.10212415              156.78024850              -56.47126923
              58.55111351              -18.87997314               93.35994790                0.00010000               -3.52694596               34.13659702              -15.05178628              261.98994552              145.73954793              -83.55183301
              59.45270834              -24.23217464               91.75504724                0.00010000                7.53887207                4.15903839               -9.22019206              188.47873514              101.66470408             -133.34187100
              60.70189095              -30.94384698               89.38109447                0.43438825               24.91826079              -85.80598802              -29.96143371              127.74778387               55.21409718             -290.21599798
              54.27366463               22.72329517              101.40408805                0.43354938                0.26219247                4.40878971               -0.15726176               -0.17168931                0.15315849               19.83216274
              55.27628656               16.84893353               99.97281250                0.00010000               44.42813420               -5.98816630                0.82859941               62.09424885               39.10768164              -19.33595274
              57.16222732               12.22093940               99.31521380                0.00010000               90.69372332               -3.00493922              -30.23808361              131.95282286              137.26130866               -8.80561099
              59.09016102                7.35891524               98.25983413                0.00010000               81.02509666                8.97655612              -29.86379409              144.95816568              159.91916148               -7.92116891
              60.78272925                2.42826365               97.20041555                0.00010000               61.22660798               16.83500709              -27.82514913              168.24466335              178.72289800              -13.64265814
              62.31469318               -2.49775337               96.08272534                0.00010000               47.57141910               22.07283778              -25.60149285              191.24301460              187.59834625              -21.54525043
              63.73415763               -7.42704243               94.86811818                0.00010000               37.17093612               25.83582612              -23.51289113              208.99030876              191.09867916              -32.12894878
              65.05811190              -12.40612089               93.48640274                0.00010000               27.71761336               27.26243981              -21.00783638              218.18524587              188.11881723              -47.18832922
              66.28850990              -17.54058720               91.81215695                0.00010000               19.65062576               23.06108582              -18.58127986              205.30728120              170.02535347              -70.36626156
              67.45112442              -23.18774979               89.55009498                0.00010000               16.04176532                6.92227899              -20.87991956              138.19085449              121.02768183             -114.30854550
              68.60934520              -30.06186332               86.25053280                0.43451762               15.82207845               15.05130106              -76.17638589               74.83210428               79.76606751             -224.13725509
              60.19006362               23.73900569              101.12848279                0.43426677                0.32567798               -0.21466643                0.85170855               -0.40502973                0.44282727               20.28434765
              61.19332040               17.81791041               99.46995881                0.00010000               48.18258833               -1.27464265               -0.30881587               61.49993611               50.27675258              -19.22901914
              63.15371539               13.13448325               98.80294552                0.00010000              102.12732400               -9.34116696              -33.59498648              121.86640327              154.35614271              -12.37286674
              65.23586688                8.34519752               97.73768193                0.00010000               98.82257666               -6.34456698              -32.42544561              123.42159717              175.02020097               -9.30473890
              67.13016692                3.49321292               96.62862263                0.00010000               81.35715416               -0.83678298              -29.79065558              134.44293845              193.73207301              -11.06230094
              68.86300997               -1.37810471               95.40753707                0.00010000               67.36910607                3.71305291              -27.06400055              149.14190167              202.30059711              -16.16211636
              70.47754904               -6.27128703               94.02757914                0.00010000               56.87434906                6.80520068              -24.81055301              161.53912519              205.01677227              -24.02748144
              72.00049695              -11.23954945               92.39847852                0.00010000               48.06694925                7.81195650              -22.94326677              164.93384384              200.23646043              -35.65310228
              73.43888803              -16.41875142               90.36199606                0.00010000               36.86523037                6.10229179              -22.55378150              146.67801869              179.85200770              -54.35756104
              74.73780156              -22.09372906               87.59578641                0.00010000               25.39360356                9.88005829              -31.02636809               89.12389666              125.63287063              -88.37718683
              75.94676010              -28.64282096               83.63171889                0.43457777               20.89585460               44.32683878              -92.23395298               49.77510755               82.28033795             -162.59321098
              66.10775459               24.71900184              100.84912757                0.43391778                0.30531257               -3.00798692                1.49168866               -0.47167322                0.67766273               18.89705741
              67.11080772               18.82344068               98.97656349                0.00010000               48.22568394                1.65623764               -1.04940758               54.81281879               59.99737530              -17.60490456
              69.07226827               14.03411606               98.28591069                0.00010000              104.45277914              -10.41720165              -34.35491862              107.79666908              168.32467165              -13.86227353
              71.19986330                9.23202390               97.22158825                0.00010000              106.13109927              -14.06102110              -33.17492323              108.10562639              187.00539427              -10.38673477
              73.19489025                4.41152799               96.07677129                0.00010000               93.10839297              -12.90491839              -30.37485265              113.39386390              203.57278311              -10.51659470
              75.06203116               -0.42349231               94.77389484                0.00010000               81.57473074              -10.40619353              -27.66677306              121.40418690              210.99055153              -13.43987118
              76.82638487               -5.29093841               93.25630122                0.00010000               72.11110089               -8.23258664              -25.64741223              127.35213614              212.65755291              -19.00676935
              78.50425317              -10.24988176               91.42309623                0.00010000               62.49325091               -6.66398965              -24.39307978              124.83320368              206.69234205              -27.92418181
              80.07624989              -15.41854136               89.10451637                0.00010000               47.67093575               -3.44664211              -25.41783584              104.82172252              184.43260321              -42.44700050
              81.45767189              -20.99014862               85.97345340                0.00010000               31.33906273                9.35670090              -35.74963319               60.47541090              127.33809022              -67.45668622
              82.70303114              -27.17532655               81.58263086                0.43426577               24.53592512               44.45109884              -97.74502119               33.11257173               82.89736639             -116.42503027
              71.97175249               25.67884595              100.56045305                0.43367675                0.27100794               -4.36518782                1.75793944               -0.45592500                0.76683228               16.76788964
              72.97446257               19.85103516               98.49508591                0.00010000               46.46565337                3.23453693               -1.41038986               44.64872779               69.10081063              -15.47957387
              74.90106555               14.92613922               97.79267610                0.00010000              102.30524543              -11.48268780              -33.42224126               88.40446003              181.18097318              -13.53291991
              77.02056747               10.06397710               96.74153069                0.00010000              107.62474286              -18.76183320              -32.51988134               90.68436856              197.66006410              -10.20582409
              79.05356041                5.23511455               95.57984432                0.00010000               98.64963192              -20.62726612              -30.01770133               94.23856271              211.88427557               -9.46921355
              80.99356011                0.41377141               94.22084374                0.00010000               89.87104034              -19.90508687              -27.68157562               97.89021981              217.74152094              -10.96931246
              82.85098122               -4.43593876               92.60114179                0.00010000               81.56019288              -18.26496808              -26.09863607               98.76474368              218.18356901              -14.75941911
              84.62476397               -9.37282924               90.61490940                0.00010000               71.23040631              -15.51498893              -25.40071818               92.64890325              210.94259624              -21.37595971
              86.27558934              -14.48768426               88.08941339                0.00010000               53.96654941               -8.99213155              -27.06831746               74.50874571              187.05367041              -32.24834620
              87.70409496              -19.90659505               84.70216198                0.00010000               35.18890200                6.96657503              -37.79223150               41.58368489              128.03020255              -50.17972663
              88.97936738              -25.75379898               80.02376451                0.43429118               27.52724254               39.04309888              -99.07277737               22.73130115               82.74593432              -83.39299500
              77.75425766               26.63169809              100.25806482                0.43433953                0.22313429               -4.51968581                1.68533416               -0.42346507                0.80427316               14.23317878
              78.75648900               20.88813142               98.02674474                0.00010000               43.65789357                3.64665046               -1.42246420               32.52143145               78.09709496              -13.14090615
              80.62741553               15.80446230               97.33829467                0.00010000               97.40431666              -13.33407870              -31.17375352               65.73308741              193.84901593              -12.38812569
              82.70457534               10.85678724               96.32273266                0.00010000              105.12258306              -22.27310410              -30.65497957               71.16790205              208.00901774               -8.98590630
              84.72986719                5.99898267               95.16657394                0.00010000               99.31567624              -25.24763429              -28.79325659               74.72016256              219.70483359               -7.69013377
              86.69088886                1.17840595               93.77899487                0.00010000               92.92066031              -25.25815637              -27.14230963               75.68644391              223.82757811               -8.23480159
              88.58828040               -3.65623777               92.09314379                0.00010000               85.90439414              -23.79747393              -26.15569133               73.36002213              222.84759375              -10.66813373
              90.40897674               -8.56018154               90.00221212                0.00010000               75.59551032              -20.32066716              -25.94935321               66.05990641              214.26567042              -15.35815494
              92.10019061              -13.59838399               87.33394673                0.00010000               57.32417814              -12.32121251              -27.93568339               51.43603280              188.91960905              -23.12695152
              93.55546031              -18.85081712               83.77133230                0.00010000               37.59372139                4.30978082              -38.57237771               28.22437530              128.49412126              -35.62333360
              94.85206503              -24.39446457               78.89950905                0.43447481               29.66047265               33.34649783              -98.93773110               15.44196012               82.60892510              -57.95733055
              83.45041652               27.58845223               99.93974108                0.43372201                0.17104590               -3.60245163                1.24754629               -0.32247284                0.80882221               11.72802301
              84.45212698               21.92396817               97.57118829                0.00010000               39.83274822                2.98487689               -1.04471643               19.61668440               87.65622959              -10.97224309
              86.24707149               16.65945764               96.93708632                0.00010000               89.86390819              -16.23088994              -27.63256705               41.42584461              207.40778472              -10.51851330
              88.24940514               11.61851502               95.98807482                0.00010000               98.96367294              -24.80667056              -27.64777969               50.73633157              218.69856293               -6.63911800
              90.22634494                6.73016186               94.86186442                0.00010000               95.65521469              -27.06262229              -26.85124949               54.25951329              227.51691781               -5.17545456
              92.16250944                1.90860829               93.47115626                0.00010000               91.52121032              -27.14707200              -26.18364953               53.29762818              229.62917793               -5.09148076
              94.05676915               -2.91188824               91.75263296                0.00010000               86.27994393              -25.87084229              -25.95678949               49.33213790              227.13461761               -6.51506901
              95.88810832               -7.77924258               89.60075794                0.00010000               76.90882164              -22.37014318              -26.24291295               42.59982054              217.24918771               -9.59361519
              97.59494558              -12.73410851               86.84465681                0.00010000               58.82773621              -14.22149637              -28.44174739               32.40345141              190.62794877              -14.74278205
              99.06466304              -17.82039943               83.17070740                0.00010000               39.02779484                2.13599870              -38.95810650               17.80132389              129.04392056              -22.73125781
             100.37550148              -23.08686902               78.17372741                0.43411784               31.08384396               29.24510598              -98.57689833                9.86607689               82.66590604              -36.91493977
              89.07677632               28.55964905               99.60736747                0.43353165                0.10409578               -1.87857468                0.25207096               -0.08912480                0.29967325                8.51154005
              90.07781728               22.94782896               97.12493474                0.00010000               34.23046275                1.47364950               -0.04099561                7.03684684               98.73247109               -8.14633199
              91.76138558               17.47984450               96.60886388                0.00010000               78.53902327              -19.59748503              -22.49292764               18.03041068              223.19777994               -6.48806466
              93.64859775               12.36065382               95.76413880                0.00010000               88.17893055              -24.44171024              -23.77540882               28.16932424              230.50734578               -3.76131225
              95.52496419                7.45773023               94.68236709                0.00010000               87.51468893              -26.10209622              -24.49320710               30.56298439              235.10937602               -2.34984506
              97.39889152                2.63546451               93.30842199                0.00010000               86.89049203              -26.55468190              -25.20667085               28.66179814              235.25869598               -2.05538523
              99.26277403               -2.17365462               91.58717311                0.00010000               84.21509523              -25.73943674              -25.84162150               25.24690130              231.45958227               -2.68974115
             101.08319343               -7.00758440               89.41583687                0.00010000               76.33212245              -22.64054020              -26.56169783               20.89926030              220.35361477               -4.37532525
             102.78941648              -11.88281392               86.62156974                0.00010000               59.05269334              -14.81105847              -28.94270386               15.63849392              192.76581067               -7.11030440
             104.26424730              -16.80809715               82.89335239                0.00010000               39.64546404                0.84196372              -39.36927023                8.76379961              130.03283894              -10.98954363
             105.58232576              -21.80956245               77.82477219                0.43435420               31.80784630               27.31821203              -98.60911532                4.96539297               82.86064049              -18.16909963
              94.67227422               29.55088074               99.24165217                0.71704927                0.03942479               -0.87683171               -0.36225934               -0.19416778                3.48538830                6.43691902
              95.67266847               23.95344116               96.70764560                0.43541655               26.12903055                0.56122048                0.79280931               -4.68352100              115.54644814               -6.25367904
              97.19485483               18.26750794               96.41200365                0.43652466               58.11187179              -21.23365619              -17.05372448                2.15890800              246.32001889              -10.23042167
              98.83490590               13.12968081               95.66328126                0.43706149               68.39695555              -23.09730111              -19.80643519               15.66141575              241.85661217               -6.45712594
             100.56279394                8.20811994               94.62695552                0.43746734               76.61121715              -24.96102881              -22.89791693               16.17466730              242.21265053               -5.65618508
             102.36713025                3.37751465               93.28212878                0.43754706               82.09810741              -25.79498631              -25.04310718               15.08402676              241.39344601               -5.94981850
             104.20475609               -1.42667697               91.58680021                0.43706589               82.40612872              -25.30223516              -26.36247719               13.71980428              237.77100566               -7.35091491
             106.01525282               -6.23205339               89.44098045                0.43688758               75.17360584              -22.44689871              -26.96249105               13.02330379              226.58354243               -9.97434486
             107.70822821              -11.03032968               86.66510171                0.43577878               57.57173702              -14.75157616              -28.68298158               13.30583467              197.33106010              -13.98517428
             109.16668756              -15.80356016               82.93535622                0.43464460               38.47558672                0.45369927              -39.32672934               14.73527154              132.31889719              -15.77992671
             110.47773994              -20.54050478               77.84896525                0.71734632               31.10523801               26.90576662              -98.61635660               15.84695555               84.26568830              -19.53464283
              38.41867923               19.89610232              103.35581480                1.00000000                0.36975682                1.77396705               -0.49005645                0.85879211               -2.32649388                2.17492126
              39.42237680               14.46500584              102.35576455                1.00000000                2.96389418               -1.19302842               -0.02665312                2.89050713               -4.15875083               -1.25289880
              40.47795712                9.10646182              101.32454472                1.00000000                4.43958076                1.80851828               -1.20795224               -2.85597669               -4.67057813                2.94582846
              41.51116842                3.94216274              100.35441422                1.00000000                2.62546961                0.72134337               -0.60628869               -0.70554592               -1.73223413                1.19469343
              42.53046651               -1.12577591               99.39062150                1.00000000                1.33514542                0.48359272               -0.24894898               -0.47469500               -1.18574916                0.59966282
              43.53787132               -6.14975584               98.42856516                1.00000000                0.41965741                0.20997794                0.05968822               -0.42764926               -1.09343995                0.10527136
              44.53885966              -11.16766666               97.46145241                1.00000000               -0.02823552                0.03236981                0.24254617               -0.55638619               -1.36645588               -0.20809527
              45.53730661              -16.20250323               96.48530471                1.00000000               -0.15155729               -0.05955994                0.35156890               -0.72737252               -1.77774658               -0.36373271
              46.53582851              -21.26492550               95.49787721                1.00000000               -0.12711105               -0.04639332                0.42489154               -0.85727192               -2.14650190               -0.41464071
              47.53476439              -26.35409334               94.49950751                1.00000000               -0.10476099                0.16206940                0.58607505               -0.52605290               -1.95262616               -0.35332642
              48.53373329              -31.45451736               93.50172102                1.00000000               -0.10311020               -0.24356711                0.76230789                0.17202496               -1.47939947               -1.22283805
              43.85836363               20.91384199              102.97429927                1.00000000               -1.22615058                9.94745682               -0.56116661               15.04514784                3.87513934                5.97702626
              44.84610212               15.45307556              101.98915973                1.00000000               -7.37723638               -9.37630813                1.67517561               21.79919664                9.06322451               -6.92311029
              45.71081890               10.12454700              101.11213799                1.00000000              -11.29351507               31.59143881                2.67512324              131.81460781               10.37248870              -24.93728713
              46.62023182                4.94937618              100.19073823                1.00000000               -6.95700237               34.19097100                1.44103584              184.19459787                6.84264668              -28.94436886
              47.57167885               -0.12093998               99.26943672                1.00000000               -3.28458052               37.23007566                0.54291960              214.12999933                6.07048215              -34.44262850
              48.55454021               -5.14765606               98.34428195                1.00000000               -0.60046809               41.02267391               -0.22253266              234.07385896                5.67191602              -40.43139359
              49.55966949              -10.16734296               97.41479130                1.00000000                1.20610497               46.74531506               -0.80315925              248.47886986                5.55127633              -48.59607885
              50.57866231              -15.20309883               96.47925391                1.00000000                2.16906770               54.49510320               -1.19247175              259.38919020                5.45152967              -60.05069046
              51.60305084              -20.26538944               95.53469694                1.00000000                2.28187411               62.42641816               -1.41061339              267.88471756                5.12548127              -77.08914515
              52.62429979              -25.35247265               94.57833102                1.00000000                1.64133561               67.53319304               -1.52659541              273.91363507                3.98877420             -106.43177962
              53.63587756              -30.45695303               93.60122459                1.00000000                1.15777655              -23.13175027               -1.40211894              281.30447450                2.77262683             -177.72190496
              49.64111505               22.09505145              102.65884057                1.00000000                0.65406740               13.20397680               -3.60893441               10.45464307                4.56595870               15.56323057
              50.64765572               16.27747968              101.50815924                1.00000000               98.84168046              -13.69008646                3.92910014               75.32558256                3.33484545              -16.31142190
              53.61794866               11.73829060              100.32838534                1.00000000              139.64458177               28.16681999              -48.85576874              222.65965978              154.97099949              -11.82375820
              55.44054736                6.62598216               99.42096320                1.00000000               64.60750409               45.49626558              -35.28537614              270.38872455              195.52998607              -19.64664542
              56.91009874                1.61882561               98.44594600                1.00000000               41.26020664               53.51403810              -34.11100827              324.44605238              201.59089470              -24.41915818
              58.26575149               -3.32930237               97.44979372                1.00000000               32.68905436               61.52230081              -33.33354482              364.29202993              206.10789246              -29.86453907
              59.56387982               -8.23276036               96.40228806                1.00000000               27.86927007               71.36527165              -33.91167180              396.63131604              209.06377971              -36.93321437
              60.82313689              -13.11260117               95.28206036                1.00000000               23.95084251               82.77684440              -34.23623442              423.17862930              211.88630493              -46.79863500
              62.04289667              -18.01639714               94.04023490                1.00000000               19.07318985               92.35017379              -31.97130009              445.46636967              211.77310361              -63.34690538
              63.20460069              -23.00342948               92.53395610                1.00000000               16.29434346               82.31134687              -22.10911476              379.74274174              181.66258228              -89.27203268
              64.36878354              -29.91715236               90.16970186                1.00000000               16.41828569               -8.58727911              -21.13926144              305.31422306              130.26383557             -247.11481664
              55.70260003               23.17792153              102.39712075                1.00000000                0.67745977                4.81484062               -0.69672977               11.04259486                1.51340470               19.22134633
              56.70937463               17.17927383              100.98331940                1.00000000              105.64547898               -6.51196576                1.05069010               86.42453984               12.86505478              -19.00778105
              59.81550961               12.68788340               99.78824570                1.00000000              171.90483345               -8.26212192              -52.69681065              150.51222451              160.02094979               -7.65136829
              62.14747130                7.85930149               98.87717380                1.00000000              110.01874081                9.86180833              -38.26603378              161.65013541              209.14013748               -4.58399114
              64.01588443                2.94934078               97.85642789                1.00000000               77.22477377               19.52190983              -34.39876592              192.06586419              217.78047622               -7.00884356
              65.69196678               -1.91721005               96.76647296                1.00000000               62.98550936               26.61667704              -31.62523796              225.25300468              223.18799685              -10.51088437
              67.27559462               -6.74003753               95.56564064                1.00000000               56.69524487               32.64407972              -30.24775436              255.70059591              225.76440378              -15.54294048
              68.82587167              -11.54756195               94.19888706                1.00000000               56.38059651               36.58335199              -28.75156828              282.40288402              225.52428698              -23.20535363
              70.40320655              -16.41838596               92.54060684                1.00000000               64.70190879               34.18471462              -27.15501146              293.12344702              218.29531388              -36.22192635
              72.11990985              -21.70624571               90.33540004                1.00000000               58.32006178               12.58907911              -21.46949449              231.60590380              170.12515221              -63.04893164
              73.56960778              -28.62869861               86.60553902                1.00000000               44.96979336               29.42070024              -64.49937798              170.40379902              123.04015638             -169.88648579
              61.85926233               24.19134827              102.13401479                1.00000000                0.69223090               -0.64942112                0.55319974               10.43273817                0.25069412               18.52784135
              62.86618464               18.14724037              100.46732302                1.00000000              104.44515786               -1.13756643               -0.26357893               83.89817883               22.65918223              -17.98430474
              65.94816549               13.57304816               99.24146996                1.00000000              177.29540221              -12.18860359              -56.14755566              141.66564647              172.50440214               -8.90684821
              68.41209268                8.82321833               98.32851087                1.00000000              128.98810353               -9.27773810              -40.91710559              137.75453609              218.72982575               -5.61372637
              70.52792756                4.00926380               97.26361488                1.00000000              102.40486060               -3.16056344              -36.50077506              153.47179941              227.27498925               -5.77735810
              72.46018990               -0.79696882               96.07848939                1.00000000               89.01580413                1.28744104              -32.90476818              176.75970144              232.40822222               -8.12896106
              74.30824364               -5.57987877               94.71741946                1.00000000               84.46765517                3.73806375              -31.01596786              200.55453829              234.18676014              -12.02079088
              76.14954300              -10.38093413               93.10083540                1.00000000               87.79028684                2.92182092              -29.76431241              217.87598112              232.60332698              -18.12119792
              78.06404938              -15.33270285               91.07139390                1.00000000               94.87442070               -3.47520246              -29.06021613              214.24915702              222.97283001              -28.49601422
              80.04703141              -20.75164790               88.30996930                1.00000000               77.88579741               -8.98848284              -28.58171012              153.17182024              172.63542655              -49.41894053
              81.62176533              -27.32873836               83.90564272                1.00000000               57.47339129               26.98706264              -72.60761735              104.31252775              127.06786370             -107.00582851
              67.99947060               25.16493310              101.86299242                1.00000000                0.61677201               -3.69621433                1.38648463                9.20246538               -0.63030217               16.79067085
              69.00563832               19.15652250               99.96497339                1.00000000               98.66869907                2.15803450               -1.15901028               73.91822973               32.98238516              -16.10486928
              71.97284458               14.44411133               98.73297891                1.00000000              173.03540295              -13.60003339              -55.29317794              122.84528961              182.25184429               -7.70520362
              74.46634638                9.67374673               97.80885765                1.00000000              136.63314970              -18.57508207              -41.27306024              119.22686300              225.43830988               -5.23042815
              76.70550757                4.88612951               96.70877895                1.00000000              117.49784988              -18.41060042              -36.79923401              127.80605381              232.69994728               -4.84230860
              78.81630337                0.10853877               95.44162196                1.00000000              108.25715580              -17.16501425              -33.22728798              142.71051317              237.10868914               -6.24964722
              80.87065069               -4.66527626               93.94240830                1.00000000              105.99560007              -17.08848104              -31.38929217              157.47477878              238.30710756               -9.09374126
              82.93621538               -9.48912553               92.11923247                1.00000000              109.41263825              -19.02158137              -30.38637660              164.55904011              236.00527542              -13.76644225
              85.05890345              -14.48789001               89.79858941                1.00000000              112.15831943              -21.28390015              -30.59269622              152.34215225              225.44667822              -21.85341689
              87.17938176              -19.88601537               86.66285890                1.00000000               87.55679014              -15.50213852              -31.05945032              102.64504053              174.10437970              -36.00543657
              88.81003926              -26.08895736               81.83725725                1.00000000               63.06574926               20.36347605              -74.53736089               66.92987098              128.14064742              -72.40160643
              74.06013284               26.11742398              101.57796569                1.00000000                0.52381682               -5.12198042                1.75126349                7.75873841               -1.05233435               14.48809218
              75.06537101               20.19040106               99.47906199                1.00000000               91.38571087                3.96400531               -1.60239124               59.54426681               43.56132681              -13.81319965
              77.88784706               15.30104749               98.26737534                1.00000000              164.46203772              -15.44514101              -52.53007555               98.07134081              191.74788315               -6.36995391
              80.35461176               10.45171669               97.34045665                1.00000000              138.07047668              -24.98010968              -40.10740379               97.83384909              230.91394481               -4.37156608
              82.64925659                5.64105179               96.21756567                1.00000000              125.55970841              -28.57224846              -36.22786489              104.34253886              237.01849910               -3.89341389
              84.86580593                0.85973089               94.88943428                1.00000000              120.30734641              -29.75780615              -33.14094624              113.40145649              240.55731450               -4.80184327
              87.05540352               -3.92164839               93.28422032                1.00000000              119.87658129              -30.74671476              -31.69214685              120.71924839              241.17022061               -6.87679162
              89.26333755               -8.76136576               91.30399409                1.00000000              122.61893718              -31.71209839              -31.09153099              120.92329140              238.29748513              -10.44849531
              91.50778226              -13.75838085               88.77302286                1.00000000              121.88310087              -29.97678482              -31.63905316              107.15161789              227.09929012              -16.38872739
              93.70099957              -19.06169067               85.38159406                1.00000000               92.92322339              -19.05080400              -32.05679201               69.70156387              175.28292891              -26.20219923
              95.36624673              -24.92146884               80.28487221                1.00000000               66.52471567               13.41391124              -73.88923025               44.74528934              129.01574950              -50.03018739
              80.00869121               27.06249349              101.27559819                1.00000000                0.42089318               -5.27212634                1.75333721                6.23351521               -1.11870367               11.85702027
              81.01290014               21.23580261               99.00997760                1.00000000               83.21322751                4.50633017               -1.67671380               42.44107443               54.64936890              -11.30246294
              83.67295576               16.13520851               97.85576329                1.00000000              153.50594545              -18.38661503              -48.25313788               68.57420997              201.35250047               -4.70657948
              86.08301905               11.17414453               96.94594715                1.00000000              135.56941930              -30.10590316              -37.67855084               73.63252223              236.00801661               -2.91417782
              88.38434415                6.31468454               95.81903618                1.00000000              128.20068163              -35.02786382              -34.75377582               80.32978155              240.83364519               -2.51993453
              90.64703269                1.51338265               94.45366614                1.00000000              126.08940783              -37.02234012              -32.53287276               85.58506979              243.47715975               -3.18424000
              92.90613231               -3.28021055               92.77629173                1.00000000              127.21904899              -38.26311707              -31.68520601               87.75112646              243.46866335               -4.71140450
              95.19141367               -8.12336750               90.68733559                1.00000000              129.80642081              -38.34831449              -31.48765290               84.58178426              240.03950772               -7.31956375
              97.50226072              -13.08742571               88.01220804                1.00000000              127.25436810              -34.47254349              -32.17386896               72.69117966              228.29053975              -11.53840480
              99.73650103              -18.26703145               84.44900616                1.00000000               96.11203292              -21.74945773              -32.23261422               46.47290686              176.09333124              -18.26364241
             101.42450138              -23.82067913               79.17199322                1.00000000               68.80003519                7.47295354              -72.75158335               29.72348056              129.54234101              -34.09952554
              85.83818491               28.01198145              100.95351528                1.00000000                0.32925659               -4.29291497                1.37742023                4.63715157               -0.80765344                9.17335352
              86.84147748               22.28052766               98.55767036                1.00000000               74.14022087                3.83698052               -1.35179363               23.76102350               66.84685261               -8.81198615
              89.32098933               16.93331519               97.51175134                1.00000000              140.31543463              -22.94301000              -42.53349807               36.08182246              211.88119164               -2.27887404
              91.64778617               11.84959863               96.64745850                1.00000000              129.78123871              -34.22909397              -34.06163198               48.80643249              241.03869750               -0.86844518
              93.91661410                6.94049452               95.53576323                1.00000000              126.23081247              -37.78980096              -32.61011837               55.94844056              244.44379521               -0.79823221
              96.17240242                2.11928409               94.15579608                1.00000000              126.52810439              -39.59929651              -31.53601753               58.13919740              246.09802601               -1.44415573
              98.44717619               -2.68691073               92.43793779                1.00000000              129.48929869              -40.95397109              -31.46951715               56.77884774              245.44963647               -2.60364404
             100.76218839               -7.52833205               90.28397473                1.00000000              132.90468062              -41.12512809              -31.67832090               52.42653051              241.52802781               -4.40903383
             103.10526980              -12.44783172               87.52033819                1.00000000              130.07613710              -37.05615942              -32.43186202               44.26499179              229.27117846               -7.18945621
             105.36371114              -17.49667982               83.84874986                1.00000000               98.13709545              -24.01012235              -32.19575451               28.49468460              176.65344140              -11.50552076
             107.06801171              -22.77200977               78.45531083                1.00000000               70.43005771                3.16143961              -71.84165796               18.45728122              129.90711997              -21.53274402
              91.56434183               28.97663519              100.61200682                1.00000000                0.24450482               -2.38844307                0.46393520                2.75751711               -0.38224077                6.03660941
              92.56678688               23.31254222               98.12061890                1.00000000               63.05897079                2.09034210               -0.43158347                4.09065555               81.42015448               -5.87495750
              94.82552125               17.67634831               97.26247071                1.00000000              124.25907478              -29.80731616              -34.63931665                6.89274754              223.70317323                1.54574749
              97.05196837               12.48956265               96.46641103                1.00000000              120.40531257              -34.37206893              -29.77277715               24.36588817              246.33383880                1.52399410
              99.23362750                7.55888853               95.38240623                1.00000000              119.26267534              -36.77682507              -29.99608601               30.16763843              247.71735076                0.84003794
             101.43722188                2.72139672               94.00343143                1.00000000              122.78489492              -38.63165514              -30.49905662               29.68157533              248.42591575               -0.03512462
             103.68932540               -2.09928997               92.27426383                1.00000000              128.18216927              -40.47792874              -31.29092832               26.96105568              247.35025768               -0.86154711
             106.00086527               -6.94587006               90.09733384                1.00000000              133.32914678              -41.44543566              -31.85030263               23.39717078              242.84725861               -1.90431445
             108.35590833              -11.82854889               87.29586533                1.00000000              131.48537496              -39.15042682              -32.57044144               19.72923054              230.35531953               -3.15424846
             110.63057277              -16.74723389               83.57145653                1.00000000               99.41992791              -25.69393116              -32.18958659               13.31072599              177.42027168               -5.40195529
             112.34430689              -21.75745034               78.11161982                1.00000000               71.37341241                0.80495230              -71.31523696                8.94503320              130.21444263              -10.63807179
              97.22152121               29.96421259              100.24027519                1.00000000                0.20562680               -1.24226025               -0.13769765                1.53012846                1.97164757                4.16002241
              98.22357747               24.32233450               97.71074468                1.00000000               53.01513200                0.97922832                0.30990794              -15.67312689              100.56007456               -4.09808823
             100.28182385               18.33716887               97.14965867                1.00000000              101.44931229              -33.91794444              -26.23449831              -12.37860291              244.16570333               -4.31511154
             102.25256372               13.16215725               96.42012072                1.00000000              100.31544809              -32.74054070              -24.31605401               13.44899199              251.79521762               -1.38138747
             104.28813281                8.20495802               95.35024739                1.00000000              108.58243529              -35.39305086              -27.67081303               14.67521779              250.68930930               -3.53207578
             106.42421242                3.34665099               93.98322918                1.00000000              118.27656377              -37.47457344              -29.88996015               13.62768831              251.79472560               -5.10659117
             108.65366408               -1.49646930               92.27197755                1.00000000              126.75891528              -39.71793309              -31.48226601               11.23928127              251.85232795               -7.20786119
             110.95939073               -6.35724076               90.12245975                1.00000000              132.37770839              -41.13707039              -31.85207000                9.13399877              248.25107171              -10.00614625
             113.30121825              -11.23084026               87.34872317                1.00000000              129.97181857              -40.22913620              -31.63785424               11.86510759              234.12522871              -14.76527348
             115.55882710              -16.01055845               83.61898424                1.00000000               98.30635109              -26.33245530              -31.63719727               16.57191041              178.69405419              -15.94705736
             117.26734527              -20.75591072               78.13832517                1.00000000               70.85181701                0.15396209              -71.06400768               17.76861083              130.89462587              -18.87005854
         1          2         13         12        122        123        134        133  
         2          3         14         13        123        124        135        134  
         3          4         15         14        124        125        136        135  
         4          5         16         15        125        126        137        136  
         5          6         17         16        126        127        138        137  
         6          7         18         17        127        128        139        138  
         7          8         19         18        128        129        140        139  
         8          9         20         19        129        130        141        140  
         9         10         21         20        130        131        142        141  
        10         11         22         21        131        132        143        142  
        12         13         24         23        133        134        145        144  
        13         14         25         24        134        135        146        145  
        14         15         26         25        135        136        147        146  
        15         16         27         26        136        137        148        147  
        16         17         28         27        137        138        149        148  
        17         18         29         28        138        139        150        149  
        18         19         30         29        139        140        151        150  
        19         20         31         30        140        141        152        151  
        20         21         32         31        141        142        153        152  
        21         22         33         32        142        143        154        153  
        23         24         35         34        144        145        156        155  
        24         25         36         35        145        146        157        156  
        25         26         37         36        146        147        158        157  
        26         27         38         37        147        148        159        158  
        27         28         39         38        148        149        160        159  
        28         29         40         39        149        150        161        160  
        29         30         41         40        150        151        162        161  
        30         31         42         41        151        152        163        162  
        31         32         43         42        152        153        164        163  
        32         33         44         43        153        154        165        164  
        34         35         46         45        155        156        167        166  
        35         36         47         46        156        157        168        167  
        36         37         48         47        157        158        169        168  
        37         38         49         48        158        159        170        169  
        38         39         50         49        159        160        171        170  
        39         40         51         50        160        161        172        171  
        40         41         52         51        161        162        173        172  
        41         42         53         52        162        163        174        173  
        42         43         54         53        163        164        175        174  
        43         44         55         54        164        165        176        175  
        45         46         57         56        166        167        178        177  
        46         47         58         57        167        168        179        178  
        47         48         59         58        168        169        180        179  
        48         49         60         59        169        170        181        180  
        49         50         61         60        170        171        182        181  
        50         51         62         61        171        172        183        182  
        51         52         63         62        172        173        184        183  
        52         53         64         63        173        174        185        184  
        53         54         65         64        174        175        186        185  
        54         55         66         65        175        176        187        186  
        56         57         68         67        177        178        189        188  
        57         58         69         68        178        179        190        189  
        58         59         70         69        179        180        191        190  
        59         60         71         70        180        181        192        191  
        60         61         72         71        181        182        193        192  
        61         62         73         72        182        183        194        193  
        62         63         74         73        183        184        195        194  
        63         64         75         74        184        185        196        195  
        64         65         76         75        185        186        197        196  
        65         66         77         76        186        187        198        197  
        67         68         79         78        188        189        200        199  
        68         69         80         79        189        190        201        200  
        69         70         81         80        190        191        202        201  
        70         71         82         81        191        192        203        202  
        71         72         83         82        192        193        204        203  
        72         73         84         83        193        194        205        204  
        73         74         85         84        194        195        206        205  
        74         75         86         85        195        196        207        206  
        75         76         87         86        196        197        208        207  
        76         77         88         87        197        198        209        208  
        78         79         90         89        199        200        211        210  
        79         80         91         90        200        201        212        211  
        80         81         92         91        201        202        213        212  
        81         82         93         92        202        203        214        213  
        82         83         94         93        203        204        215        214  
        83         84         95         94        204        205        216        215  
        84         85         96         95        205        206        217        216  
        85         86         97         96        206        207        218        217  
        86         87         98         97        207        208        219        218  
        87         88         99         98        208        209        220        219  
        89         90        101        100        210        211        222        221  
        90         91        102        101        211        212        223        222  
        91         92        103        102        212        213        224        223  
        92         93        104        103        213        214        225        224  
        93         94        105        104        214        215        226        225  
        94         95        106        105        215        216        227        226  
        95         96        107        106        216        217        228        227  
        96         97        108        107        217        218        229        228  
        97         98        109        108        218        219        230        229  
        98         99        110        109        219        220        231        230  
       100        101        112        111        221        222        233        232  
       101        102        113        112        222        223        234        233  
       102        103        114        113        223        224        235        234  
       103        104        115        114        224        225        236        235  
       104        105        116        115        225        226        237        236  
       105        106        117        116        226        227        238        237  
       106        107        118        117        227        228        239        238  
       107        108        119        118        228        229        240        239  
       108        109        120        119        229        230        241        240  
       109        110        121        120        230        231        242        241  
       122        123        134        133        243        244        255        254  
       123        124        135        134        244        245        256        255  
       124        125        136        135        245        246        257        256  
       125        126        137        136        246        247        258        257  
       126        127        138        137        247        248        259        258  
       127        128        139        138        248        249        260        259  
       128        129        140        139        249        250        261        260  
       129        130        141        140        250        251        262        261  
       130        131        142        141        251        252        263        262  
       131        132        143        142        252        253        264        263  
       133        134        145        144        254        255        266        265  
       134        135        146        145        255        256        267        266  
       135        136        147        146        256        257        268        267  
       136        137        148        147        257        258        269        268  
       137        138        149        148        258        259        270        269  
       138        139        150        149        259        260        271        270  
       139        140        151        150        260        261        272        271  
       140        141        152        151        261        262        273        272  
       141        142        153        152        262        263        274        273  
       142        143        154        153        263        264        275        274  
       144        145        156        155        265        266        277        276  
       145        146        157        156        266        267        278        277  
       146        147        158        157        267        268        279        278  
       147        148        159        158        268        269        280        279  
       148        149        160        159        269        270        281        280  
       149        150        161        160        270        271        282        281  
       150        151        162        161        271        272        283        282  
       151        152        163        162        272        273        284        283  
       152        153        164        163        273        274        285        284  
       153        154        165        164        274        275        286        285  
       155        156        167        166        276        277        288        287  
       156        157        168        167        277        278        289        288  
       157        158        169        168        278        279        290        289  
       158        159        170        169        279        280        291        290  
       159        160        171        170        280        281        292        291  
       160        161        172        171        281        282        293        292  
       161        162        173        172        282        283        294        293  
       162        163        174        173        283        284        295        294  
       163        164        175        174        284        285        296        295  
       164        165        176        175        285        286        297        296  
       166        167        178        177        287        288        299        298  
       167        168        179        178        288        289        300        299  
       168        169        180        179        289        290        301        300  
       169        170        181        180        290        291        302        301  
       170        171        182        181        291        292        303        302  
       171        172        183        182        292        293        304        303  
       172        173        184        183        293        294        305        304  
       173        174        185        184        294        295        306        305  
       174        175        186        185        295        296        307        306  
       175        176        187        186        296        297        308        307  
       177        178        189        188        298        299        310        309  
       178        179        190        189        299        300        311        310  
       179        180        191        190        300        301        312        311  
       180        181        192        191        301        302        313        312  
       181        182        193        192        302        303        314        313  
       182        183        194        193        303        304        315        314  
       183        184        195        194        304        305        316        315  
       184        185        196        195        305        306        317        316  
       185        186        197        196        306        307        318        317  
       186        187        198        197        307        308        319        318  
       188        189        200        199        309        310        321        320  
       189        190        201        200        310        311        322        321  
       190        191        202        201        311        312        323        322  
       191        192        203        202        312        313        324        323  
       192        193        204        203        313        314        325        324  
       193        194        205        204        314        315        326        325  
       194        195        206        205        315        316        327        326  
       195        196        207        206        316        317        328        327  
       196        197        208        207        317        318        329        328  
       197        198        209        208        318        319        330        329  
       199        200        211        210        320        321        332        331  
       200        201        212        211        321        322        333        332  
       201        202        213        212        322        323        334        333  
       202        203        214        213        323        324        335        334  
       203        204        215        214        324        325        336        335  
       204        205        216        215        325        326        337        336  
       205        206        217        216        326        327        338        337  
       206        207        218        217        327        328        339        338  
       207        208        219        218        328        329        340        339  
       208        209        220        219        329        330        341        340  
       210        211        222        221        331        332        343        342  
       211        212        223        222        332        333        344        343  
       212        213        224        223        333        334        345        344  
       213        214        225        224        334        335        346        345  
       214        215        226        225        335        336        347        346  
       215        216        227        226        336        337        348        347  
       216        217        228        227        337        338        349        348  
       217        218        229        228        338        339        350        349  
       218        219        230        229        339        340        351        350  
       219        220        231        230        340        341        352        351  
       221        222        233        232        342        343        354        353  
       222        223        234        233        343        344        355        354  
       223        224        235        234        344        345        356        355  
       224        225        236        235        345        346        357        356  
       225        226        237        236        346        347        358        357  
       226        227        238        237        347        348        359        358  
       227        228        239        238        348        349        360        359  
       228        229        240        239        349        350        361        360  
       229        230        241        240        350        351        362        361  
       230        231        242        241        351        352        363        362  
       243        244        255        254        364        365        376        375  
       244        245        256        255        365        366        377        376  
       245        246        257        256        366        367        378        377  
       246        247        258        257        367        368        379        378  
       247        248        259        258        368        369        380        379  
       248        249        260        259        369        370        381        380  
       249        250        261        260        370        371        382        381  
       250        251        262        261        371        372        383        382  
       251        252        263        262        372        373        384        383  
       252        253        264        263        373        374        385        384  
       254        255        266        265        375        376        387        386  
       255        256        267        266        376        377        388        387  
       256        257        268        267        377        378        389        388  
       257        258        269        268        378        379        390        389  
       258        259        270        269        379        380        391        390  
       259        260        271        270        380        381        392        391  
       260        261        272        271        381        382        393        392  
       261        262        273        272        382        383        394        393  
       262        263        274        273        383        384        395        394  
       263        264        275        274        384        385        396        395  
       265        266        277        276        386        387        398        397  
       266        267        278        277        387        388        399        398  
       267        268        279        278        388        389        400        399  
       268        269        280        279        389        390        401        400  
       269        270        281        280        390        391        402        401  
       270        271        282        281        391        392        403        402  
       271        272        283        282        392        393        404        403  
       272        273        284        283        393        394        405        404  
       273        274        285        284        394        395        406        405  
       274        275        286        285        395        396        407        406  
       276        277        288        287        397        398        409        408  
       277        278        289        288        398        399        410        409  
       278        279        290        289        399        400        411        410  
       279        280        291        290        400        401        412        411  
       280        281        292        291        401        402        413        412  
       281        282        293        292        402        403        414        413  
       282        283        294        293        403        404        415        414  
       283        284        295        294        404        405        416        415  
       284        285        296        295        405        406        417        416  
       285        286        297        296        406        407        418        417  
       287        288        299        298        408        409        420        419  
       288        289        300        299        409        410        421        420  
       289        290        301        300        410        411        422        421  
       290        291        302        301        411        412        423        422  
       291        292        303        302        412        413        424        423  
       292        293        304        303        413        414        425        424  
       293        294        305        304        414        415        426        425  
       294        295        306        305        415        416        427        426  
       295        296        307        306        416        417        428        427  
       296        297        308        307        417        418        429        428  
       298        299        310        309        419        420        431        430  
       299        300        311        310        420        421        432        431  
       300        301        312        311        421        422        433        432  
       301        302        313        312        422        423        434        433  
       302        303        314        313        423        424        435        434  
       303        304        315        314        424        425        436        435  
       304        305        316        315        425        426        437        436  
       305        306        317        316        426        427        438        437  
       306        307        318        317        427        428        439        438  
       307        308        319        318        428        429        440        439  
       309        310        321        320        430        431        442        441  
       310        311        322        321        431        432        443        442  
       311        312        323        322        432        433        444        443  
       312        313        324        323        433        434        445        444  
       313        314        325        324        434        435        446        445  
       314        315        326        325        435        436        447        446  
       315        316        327        326        436        437        448        447  
       316        317        328        327        437        438        449        448  
       317        318        329        328        438        439        450        449  
       318        319        330        329        439        440        451        450  
       320        321        332        331        441        442        453        452  
       321        322        333        332        442        443        454        453  
       322        323        334        333        443        444        455        454  
       323        324        335        334        444        445        456        455  
       324        325        336        335        445        446        457        456  
       325        326        337        336        446        447        458        457  
       326        327        338        337        447        448        459        458  
       327        328        339        338        448        449        460        459  
       328        329        340        339        449        450        461        460  
       329        330        341        340        450        451        462        461  
       331        332        343        342        452        453        464        463  
       332        333        344        343        453        454        465        464  
       333        334        345        344        454        455        466        465  
       334        335        346        345        455        456        467        466  
       335        336        347        346        456        457        468        467  
       336        337        348        347        457        458        469        468  
       337        338        349        348        458        459        470        469  
       338        339        350        349        459        460        471        470  
       339        340        351        350        460        461        472        471  
       340        341        352        351        461        462        473        472  
       342        343        354        353        463        464        475        474  
       343        344        355        354        464        465        476        475  
       344        345        356        355        465        466        477        476  
       345        346        357        356        466        467        478        477  
       346        347        358        357        467        468        479        478  
       347        348        359        358        468        469        480        479  
       348        349        360        359        469        470        481        480  
       349        350        361        360        470        471        482        481  
       350        351        362        361        471        472        483        482  
       351        352        363        362        472        473        484        483  
       364        365        376        375        485        486        497        496  
       365        366        377        376        486        487        498        497  
       366        367        378        377        487        488        499        498  
       367        368        379        378        488        489        500        499  
       368        369        380        379        489        490        501        500  
       369        370        381        380        490        491        502        501  
       370        371        382        381        491        492        503        502  
       371        372        383        382        492        493        504        503  
       372        373        384        383        493        494        505        504  
       373        374        385        384        494        495        506        505  
       375        376        387        386        496        497        508        507  
       376        377        388        387        497        498        509        508  
       377        378        389        388        498        499        510        509  
       378        379        390        389        499        500        511        510  
       379        380        391        390        500        501        512        511  
       380        381        392        391        501        502        513        512  
       381        382        393        392        502        503        514        513  
       382        383        394        393        503        504        515        514  
       383        384        395        394        504        505        516        515  
       384        385        396        395        505        506        517        516  
       386        387        398        397        507        508        519        518  
       387        388        399        398        508        509        520        519  
       388        389        400        399        509        510        521        520  
       389        390        401        400        510        511        522        521  
       390        391        402        401        511        512        523        522  
       391        392        403        402        512        513        524        523  
       392        393        404        403        513        514        525        524  
       393        394        405        404        514        515        526        525  
       394        395        406        405        515        516        527        526  
       395        396        407        406        516        517        528        527  
       397        398        409        408        518        519        530        529  
       398        399        410        409        519        520        531        530  
       399        400        411        410        520        521        532        531  
       400        401        412        411        521        522        533        532  
       401        402        413        412        522        523        534        533  
       402        403        414        413        523        524        535        534  
       403        404        415        414        524        525        536        535  
       404        405        416        415        525        526        537        536  
       405        406        417        416        526        527        538        537  
       406        407        418        417        527        528        539        538  
       408        409        420        419        529        530        541        540  
       409        410        421        420        530        531        542        541  
       410        411        422        421        531        532        543        542  
       411        412        423        422        532        533        544        543  
       412        413        424        423        533        534        545        544  
       413        414        425        424        534        535        546        545  
       414        415        426        425        535        536        547        546  
       415        416        427        426        536        537        548        547  
       416        417        428        427        537        538        549        548  
       417        418        429        428        538        539        550        549  
       419        420        431        430        540        541        552        551  
       420        421        432        431        541        542        553        552  
       421        422        433        432        542        543        554        553  
       422        423        434        433        543        544        555        554  
       423        424        435        434        544        545        556        555  
       424        425        436        435        545        546        557        556  
       425        426        437        436        546        547        558        557  
       426        427        438        437        547        548        559        558  
       427        428        439        438        548        549        560        559  
       428        429        440        439        549        550        561        560  
       430        431        442        441        551        552        563        562  
       431        432        443        442        552        553        564        563  
       432        433        444        443        553        554        565        564  
       433        434        445        444        554        555        566        565  
       434        435        446        445        555        556        567        566  
       435        436        447        446        556        557        568        567  
       436        437        448        447        557        558        569        568  
       437        438        449        448        558        559        570        569  
       438        439        450        449        559        560        571        570  
       439        440        451        450        560        561        572        571  
       441        442        453        452        562        563        574        573  
       442        443        454        453        563        564        575        574  
       443        444        455        454        564        565        576        575  
       444        445        456        455        565        566        577        576  
       445        446        457        456        566        567        578        577  
       446        447        458        457        567        568        579        578  
       447        448        459        458        568        569        580        579  
       448        449        460        459        569        570        581        580  
       449        450        461        460        570        571        582        581  
       450        451        462        461        571        572        583        582  
       452        453        464        463        573        574        585        584  
       453        454        465        464        574        575        586        585  
       454        455        466        465        575        576        587        586  
       455        456        467        466        576        577        588        587  
       456        457        468        467        577        578        589        588  
       457        458        469        468        578        579        590        589  
       458        459        470        469        579        580        591        590  
       459        460        471        470        580        581        592        591  
       460        461        472        471        581        582        593        592  
       461        462        473        472        582        583        594        593  
       463        464        475        474        584        585        596        595  
       464        465        476        475        585        586        597        596  
       465        466        477        476        586        587        598        597  
       466        467        478        477        587        588        599        598  
       467        468        479        478        588        589        600        599  
       468        469        480        479        589        590        601        600  
       469        470        481        480        590        591        602        601  
       470        471        482        481        591        592        603        602  
       471        472        483        482        592        593        604        603  
       472        473        484        483        593        594        605        604  
       485        486        497        496        606        607        618        617  
       486        487        498        497        607        608        619        618  
       487        488        499        498        608        609        620        619  
       488        489        500        499        609        610        621        620  
       489        490        501        500        610        611        622        621  
       490        491        502        501        611        612        623        622  
       491        492        503        502        612        613        624        623  
       492        493        504        503        613        614        625        624  
       493        494        505        504        614        615        626        625  
       494        495        506        505        615        616        627        626  
       496        497        508        507        617        618        629        628  
       497        498        509        508        618        619        630        629  
       498        499        510        509        619        620        631        630  
       499        500        511        510        620        621        632        631  
       500        501        512        511        621        622        633        632  
       501        502        513        512        622        623        634        633  
       502        503        514        513        623        624        635        634  
       503        504        515        514        624        625        636        635  
       504        505        516        515        625        626        637        636  
       505        506        517        516        626        627        638        637  
       507        508        519        518        628        629        640        639  
       508        509        520        519        629        630        641        640  
       509        510        521        520        630        631        642        641  
       510        511        522        521        631        632        643        642  
       511        512        523        522        632        633        644        643  
       512        513        524        523        633        634        645        644  
       513        514        525        524        634        635        646        645  
       514        515        526        525        635        636        647        646  
       515        516        527        526        636        637        648        647  
       516        517        528        527        637        638        649        648  
       518        519        530        529        639        640        651        650  
       519        520        531        530        640        641        652        651  
       520        521        532        531        641        642        653        652  
       521        522        533        532        642        643        654        653  
       522        523        534        533        643        644        655        654  
       523        524        535        534        644        645        656        655  
       524        525        536        535        645        646        657        656  
       525        526        537        536        646        647        658        657  
       526        527        538        537        647        648        659        658  
       527        528        539        538        648        649        660        659  
       529        530        541        540        650        651        662        661  
       530        531        542        541        651        652        663        662  
       531        532        543        542        652        653        664        663  
       532        533        544        543        653        654        665        664  
       533        534        545        544        654        655        666        665  
       534        535        546        545        655        656        667        666  
       535        536        547        546        656        657        668        667  
       536        537        548        547        657        658        669        668  
       537        538        549        548        658        659        670        669  
       538        539        550        549        659        660        671        670  
       540        541        552        551        661        662        673        672  
       541        542        553        552        662        663        674        673  
       542        543        554        553        663        664        675        674  
       543        544        555        554        664        665        676        675  
       544        545        556        555        665        666        677        676  
       545        546        557        556        666        667        678        677  
       546        547        558        557        667        668        679        678  
       547        548        559        558        668        669        680        679  
       548        549        560        559        669        670        681        680  
       549        550        561        560        670        671        682        681  
       551        552        563        562        672        673        684        683  
       552        553        564        563        673        674        685        684  
       553        554        565        564        674        675        686        685  
       554        555        566        565        675        676        687        686  
       555        556        567        566        676        677        688        687  
       556        557        568        567        677        678        689        688  
       557        558        569        568        678        679        690        689  
       558        559        570        569        679        680        691        690  
       559        560        571        570        680        681        692        691  
       560        561        572        571        681        682        693        692  
       562        563        574        573        683        684        695        694  
       563        564        575        574        684        685        696        695  
       564        565        576        575        685        686        697        696  
       565        566        577        576        686        687        698        697  
       566        567        578        577        687        688        699        698  
       567        568        579        578        688        689        700        699  
       568        569        580        579        689        690        701        700  
       569        570        581        580        690        691        702        701  
       570        571        582        581        691        692        703        702  
       571        572        583        582        692        693        704        703  
       573        574        585        584        694        695        706        705  
       574        575        586        585        695        696        707        706  
       575        576        587        586        696        697        708        707  
       576        577        588        587        697        698        709        708  
       577        578        589        588        698        699        710        709  
       578        579        590        589        699        700        711        710  
       579        580        591        590        700        701        712        711  
       580        581        592        591        701        702        713        712  
       581        582        593        592        702        703        714        713  
       582        583        594        593        703        704        715        714  
       584        585        596        595        705        706        717        716  
       585        586        597        596        706        707        718        717  
       586        587        598        597        707        708        719        718  
       587        588        599        598        708        709        720        719  
       588        589        600        599        709        710        721        720  
       589        590        601        600        710        711        722        721  
       590        591        602        601        711        712        723        722  
       591        592        603        602        712        713        724        723  
       592        593        604        603        713        714        725        724  
       593        594        605        604        714        715        726        725  
       606        607        618        617        727        728        739        738  
       607        608        619        618        728        729        740        739  
       608        609        620        619        729        730        741        740  
       609        610        621        620        730        731        742        741  
       610        611        622        621        731        732        743        742  
       611        612        623        622        732        733        744        743  
       612        613        624        623        733        734        745        744  
       613        614        625        624        734        735        746        745  
       614        615        626        625        735        736        747        746  
       615        616        627        626        736        737        748        747  
       617        618        629        628        738        739        750        749  
       618        619        630        629        739        740        751        750  
       619        620        631        630        740        741        752        751  
       620        621        632        631        741        742        753        752  
       621        622        633        632        742        743        754        753  
       622        623        634        633        743        744        755        754  
       623        624        635        634        744        745        756        755  
       624        625        636        635        745        746        757        756  
       625        626        637        636        746        747        758        757  
       626        627        638        637        747        748        759        758  
       628        629        640        639        749        750        761        760  
       629        630        641        640        750        751        762        761  
       630        631        642        641        751        752        763        762  
       631        632        643        642        752        753        764        763  
       632        633        644        643        753        754        765        764  
       633        634        645        644        754        755        766        765  
       634        635        646        645        755        756        767        766  
       635        636        647        646        756        757        768        767  
       636        637        648        647        757        758        769        768  
       637        638        649        648        758        759        770        769  
       639        640        651        650        760        761        772        771  
       640        641        652        651        761        762        773        772  
       641        642        653        652        762        763        774        773  
       642        643        654        653        763        764        775        774  
       643        644        655        654        764        765        776        775  
       644        645        656        655        765        766        777        776  
       645        646        657        656        766        767        778        777  
       646        647        658        657        767        768        779        778  
       647        648        659        658        768        769        780        779  
       648        649        660        659        769        770        781        780  
       650        651        662        661        771        772        783        782  
       651        652        663        662        772        773        784        783  
       652        653        664        663        773        774        785        784  
       653        654        665        664        774        775        786        785  
       654        655        666        665        775        776        787        786  
       655        656        667        666        776        777        788        787  
       656        657        668        667        777        778        789        788  
       657        658        669        668        778        779        790        789  
       658        659        670        669        779        780        791        790  
       659        660        671        670        780        781        792        791  
       661        662        673        672        782        783        794        793  
       662        663        674        673        783        784        795        794  
       663        664        675        674        784        785        796        795  
       664        665        676        675        785        786        797        796  
       665        666        677        676        786        787        798        797  
       666        667        678        677        787        788        799        798  
       667        668        679        678        788        789        800        799  
       668        669        680        679        789        790        801        800  
       669        670        681        680        790        791        802        801  
       670        671        682        681        791        792        803        802  
       672        673        684        683        793        794        805        804  
       673        674        685        684        794        795        806        805  
       674        675        686        685        795        796        807        806  
       675        676        687        686        796        797        808        807  
       676        677        688        687        797        798        809        808  
       677        678        689        688        798        799        810        809  
       678        679        690        689        799        800        811        810  
       679        680        691        690        800        801        812        811  
       680        681        692        691        801        802        813        812  
       681        682        693        692        802        803        814        813  
       683        684        695        694        804        805        816        815  
       684        685        696        695        805        806        817        816  
       685        686        697        696        806        807        818        817  
       686        687        698        697        807        808        819        818  
       687        688        699        698        808        809        820        819  
       688        689        700        699        809        810        821        820  
       689        690        701        700        810        811        822        821  
       690        691        702        701        811        812        823        822  
       691        692        703        702        812        813        824        823  
       692        693        704        703        813        814        825        824  
       694        695        706        705        815        816        827        826  
       695        696        707        706        816        817        828        827  
       696        697        708        707        817        818        829        828  
       697        698        709        708        818        819        830        829  
       698        699        710        709        819        820        831        830  
       699        700        711        710        820        821        832        831  
       700        701        712        711        821        822        833        832  
       701        702        713        712        822        823        834        833  
       702        703        714        713        823        824        835        834  
       703        704        715        714        824        825        836        835  
       705        706        717        716        826        827        838        837  
       706        707        718        717        827        828        839        838  
       707        708        719        718        828        829        840        839  
       708        709        720        719        829        830        841        840  
       709        710        721        720        830        831        842        841  
       710        711        722        721        831        832        843        842  
       711        712        723        722        832        833        844        843  
       712        713        724        723        833        834        845        844  
       713        714        725        724        834        835        846        845  
       714        715        726        725        835        836        847        846  
       727        728        739        738        848        849        860        859  
       728        729        740        739        849        850        861        860  
       729        730        741        740        850        851        862        861  
       730        731        742        741        851        852        863        862  
       731        732        743        742        852        853        864        863  
       732        733        744        743        853        854        865        864  
       733        734        745        744        854        855        866        865  
       734        735        746        745        855        856        867        866  
       735        736        747        746        856        857        868        867  
       736        737        748        747        857        858        869        868  
       738        739        750        749        859        860        871        870  
       739        740        751        750        860        861        872        871  
       740        741        752        751        861        862        873        872  
       741        742        753        752        862        863        874        873  
       742        743        754        753        863        864        875        874  
       743        744        755        754        864        865        876        875  
       744        745        756        755        865        866        877        876  
       745        746        757        756        866        867        878        877  
       746        747        758        757        867        868        879        878  
       747        748        759        758        868        869        880        879  
       749        750        761        760        870        871        882        881  
       750        751        762        761        871        872        883        882  
       751        752        763        762        872        873        884        883  
       752        753        764        763        873        874        885        884  
       753        754        765        764        874        875        886        885  
       754        755        766        765        875        876        887        886  
       755        756        767        766        876        877        888        887  
       756        757        768        767        877        878        889        888  
       757        758        769        768        878        879        890        889  
       758        759        770        769        879        880        891        890  
       760        761        772        771        881        882        893        892  
       761        762        773        772        882        883        894        893  
       762        763        774        773        883        884        895        894  
       763        764        775        774        884        885        896        895  
       764        765        776        775        885        886        897        896  
       765        766        777        776        886        887        898        897  
       766        767        778        777        887        888        899        898  
       767        768        779        778        888        889        900        899  
       768        769        780        779        889        890        901        900  
       769        770        781        780        890        891        902        901  
       771        772        783        782        892        893        904        903  
       772        773        784        783        893        894        905        904  
       773        774        785        784        894        895        906        905  
       774        775        786        785        895        896        907        906  
       775        776        787        786        896        897        908        907  
       776        777        788        787        897        898        909        908  
       777        778        789        788        898        899        910        909  
       778        779        790        789        899        900        911        910  
       779        780        791        790        900        901        912        911  
       780        781        792        791        901        902        913        912  
       782        783        794        793        903        904        915        914  
       783        784        795        794        904        905        916        915  
       784        785        796        795        905        906        917        916  
       785        786        797        796        906        907        918        917  
       786        787        798        797        907        908        919        918  
       787        788        799        798        908        909        920        919  
       788        789        800        799        909        910        921        920  
       789        790        801        800        910        911        922        921  
       790        791        802        801        911        912        923        922  
       791        792        803        802        912        913        924        923  
       793        794        805        804        914        915        926        925  
       794        795        806        805        915        916        927        926  
       795        796        807        806        916        917        928        927  
       796        797        808        807        917        918        929        928  
       797        798        809        808        918        919        930        929  
       798        799        810        809        919        920        931        930  
       799        800        811        810        920        921        932        931  
       800        801        812        811        921        922        933        932  
       801        802        813        812        922        923        934        933  
       802        803        814        813        923        924        935        934  
       804        805        816        815        925        926        937        936  
       805        806        817        816        926        927        938        937  
       806        807        818        817        927        928        939        938  
       807        808        819        818        928        929        940        939  
       808        809        820        819        929        930        941        940  
       809        810        821        820        930        931        942        941  
       810        811        822        821        931        932        943        942  
       811        812        823        822        932        933        944        943  
       812        813        824        823        933        934        945        944  
       813        814        825        824        934        935        946        945  
       815        816        827        826        936        937        948        947  
       816        817        828        827        937        938        949        948  
       817        818        829        828        938        939        950        949  
       818        819        830        829        939        940        951        950  
       819        820        831        830        940        941        952        951  
       820        821        832        831        941        942        953        952  
       821        822        833        832        942        943        954        953  
       822        823        834        833        943        944        955        954  
       823        824        835        834        944        945        956        955  
       824        825        836        835        945        946        957        956  
       826        827        838        837        947        948        959        958  
       827        828        839        838        948        949        960        959  
       828        829        840        839        949        950        961        960  
       829        830        841        840        950        951        962        961  
       830        831        842        841        951        952        963        962  
       831        832        843        842        952        953        964        963  
       832        833        844        843        953        954        965        964  
       833        834        845        844        954        955        966        965  
       834        835        846        845        955        956        967        966  
       835        836        847        846        956        957        968        967  
       848        849        860        859        969        970        981        980  
       849        850        861        860        970        971        982        981  
       850        851        862        861        971        972        983        982  
       851        852        863        862        972        973        984        983  
       852        853        864        863        973        974        985        984  
       853        854        865        864        974        975        986        985  
       854        855        866        865        975        976        987        986  
       855        856        867        866        976        977        988        987  
       856        857        868        867        977        978        989        988  
       857        858        869        868        978        979        990        989  
       859        860        871        870        980        981        992        991  
       860        861        872        871        981        982        993        992  
       861        862        873        872        982        983        994        993  
       862        863        874        873        983        984        995        994  
       863        864        875        874        984        985        996        995  
       864        865        876        875        985        986        997        996  
       865        866        877        876        986        987        998        997  
       866        867        878        877        987        988        999        998  
       867        868        879        878        988        989       1000        999  
       868        869        880        879        989        990       1001       1000  
       870        871        882        881        991        992       1003       1002  
       871        872        883        882        992        993       1004       1003  
       872        873        884        883        993        994       1005       1004  
       873        874        885        884        994        995       1006       1005  
       874        875        886        885        995        996       1007       1006  
       875        876        887        886        996        997       1008       1007  
       876        877        888        887        997        998       1009       1008  
       877        878        889        888        998        999       1010       1009  
       878        879        890        889        999       1000       1011       1010  
       879        880        891        890       1000       1001       1012       1011  
       881        882        893        892       1002       1003       1014       1013  
       882        883        894        893       1003       1004       1015       1014  
       883        884        895        894       1004       1005       1016       1015  
       884        885        896        895       1005       1006       1017       1016  
       885        886        897        896       1006       1007       1018       1017  
       886        887        898        897       1007       1008       1019       1018  
       887        888        899        898       1008       1009       1020       1019  
       888        889        900        899       1009       1010       1021       1020  
       889        890        901        900       1010       1011       1022       1021  
       890        891        902        901       1011       1012       1023       1022  
       892        893        904        903       1013       1014       1025       1024  
       893        894        905        904       1014       1015       1026       1025  
       894        895        906        905       1015       1016       1027       1026  
       895        896        907        906       1016       1017       1028       1027  
       896        897        908        907       1017       1018       1029       1028  
       897        898        909        908       1018       1019       1030       1029  
       898        899        910        909       1019       1020       1031       1030  
       899        900        911        910       1020       1021       1032       1031  
       900        901        912        911       1021       1022       1033       1032  
       901        902        913        912       1022       1023       1034       1033  
       903        904        915        914       1024       1025       1036       1035  
       904        905        916        915       1025       1026       1037       1036  
       905        906        917        916       1026       1027       1038       1037  
       906        907        918        917       1027       1028       1039       1038  
       907        908        919        918       1028       1029       1040       1039  
       908        909        920        919       1029       1030       1041       1040  
       909        910        921        920       1030       1031       1042       1041  
       910        911        922        921       1031       1032       1043       1042  
       911        912        923        922       1032       1033       1044       1043  
       912        913        924        923       1033       1034       1045       1044  
       914        915        926        925       1035       1036       1047       1046  
       915        916        927        926       1036       1037       1048       1047  
       916        917        928        927       1037       1038       1049       1048  
       917        918        929        928       1038       1039       1050       1049  
       918        919        930        929       1039       1040       1051       1050  
       919        920        931        930       1040       1041       1052       1051  
       920        921        932        931       1041       1042       1053       1052  
       921        922        933        932       1042       1043       1054       1053  
       922        923        934        933       1043       1044       1055       1054  
       923        924        935        934       1044       1045       1056       1055  
       925        926        937        936       1046       1047       1058       1057  
       926        927        938        937       1047       1048       1059       1058  
       927        928        939        938       1048       1049       1060       1059  
       928        929        940        939       1049       1050       1061       1060  
       929        930        941        940       1050       1051       1062       1061  
       930        931        942        941       1051       1052       1063       1062  
       931        932        943        942       1052       1053       1064       1063  
       932        933        944        943       1053       1054       1065       1064  
       933        934        945        944       1054       1055       1066       1065  
       934        935        946        945       1055       1056       1067       1066  
       936        937        948        947       1057       1058       1069       1068  
       937        938        949        948       1058       1059       1070       1069  
       938        939        950        949       1059       1060       1071       1070  
       939        940        951        950       1060       1061       1072       1071  
       940        941        952        951       1061       1062       1073       1072  
       941        942        953        952       1062       1063       1074       1073  
       942        943        954        953       1063       1064       1075       1074  
       943        944        955        954       1064       1065       1076       1075  
       944        945        956        955       1065       1066       1077       1076  
       945        946        957        956       1066       1067       1078       1077  
       947        948        959        958       1068       1069       1080       1079  
       948        949        960        959       1069       1070       1081       1080  
       949        950        961        960       1070       1071       1082       1081  
       950        951        962        961       1071       1072       1083       1082  
       951        952        963        962       1072       1073       1084       1083  
       952        953        964        963       1073       1074       1085       1084  
       953        954        965        964       1074       1075       1086       1085  
       954        955        966        965       1075       1076       1087       1086  
       955        956        967        966       1076       1077       1088       1087  
       956        957        968        967       1077       1078       1089       1088  
       969        970        981        980       1090       1091       1102       1101  
       970        971        982        981       1091       1092       1103       1102  
       971        972        983        982       1092       1093       1104       1103  
       972        973        984        983       1093       1094       1105       1104  
       973        974        985        984       1094       1095       1106       1105  
       974        975        986        985       1095       1096       1107       1106  
       975        976        987        986       1096       1097       1108       1107  
       976        977        988        987       1097       1098       1109       1108  
       977        978        989        988       1098       1099       1110       1109  
       978        979        990        989       1099       1100       1111       1110  
       980        981        992        991       1101       1102       1113       1112  
       981        982        993        992       1102       1103       1114       1113  
       982        983        994        993       1103       1104       1115       1114  
       983        984        995        994       1104       1105       1116       1115  
       984        985        996        995       1105       1106       1117       1116  
       985        986        997        996       1106       1107       1118       1117  
       986        987        998        997       1107       1108       1119       1118  
       987        988        999        998       1108       1109       1120       1119  
       988        989       1000        999       1109       1110       1121       1120  
       989        990       1001       1000       1110       1111       1122       1121  
       991        992       1003       1002       1112       1113       1124       1123  
       992        993       1004       1003       1113       1114       1125       1124  
       993        994       1005       1004       1114       1115       1126       1125  
       994        995       1006       1005       1115       1116       1127       1126  
       995        996       1007       1006       1116       1117       1128       1127  
       996        997       1008       1007       1117       1118       1129       1128  
       997        998       1009       1008       1118       1119       1130       1129  
       998        999       1010       1009       1119       1120       1131       1130  
       999       1000       1011       1010       1120       1121       1132       1131  
      1000       1001       1012       1011       1121       1122       1133       1132  
      1002       1003       1014       1013       1123       1124       1135       1134  
      1003       1004       1015       1014       1124       1125       1136       1135  
      1004       1005       1016       1015       1125       1126       1137       1136  
      1005       1006       1017       1016       1126       1127       1138       1137  
      1006       1007       1018       1017       1127       1128       1139       1138  
      1007       1008       1019       1018       1128       1129       1140       1139  
      1008       1009       1020       1019       1129       1130       1141       1140  
      1009       1010       1021       1020       1130       1131       1142       1141  
      1010       1011       1022       1021       1131       1132       1143       1142  
      1011       1012       1023       1022       1132       1133       1144       1143  
      1013       1014       1025       1024       1134       1135       1146       1145  
      1014       1015       1026       1025       1135       1136       1147       1146  
      1015       1016       1027       1026       1136       1137       1148       1147  
      1016       1017       1028       1027       1137       1138       1149       1148  
      1017       1018       1029       1028       1138       1139       1150       1149  
      1018       1019       1030       1029       1139       1140       1151       1150  
      1019       1020       1031       1030       1140       1141       1152       1151  
      1020       1021       1032       1031       1141       1142       1153       1152  
      1021       1022       1033       1032       1142       1143       1154       1153  
      1022       1023       1034       1033       1143       1144       1155       1154  
      1024       1025       1036       1035       1145       1146       1157       1156  
      1025       1026       1037       1036       1146       1147       1158       1157  
      1026       1027       1038       1037       1147       1148       1159       1158  
      1027       1028       1039       1038       1148       1149       1160       1159  
      1028       1029       1040       1039       1149       1150       1161       1160  
      1029       1030       1041       1040       1150       1151       1162       1161  
      1030       1031       1042       1041       1151       1152       1163       1162  
      1031       1032       1043       1042       1152       1153       1164       1163  
      1032       1033       1044       1043       1153       1154       1165       1164  
      1033       1034       1045       1044       1154       1155       1166       1165  
      1035       1036       1047       1046       1156       1157       1168       1167  
      1036       1037       1048       1047       1157       1158       1169       1168  
      1037       1038       1049       1048       1158       1159       1170       1169  
      1038       1039       1050       1049       1159       1160       1171       1170  
      1039       1040       1051       1050       1160       1161       1172       1171  
      1040       1041       1052       1051       1161       1162       1173       1172  
      1041       1042       1053       1052       1162       1163       1174       1173  
      1042       1043       1054       1053       1163       1164       1175       1174  
      1043       1044       1055       1054       1164       1165       1176       1175  
      1044       1045       1056       1055       1165       1166       1177       1176  
      1046       1047       1058       1057       1167       1168       1179       1178  
      1047       1048       1059       1058       1168       1169       1180       1179  
      1048       1049       1060       1059       1169       1170       1181       1180  
      1049       1050       1061       1060       1170       1171       1182       1181  
      1050       1051       1062       1061       1171       1172       1183       1182  
      1051       1052       1063       1062       1172       1173       1184       1183  
      1052       1053       1064       1063       1173       1174       1185       1184  
      1053       1054       1065       1064       1174       1175       1186       1185  
      1054       1055       1066       1065       1175       1176       1187       1186  
      1055       1056       1067       1066       1176       1177       1188       1187  
      1057       1058       1069       1068       1178       1179       1190       1189  
      1058       1059       1070       1069       1179       1180       1191       1190  
      1059       1060       1071       1070       1180       1181       1192       1191  
      1060       1061       1072       1071       1181       1182       1193       1192  
      1061       1062       1073       1072       1182       1183       1194       1193  
      1062       1063       1074       1073       1183       1184       1195       1194  
      1063       1064       1075       1074       1184       1185       1196       1195  
      1064       1065       1076       1075       1185       1186       1197       1196  
      1065       1066       1077       1076       1186       1187       1198       1197  
      1066       1067       1078       1077       1187       1188       1199       1198  
      1068       1069       1080       1079       1189       1190       1201       1200  
      1069       1070       1081       1080       1190       1191       1202       1201  
      1070       1071       1082       1081       1191       1192       1203       1202  
      1071       1072       1083       1082       1192       1193       1204       1203  
      1072       1073       1084       1083       1193       1194       1205       1204  
      1073       1074       1085       1084       1194       1195       1206       1205  
      1074       1075       1086       1085       1195       1196       1207       1206  
      1075       1076       1087       1086       1196       1197       1208       1207  
      1076       1077       1088       1087       1197       1198       1209       1208  
      1077       1078       1089       1088       1198       1199       1210       1209  
      1090       1091       1102       1101       1211       1212       1223       1222  
      1091       1092       1103       1102       1212       1213       1224       1223  
      1092       1093       1104       1103       1213       1214       1225       1224  
      1093       1094       1105       1104       1214       1215       1226       1225  
      1094       1095       1106       1105       1215       1216       1227       1226  
      1095       1096       1107       1106       1216       1217       1228       1227  
      1096       1097       1108       1107       1217       1218       1229       1228  
      1097       1098       1109       1108       1218       1219       1230       1229  
      1098       1099       1110       1109       1219       1220       1231       1230  
      1099       1100       1111       1110       1220       1221       1232       1231  
      1101       1102       1113       1112       1222       1223       1234       1233  
      1102       1103       1114       1113       1223       1224       1235       1234  
      1103       1104       1115       1114       1224       1225       1236       1235  
      1104       1105       1116       1115       1225       1226       1237       1236  
      1105       1106       1117       1116       1226       1227       1238       1237  
      1106       1107       1118       1117       1227       1228       1239       1238  
      1107       1108       1119       1118       1228       1229       1240       1239  
      1108       1109       1120       1119       1229       1230       1241       1240  
      1109       1110       1121       1120       1230       1231       1242       1241  
      1110       1111       1122       1121       1231       1232       1243       1242  
      1112       1113       1124       1123       1233       1234       1245       1244  
      1113       1114       1125       1124       1234       1235       1246       1245  
      1114       1115       1126       1125       1235       1236       1247       1246  
      1115       1116       1127       1126       1236       1237       1248       1247  
      1116       1117       1128       1127       1237       1238       1249       1248  
      1117       1118       1129       1128       1238       1239       1250       1249  
      1118       1119       1130       1129       1239       1240       1251       1250  
      1119       1120       1131       1130       1240       1241       1252       1251  
      1120       1121       1132       1131       1241       1242       1253       1252  
      1121       1122       1133       1132       1242       1243       1254       1253  
      1123       1124       1135       1134       1244       1245       1256       1255  
      1124       1125       1136       1135       1245       1246       1257       1256  
      1125       1126       1137       1136       1246       1247       1258       1257  
      1126       1127       1138       1137       1247       1248       1259       1258  
      1127       1128       1139       1138       1248       1249       1260       1259  
      1128       1129       1140       1139       1249       1250       1261       1260  
      1129       1130       1141       1140       1250       1251       1262       1261  
      1130       1131       1142       1141       1251       1252       1263       1262  
      1131       1132       1143       1142       1252       1253       1264       1263  
      1132       1133       1144       1143       1253       1254       1265       1264  
      1134       1135       1146       1145       1255       1256       1267       1266  
      1135       1136       1147       1146       1256       1257       1268       1267  
      1136       1137       1148       1147       1257       1258       1269       1268  
      1137       1138       1149       1148       1258       1259       1270       1269  
      1138       1139       1150       1149       1259       1260       1271       1270  
      1139       1140       1151       1150       1260       1261       1272       1271  
      1140       1141       1152       1151       1261       1262       1273       1272  
      1141       1142       1153       1152       1262       1263       1274       1273  
      1142       1143       1154       1153       1263       1264       1275       1274  
      1143       1144       1155       1154       1264       1265       1276       1275  
      1145       1146       1157       1156       1266       1267       1278       1277  
      1146       1147       1158       1157       1267       1268       1279       1278  
      1147       1148       1159       1158       1268       1269       1280       1279  
      1148       1149       1160       1159       1269       1270       1281       1280  
      1149       1150       1161       1160       1270       1271       1282       1281  
      1150       1151       1162       1161       1271       1272       1283       1282  
      1151       1152       1163       1162       1272       1273       1284       1283  
      1152       1153       1164       1163       1273       1274       1285       1284  
      1153       1154       1165       1164       1274       1275       1286       1285  
      1154       1155       1166       1165       1275       1276       1287       1286  
      1156       1157       1168       1167       1277       1278       1289       1288  
      1157       1158       1169       1168       1278       1279       1290       1289  
      1158       1159       1170       1169       1279       1280       1291       1290  
      1159       1160       1171       1170       1280       1281       1292       1291  
      1160       1161       1172       1171       1281       1282       1293       1292  
      1161       1162       1173       1172       1282       1283       1294       1293  
      1162       1163       1174       1173       1283       1284       1295       1294  
      1163       1164       1175       1174       1284       1285       1296       1295  
      1164       1165       1176       1175       1285       1286       1297       1296  
      1165       1166       1177       1176       1286       1287       1298       1297  
      1167       1168       1179       1178       1288       1289       1300       1299  
      1168       1169       1180       1179       1289       1290       1301       1300  
      1169       1170       1181       1180       1290       1291       1302       1301  
      1170       1171       1182       1181       1291       1292       1303       1302  
      1171       1172       1183       1182       1292       1293       1304       1303  
      1172       1173       1184       1183       1293       1294       1305       1304  
      1173       1174       1185       1184       1294       1295       1306       1305  
      1174       1175       1186       1185       1295       1296       1307       1306  
      1175       1176       1187       1186       1296       1297       1308       1307  
      1176       1177       1188       1187       1297       1298       1309       1308  
      1178       1179       1190       1189       1299       1300       1311       1310  
      1179       1180       1191       1190       1300       1301       1312       1311  
      1180       1181       1192       1191       1301       1302       1313       1312  
      1181       1182       1193       1192       1302       1303       1314       1313  
      1182       1183       1194       1193       1303       1304       1315       1314  
      1183       1184       1195       1194       1304       1305       1316       1315  
      1184       1185       1196       1195       1305       1306       1317       1316  
      1185       1186       1197       1196       1306       1307       1318       1317  
      1186       1187       1198       1197       1307       1308       1319       1318  
      1187       1188       1199       1198       1308       1309       1320       1319  
      1189       1190       1201       1200       1310       1311       1322       1321  
      1190       1191       1202       1201       1311       1312       1323       1322  
      1191       1192       1203       1202       1312       1313       1324       1323  
      1192       1193       1204       1203       1313       1314       1325       1324  
      1193       1194       1205       1204       1314       1315       1326       1325  
      1194       1195       1206       1205       1315       1316       1327       1326  
      1195       1196       1207       1206       1316       1317       1328       1327  
      1196       1197       1208       1207       1317       1318       1329       1328  
      1197       1198       1209       1208       1318       1319       1330       1329  
      1198       1199       1210       1209       1319       1320       1331       1330  
      1211       1212       1223       1222       1332       1333       1344       1343  
      1212       1213       1224       1223       1333       1334       1345       1344  
      1213       1214       1225       1224       1334       1335       1346       1345  
      1214       1215       1226       1225       1335       1336       1347       1346  
      1215       1216       1227       1226       1336       1337       1348       1347  
      1216       1217       1228       1227       1337       1338       1349       1348  
      1217       1218       1229       1228       1338       1339       1350       1349  
      1218       1219       1230       1229       1339       1340       1351       1350  
      1219       1220       1231       1230       1340       1341       1352       1351  
      1220       1221       1232       1231       1341       1342       1353       1352  
      1222       1223       1234       1233       1343       1344       1355       1354  
      1223       1224       1235       1234       1344       1345       1356       1355  
      1224       1225       1236       1235       1345       1346       1357       1356  
      1225       1226       1237       1236       1346       1347       1358       1357  
      1226       1227       1238       1237       1347       1348       1359       1358  
      1227       1228       1239       1238       1348       1349       1360       1359  
      1228       1229       1240       1239       1349       1350       1361       1360  
      1229       1230       1241       1240       1350       1351       1362       1361  
      1230       1231       1242       1241       1351       1352       1363       1362  
      1231       1232       1243       1242       1352       1353       1364       1363  
      1233       1234       1245       1244       1354       1355       1366       1365  
      1234       1235       1246       1245       1355       1356       1367       1366  
      1235       1236       1247       1246       1356       1357       1368       1367  
      1236       1237       1248       1247       1357       1358       1369       1368  
      1237       1238       1249       1248       1358       1359       1370       1369  
      1238       1239       1250       1249       1359       1360       1371       1370  
      1239       1240       1251       1250       1360       1361       1372       1371  
      1240       1241       1252       1251       1361       1362       1373       1372  
      1241       1242       1253       1252       1362       1363       1374       1373  
      1242       1243       1254       1253       1363       1364       1375       1374  
      1244       1245       1256       1255       1365       1366       1377       1376  
      1245       1246       1257       1256       1366       1367       1378       1377  
      1246       1247       1258       1257       1367       1368       1379       1378  
      1247       1248       1259       1258       1368       1369       1380       1379  
      1248       1249       1260       1259       1369       1370       1381       1380  
      1249       1250       1261       1260       1370       1371       1382       1381  
      1250       1251       1262       1261       1371       1372       1383       1382  
      1251       1252       1263       1262       1372       1373       1384       1383  
      1252       1253       1264       1263       1373       1374       1385       1384  
      1253       1254       1265       1264       1374       1375       1386       1385  
      1255       1256       1267       1266       1376       1377       1388       1387  
      1256       1257       1268       1267       1377       1378       1389       1388  
      1257       1258       1269       1268       1378       1379       1390       1389  
      1258       1259       1270       1269       1379       1380       1391       1390  
      1259       1260       1271       1270       1380       1381       1392       1391  
      1260       1261       1272       1271       1381       1382       1393       1392  
      1261       1262       1273       1272       1382       1383       1394       1393  
      1262       1263       1274       1273       1383       1384       1395       1394  
      1263       1264       1275       1274       1384       1385       1396       1395  
      1264       1265       1276       1275       1385       1386       1397       1396  
      1266       1267       1278       1277       1387       1388       1399       1398  
      1267       1268       1279       1278       1388       1389       1400       1399  
      1268       1269       1280       1279       1389       1390       1401       1400  
      1269       1270       1281       1280       1390       1391       1402       1401  
      1270       1271       1282       1281       1391       1392       1403       1402  
      1271       1272       1283       1282       1392       1393       1404       1403  
      1272       1273       1284       1283       1393       1394       1405       1404  
      1273       1274       1285       1284       1394       1395       1406       1405  
      1274       1275       1286       1285       1395       1396       1407       1406  
      1275       1276       1287       1286       1396       1397       1408       1407  
      1277       1278       1289       1288       1398       1399       1410       1409  
      1278       1279       1290       1289       1399       1400       1411       1410  
      1279       1280       1291       1290       1400       1401       1412       1411  
      1280       1281       1292       1291       1401       1402       1413       1412  
      1281       1282       1293       1292       1402       1403       1414       1413  
      1282       1283       1294       1293       1403       1404       1415       1414  
      1283       1284       1295       1294       1404       1405       1416       1415  
      1284       1285       1296       1295       1405       1406       1417       1416  
      1285       1286       1297       1296       1406       1407       1418       1417  
      1286       1287       1298       1297       1407       1408       1419       1418  
      1288       1289       1300       1299       1409       1410       1421       1420  
      1289       1290       1301       1300       1410       1411       1422       1421  
      1290       1291       1302       1301       1411       1412       1423       1422  
      1291       1292       1303       1302       1412       1413       1424       1423  
      1292       1293       1304       1303       1413       1414       1425       1424  
      1293       1294       1305       1304       1414       1415       1426       1425  
      1294       1295       1306       1305       1415       1416       1427       1426  
      1295       1296       1307       1306       1416       1417       1428       1427  
      1296       1297       1308       1307       1417       1418       1429       1428  
      1297       1298       1309       1308       1418       1419       1430       1429  
      1299       1300       1311       1310       1420       1421       1432       1431  
      1300       1301       1312       1311       1421       1422       1433       1432  
      1301       1302       1313       1312       1422       1423       1434       1433  
      1302       1303       1314       1313       1423       1424       1435       1434  
      1303       1304       1315       1314       1424       1425       1436       1435  
      1304       1305       1316       1315       1425       1426       1437       1436  
      1305       1306       1317       1316       1426       1427       1438       1437  
      1306       1307       1318       1317       1427       1428       1439       1438  
      1307       1308       1319       1318       1428       1429       1440       1439  
      1308       1309       1320       1319       1429       1430       1441       1440  
      1310       1311       1322       1321       1431       1432       1443       1442  
      1311       1312       1323       1322       1432       1433       1444       1443  
      1312       1313       1324       1323       1433       1434       1445       1444  
      1313       1314       1325       1324       1434       1435       1446       1445  
      1314       1315       1326       1325       1435       1436       1447       1446  
      1315       1316       1327       1326       1436       1437       1448       1447  
      1316       1317       1328       1327       1437       1438       1449       1448  
      1317       1318       1329       1328       1438       1439       1450       1449  
      1318       1319       1330       1329       1439       1440       1451       1450  
      1319       1320       1331       1330       1440       1441       1452       1451  
      1332       1333       1344       1343       1453       1454       1465       1464  
      1333       1334       1345       1344       1454       1455       1466       1465  
      1334       1335       1346       1345       1455       1456       1467       1466  
      1335       1336       1347       1346       1456       1457       1468       1467  
      1336       1337       1348       1347       1457       1458       1469       1468  
      1337       1338       1349       1348       1458       1459       1470       1469  
      1338       1339       1350       1349       1459       1460       1471       1470  
      1339       1340       1351       1350       1460       1461       1472       1471  
      1340       1341       1352       1351       1461       1462       1473       1472  
      1341       1342       1353       1352       1462       1463       1474       1473  
      1343       1344       1355       1354       1464       1465       1476       1475  
      1344       1345       1356       1355       1465       1466       1477       1476  
      1345       1346       1357       1356       1466       1467       1478       1477  
      1346       1347       1358       1357       1467       1468       1479       1478  
      1347       1348       1359       1358       1468       1469       1480       1479  
      1348       1349       1360       1359       1469       1470       1481       1480  
      1349       1350       1361       1360       1470       1471       1482       1481  
      1350       1351       1362       1361       1471       1472       1483       1482  
      1351       1352       1363       1362       1472       1473       1484       1483  
      1352       1353       1364       1363       1473       1474       1485       1484  
      1354       1355       1366       1365       1475       1476       1487       1486  
      1355       1356       1367       1366       1476       1477       1488       1487  
      1356       1357       1368       1367       1477       1478       1489       1488  
      1357       1358       1369       1368       1478       1479       1490       1489  
      1358       1359       1370       1369       1479       1480       1491       1490  
      1359       1360       1371       1370       1480       1481       1492       1491  
      1360       1361       1372       1371       1481       1482       1493       1492  
      1361       1362       1373       1372       1482       1483       1494       1493  
      1362       1363       1374       1373       1483       1484       1495       1494  
      1363       1364       1375       1374       1484       1485       1496       1495  
      1365       1366       1377       1376       1486       1487       1498       1497  
      1366       1367       1378       1377       1487       1488       1499       1498  
      1367       1368       1379       1378       1488       1489       1500       1499  
      1368       1369       1380       1379       1489       1490       1501       1500  
      1369       1370       1381       1380       1490       1491       1502       1501  
      1370       1371       1382       1381       1491       1492       1503       1502  
      1371       1372       1383       1382       1492       1493       1504       1503  
      1372       1373       1384       1383       1493       1494       1505       1504  
      1373       1374       1385       1384       1494       1495       1506       1505  
      1374       1375       1386       1385       1495       1496       1507       1506  
      1376       1377       1388       1387       1497       1498       1509       1508  
      1377       1378       1389       1388       1498       1499       1510       1509  
      1378       1379       1390       1389       1499       1500       1511       1510  
      1379       1380       1391       1390       1500       1501       1512       1511  
      1380       1381       1392       1391       1501       1502       1513       1512  
      1381       1382       1393       1392       1502       1503       1514       1513  
      1382       1383       1394       1393       1503       1504       1515       1514  
      1383       1384       1395       1394       1504       1505       1516       1515  
      1384       1385       1396       1395       1505       1506       1517       1516  
      1385       1386       1397       1396       1506       1507       1518       1517  
      1387       1388       1399       1398       1508       1509       1520       1519  
      1388       1389       1400       1399       1509       1510       1521       1520  
      1389       1390       1401       1400       1510       1511       1522       1521  
      1390       1391       1402       1401       1511       1512       1523       1522  
      1391       1392       1403       1402       1512       1513       1524       1523  
      1392       1393       1404       1403       1513       1514       1525       1524  
      1393       1394       1405       1404       1514       1515       1526       1525  
      1394       1395       1406       1405       1515       1516       1527       1526  
      1395       1396       1407       1406       1516       1517       1528       1527  
      1396       1397       1408       1407       1517       1518       1529       1528  
      1398       1399       1410       1409       1519       1520       1531       1530  
      1399       1400       1411       1410       1520       1521       1532       1531  
      1400       1401       1412       1411       1521       1522       1533       1532  
      1401       1402       1413       1412       1522       1523       1534       1533  
      1402       1403       1414       1413       1523       1524       1535       1534  
      1403       1404       1415       1414       1524       1525       1536       1535  
      1404       1405       1416       1415       1525       1526       1537       1536  
      1405       1406       1417       1416       1526       1527       1538       1537  
      1406       1407       1418       1417       1527       1528       1539       1538  
      1407       1408       1419       1418       1528       1529       1540       1539  
      1409       1410       1421       1420       1530       1531       1542       1541  
      1410       1411       1422       1421       1531       1532       1543       1542  
      1411       1412       1423       1422       1532       1533       1544       1543  
      1412       1413       1424       1423       1533       1534       1545       1544  
      1413       1414       1425       1424       1534       1535       1546       1545  
      1414       1415       1426       1425       1535       1536       1547       1546  
      1415       1416       1427       1426       1536       1537       1548       1547  
      1416       1417       1428       1427       1537       1538       1549       1548  
      1417       1418       1429       1428       1538       1539       1550       1549  
      1418       1419       1430       1429       1539       1540       1551       1550  
      1420       1421       1432       1431       1541       1542       1553       1552  
      1421       1422       1433       1432       1542       1543       1554       1553  
      1422       1423       1434       1433       1543       1544       1555       1554  
      1423       1424       1435       1434       1544       1545       1556       1555  
      1424       1425       1436       1435       1545       1546       1557       1556  
      1425       1426       1437       1436       1546       1547       1558       1557  
      1426       1427       1438       1437       1547       1548       1559       1558  
      1427       1428       1439       1438       1548       1549       1560       1559  
      1428       1429       1440       1439       1549       1550       1561       1560  
      1429       1430       1441       1440       1550       1551       1562       1561  
      1431       1432       1443       1442       1552       1553       1564       1563  
      1432       1433       1444       1443       1553       1554       1565       1564  
      1433       1434       1445       1444       1554       1555       1566       1565  
      1434       1435       1446       1445       1555       1556       1567       1566  
      1435       1436       1447       1446       1556       1557       1568       1567  
      1436       1437       1448       1447       1557       1558       1569       1568  
      1437       1438       1449       1448       1558       1559       1570       1569  
      1438       1439       1450       1449       1559       1560       1571       1570  
      1439       1440       1451       1450       1560       1561       1572       1571  
      1440       1441       1452       1451       1561       1562       1573       1572  
      1453       1454       1465       1464       1574       1575       1586       1585  
      1454       1455       1466       1465       1575       1576       1587       1586  
      1455       1456       1467       1466       1576       1577       1588       1587  
      1456       1457       1468       1467       1577       1578       1589       1588  
      1457       1458       1469       1468       1578       1579       1590       1589  
      1458       1459       1470       1469       1579       1580       1591       1590  
      1459       1460       1471       1470       1580       1581       1592       1591  
      1460       1461       1472       1471       1581       1582       1593       1592  
      1461       1462       1473       1472       1582       1583       1594       1593  
      1462       1463       1474       1473       1583       1584       1595       1594  
      1464       1465       1476       1475       1585       1586       1597       1596  
      1465       1466       1477       1476       1586       1587       1598       1597  
      1466       1467       1478       1477       1587       1588       1599       1598  
      1467       1468       1479       1478       1588       1589       1600       1599  
      1468       1469       1480       1479       1589       1590       1601       1600  
      1469       1470       1481       1480       1590       1591       1602       1601  
      1470       1471       1482       1481       1591       1592       1603       1602  
      1471       1472       1483       1482       1592       1593       1604       1603  
      1472       1473       1484       1483       1593       1594       1605       1604  
      1473       1474       1485       1484       1594       1595       1606       1605  
      1475       1476       1487       1486       1596       1597       1608       1607  
      1476       1477       1488       1487       1597       1598       1609       1608  
      1477       1478       1489       1488       1598       1599       1610       1609  
      1478       1479       1490       1489       1599       1600       1611       1610  
      1479       1480       1491       1490       1600       1601       1612       1611  
      1480       1481       1492       1491       1601       1602       1613       1612  
      1481       1482       1493       1492       1602       1603       1614       1613  
      1482       1483       1494       1493       1603       1604       1615       1614  
      1483       1484       1495       1494       1604       1605       1616       1615  
      1484       1485       1496       1495       1605       1606       1617       1616  
      1486       1487       1498       1497       1607       1608       1619       1618  
      1487       1488       1499       1498       1608       1609       1620       1619  
      1488       1489       1500       1499       1609       1610       1621       1620  
      1489       1490       1501       1500       1610       1611       1622       1621  
      1490       1491       1502       1501       1611       1612       1623       1622  
      1491       1492       1503       1502       1612       1613       1624       1623  
      1492       1493       1504       1503       1613       1614       1625       1624  
      1493       1494       1505       1504       1614       1615       1626       1625  
      1494       1495       1506       1505       1615       1616       1627       1626  
      1495       1496       1507       1506       1616       1617       1628       1627  
      1497       1498       1509       1508       1618       1619       1630       1629  
      1498       1499       1510       1509       1619       1620       1631       1630  
      1499       1500       1511       1510       1620       1621       1632       1631  
      1500       1501       1512       1511       1621       1622       1633       1632  
      1501       1502       1513       1512       1622       1623       1634       1633  
      1502       1503       1514       1513       1623       1624       1635       1634  
      1503       1504       1515       1514       1624       1625       1636       1635  
      1504       1505       1516       1515       1625       1626       1637       1636  
      1505       1506       1517       1516       1626       1627       1638       1637  
      1506       1507       1518       1517       1627       1628       1639       1638  
      1508       1509       1520       1519       1629       1630       1641       1640  
      1509       1510       1521       1520       1630       1631       1642       1641  
      1510       1511       1522       1521       1631       1632       1643       1642  
      1511       1512       1523       1522       1632       1633       1644       1643  
      1512       1513       1524       1523       1633       1634       1645       1644  
      1513       1514       1525       1524       1634       1635       1646       1645  
      1514       1515       1526       1525       1635       1636       1647       1646  
      1515       1516       1527       1526       1636       1637       1648       1647  
      1516       1517       1528       1527       1637       1638       1649       1648  
      1517       1518       1529       1528       1638       1639       1650       1649  
      1519       1520       1531       1530       1640       1641       1652       1651  
      1520       1521       1532       1531       1641       1642       1653       1652  
      1521       1522       1533       1532       1642       1643       1654       1653  
      1522       1523       1534       1533       1643       1644       1655       1654  
      1523       1524       1535       1534       1644       1645       1656       1655  
      1524       1525       1536       1535       1645       1646       1657       1656  
      1525       1526       1537       1536       1646       1647       1658       1657  
      1526       1527       1538       1537       1647       1648       1659       1658  
      1527       1528       1539       1538       1648       1649       1660       1659  
      1528       1529       1540       1539       1649       1650       1661       1660  
      1530       1531       1542       1541       1651       1652       1663       1662  
      1531       1532       1543       1542       1652       1653       1664       1663  
      1532       1533       1544       1543       1653       1654       1665       1664  
      1533       1534       1545       1544       1654       1655       1666       1665  
      1534       1535       1546       1545       1655       1656       1667       1666  
      1535       1536       1547       1546       1656       1657       1668       1667  
      1536       1537       1548       1547       1657       1658       1669       1668  
      1537       1538       1549       1548       1658       1659       1670       1669  
      1538       1539       1550       1549       1659       1660       1671       1670  
      1539       1540       1551       1550       1660       1661       1672       1671  
      1541       1542       1553       1552       1662       1663       1674       1673  
      1542       1543       1554       1553       1663       1664       1675       1674  
      1543       1544       1555       1554       1664       1665       1676       1675  
      1544       1545       1556       1555       1665       1666       1677       1676  
      1545       1546       1557       1556       1666       1667       1678       1677  
      1546       1547       1558       1557       1667       1668       1679       1678  
      1547       1548       1559       1558       1668       1669       1680       1679  
      1548       1549       1560       1559       1669       1670       1681       1680  
      1549       1550       1561       1560       1670       1671       1682       1681  
      1550       1551       1562       1561       1671       1672       1683       1682  
      1552       1553       1564       1563       1673       1674       1685       1684  
      1553       1554       1565       1564       1674       1675       1686       1685  
      1554       1555       1566       1565       1675       1676       1687       1686  
      1555       1556       1567       1566       1676       1677       1688       1687  
      1556       1557       1568       1567       1677       1678       1689       1688  
      1557       1558       1569       1568       1678       1679       1690       1689  
      1558       1559       1570       1569       1679       1680       1691       1690  
      1559       1560       1571       1570       1680       1681       1692       1691  
      1560       1561       1572       1571       1681       1682       1693       1692  
      1561       1562       1573       1572       1682       1683       1694       1693  
      1574       1575       1586       1585       1695       1696       1707       1706  
      1575       1576       1587       1586       1696       1697       1708       1707  
      1576       1577       1588       1587       1697       1698       1709       1708  
      1577       1578       1589       1588       1698       1699       1710       1709  
      1578       1579       1590       1589       1699       1700       1711       1710  
      1579       1580       1591       1590       1700       1701       1712       1711  
      1580       1581       1592       1591       1701       1702       1713       1712  
      1581       1582       1593       1592       1702       1703       1714       1713  
      1582       1583       1594       1593       1703       1704       1715       1714  
      1583       1584       1595       1594       1704       1705       1716       1715  
      1585       1586       1597       1596       1706       1707       1718       1717  
      1586       1587       1598       1597       1707       1708       1719       1718  
      1587       1588       1599       1598       1708       1709       1720       1719  
      1588       1589       1600       1599       1709       1710       1721       1720  
      1589       1590       1601       1600       1710       1711       1722       1721  
      1590       1591       1602       1601       1711       1712       1723       1722  
      1591       1592       1603       1602       1712       1713       1724       1723  
      1592       1593       1604       1603       1713       1714       1725       1724  
      1593       1594       1605       1604       1714       1715       1726       1725  
      1594       1595       1606       1605       1715       1716       1727       1726  
      1596       1597       1608       1607       1717       1718       1729       1728  
      1597       1598       1609       1608       1718       1719       1730       1729  
      1598       1599       1610       1609       1719       1720       1731       1730  
      1599       1600       1611       1610       1720       1721       1732       1731  
      1600       1601       1612       1611       1721       1722       1733       1732  
      1601       1602       1613       1612       1722       1723       1734       1733  
      1602       1603       1614       1613       1723       1724       1735       1734  
      1603       1604       1615       1614       1724       1725       1736       1735  
      1604       1605       1616       1615       1725       1726       1737       1736  
      1605       1606       1617       1616       1726       1727       1738       1737  
      1607       1608       1619       1618       1728       1729       1740       1739  
      1608       1609       1620       1619       1729       1730       1741       1740  
      1609       1610       1621       1620       1730       1731       1742       1741  
      1610       1611       1622       1621       1731       1732       1743       1742  
      1611       1612       1623       1622       1732       1733       1744       1743  
      1612       1613       1624       1623       1733       1734       1745       1744  
      1613       1614       1625       1624       1734       1735       1746       1745  
      1614       1615       1626       1625       1735       1736       1747       1746  
      1615       1616       1627       1626       1736       1737       1748       1747  
      1616       1617       1628       1627       1737       1738       1749       1748  
      1618       1619       1630       1629       1739       1740       1751       1750  
      1619       1620       1631       1630       1740       1741       1752       1751  
      1620       1621       1632       1631       1741       1742       1753       1752  
      1621       1622       1633       1632       1742       1743       1754       1753  
      1622       1623       1634       1633       1743       1744       1755       1754  
      1623       1624       1635       1634       1744       1745       1756       1755  
      1624       1625       1636       1635       1745       1746       1757       1756  
      1625       1626       1637       1636       1746       1747       1758       1757  
      1626       1627       1638       1637       1747       1748       1759       1758  
      1627       1628       1639       1638       1748       1749       1760       1759  
      1629       1630       1641       1640       1750       1751       1762       1761  
      1630       1631       1642       1641       1751       1752       1763       1762  
      1631       1632       1643       1642       1752       1753       1764       1763  
      1632       1633       1644       1643       1753       1754       1765       1764  
      1633       1634       1645       1644       1754       1755       1766       1765  
      1634       1635       1646       1645       1755       1756       1767       1766  
      1635       1636       1647       1646       1756       1757       1768       1767  
      1636       1637       1648       1647       1757       1758       1769       1768  
      1637       1638       1649       1648       1758       1759       1770       1769  
      1638       1639       1650       1649       1759       1760       1771       1770  
      1640       1641       1652       1651       1761       1762       1773       1772  
      1641       1642       1653       1652       1762       1763       1774       1773  
      1642       1643       1654       1653       1763       1764       1775       1774  
      1643       1644       1655       1654       1764       1765       1776       1775  
      1644       1645       1656       1655       1765       1766       1777       1776  
      1645       1646       1657       1656       1766       1767       1778       1777  
      1646       1647       1658       1657       1767       1768       1779       1778  
      1647       1648       1659       1658       1768       1769       1780       1779  
      1648       1649       1660       1659       1769       1770       1781       1780  
      1649       1650       1661       1660       1770       1771       1782       1781  
      1651       1652       1663       1662       1772       1773       1784       1783  
      1652       1653       1664       1663       1773       1774       1785       1784  
      1653       1654       1665       1664       1774       1775       1786       1785  
      1654       1655       1666       1665       1775       1776       1787       1786  
      1655       1656       1667       1666       1776       1777       1788       1787  
      1656       1657       1668       1667       1777       1778       1789       1788  
      1657       1658       1669       1668       1778       1779       1790       1789  
      1658       1659       1670       1669       1779       1780       1791       1790  
      1659       1660       1671       1670       1780       1781       1792       1791  
      1660       1661       1672       1671       1781       1782       1793       1792  
      1662       1663       1674       1673       1783       1784       1795       1794  
      1663       1664       1675       1674       1784       1785       1796       1795  
      1664       1665       1676       1675       1785       1786       1797       1796  
      1665       1666       1677       1676       1786       1787       1798       1797  
      1666       1667       1678       1677       1787       1788       1799       1798  
      1667       1668       1679       1678       1788       1789       1800       1799  
      1668       1669       1680       1679       1789       1790       1801       1800  
      1669       1670       1681       1680       1790       1791       1802       1801  
      1670       1671       1682       1681       1791       1792       1803       1802  
      1671       1672       1683       1682       1792       1793       1804       1803  
      1673       1674       1685       1684       1794       1795       1806       1805  
      1674       1675       1686       1685       1795       1796       1807       1806  
      1675       1676       1687       1686       1796       1797       1808       1807  
      1676       1677       1688       1687       1797       1798       1809       1808  
      1677       1678       1689       1688       1798       1799       1810       1809  
      1678       1679       1690       1689       1799       1800       1811       1810  
      1679       1680       1691       1690       1800       1801       1812       1811  
      1680       1681       1692       1691       1801       1802       1813       1812  
      1681       1682       1693       1692       1802       1803       1814       1813  
      1682       1683       1694       1693       1803       1804       1815       1814  
      1695       1696       1707       1706       1816       1817       1828       1827  
      1696       1697       1708       1707       1817       1818       1829       1828  
      1697       1698       1709       1708       1818       1819       1830       1829  
      1698       1699       1710       1709       1819       1820       1831       1830  
      1699       1700       1711       1710       1820       1821       1832       1831  
      1700       1701       1712       1711       1821       1822       1833       1832  
      1701       1702       1713       1712       1822       1823       1834       1833  
      1702       1703       1714       1713       1823       1824       1835       1834  
      1703       1704       1715       1714       1824       1825       1836       1835  
      1704       1705       1716       1715       1825       1826       1837       1836  
      1706       1707       1718       1717       1827       1828       1839       1838  
      1707       1708       1719       1718       1828       1829       1840       1839  
      1708       1709       1720       1719       1829       1830       1841       1840  
      1709       1710       1721       1720       1830       1831       1842       1841  
      1710       1711       1722       1721       1831       1832       1843       1842  
      1711       1712       1723       1722       1832       1833       1844       1843  
      1712       1713       1724       1723       1833       1834       1845       1844  
      1713       1714       1725       1724       1834       1835       1846       1845  
      1714       1715       1726       1725       1835       1836       1847       1846  
      1715       1716       1727       1726       1836       1837       1848       1847  
      1717       1718       1729       1728       1838       1839       1850       1849  
      1718       1719       1730       1729       1839       1840       1851       1850  
      1719       1720       1731       1730       1840       1841       1852       1851  
      1720       1721       1732       1731       1841       1842       1853       1852  
      1721       1722       1733       1732       1842       1843       1854       1853  
      1722       1723       1734       1733       1843       1844       1855       1854  
      1723       1724       1735       1734       1844       1845       1856       1855  
      1724       1725       1736       1735       1845       1846       1857       1856  
      1725       1726       1737       1736       1846       1847       1858       1857  
      1726       1727       1738       1737       1847       1848       1859       1858  
      1728       1729       1740       1739       1849       1850       1861       1860  
      1729       1730       1741       1740       1850       1851       1862       1861  
      1730       1731       1742       1741       1851       1852       1863       1862  
      1731       1732       1743       1742       1852       1853       1864       1863  
      1732       1733       1744       1743       1853       1854       1865       1864  
      1733       1734       1745       1744       1854       1855       1866       1865  
      1734       1735       1746       1745       1855       1856       1867       1866  
      1735       1736       1747       1746       1856       1857       1868       1867  
      1736       1737       1748       1747       1857       1858       1869       1868  
      1737       1738       1749       1748       1858       1859       1870       1869  
      1739       1740       1751       1750       1860       1861       1872       1871  
      1740       1741       1752       1751       1861       1862       1873       1872  
      1741       1742       1753       1752       1862       1863       1874       1873  
      1742       1743       1754       1753       1863       1864       1875       1874  
      1743       1744       1755       1754       1864       1865       1876       1875  
      1744       1745       1756       1755       1865       1866       1877       1876  
      1745       1746       1757       1756       1866       1867       1878       1877  
      1746       1747       1758       1757       1867       1868       1879       1878  
      1747       1748       1759       1758       1868       1869       1880       1879  
      1748       1749       1760       1759       1869       1870       1881       1880  
      1750       1751       1762       1761       1871       1872       1883       1882  
      1751       1752       1763       1762       1872       1873       1884       1883  
      1752       1753       1764       1763       1873       1874       1885       1884  
      1753       1754       1765       1764       1874       1875       1886       1885  
      1754       1755       1766       1765       1875       1876       1887       1886  
      1755       1756       1767       1766       1876       1877       1888       1887  
      1756       1757       1768       1767       1877       1878       1889       1888  
      1757       1758       1769       1768       1878       1879       1890       1889  
      1758       1759       1770       1769       1879       1880       1891       1890  
      1759       1760       1771       1770       1880       1881       1892       1891  
      1761       1762       1773       1772       1882       1883       1894       1893  
      1762       1763       1774       1773       1883       1884       1895       1894  
      1763       1764       1775       1774       1884       1885       1896       1895  
      1764       1765       1776       1775       1885       1886       1897       1896  
      1765       1766       1777       1776       1886       1887       1898       1897  
      1766       1767       1778       1777       1887       1888       1899       1898  
      1767       1768       1779       1778       1888       1889       1900       1899  
      1768       1769       1780       1779       1889       1890       1901       1900  
      1769       1770       1781       1780       1890       1891       1902       1901  
      1770       1771       1782       1781       1891       1892       1903       1902  
      1772       1773       1784       1783       1893       1894       1905       1904  
      1773       1774       1785       1784       1894       1895       1906       1905  
      1774       1775       1786       1785       1895       1896       1907       1906  
      1775       1776       1787       1786       1896       1897       1908       1907  
      1776       1777       1788       1787       1897       1898       1909       1908  
      1777       1778       1789       1788       1898       1899       1910       1909  
      1778       1779       1790       1789       1899       1900       1911       1910  
      1779       1780       1791       1790       1900       1901       1912       1911  
      1780       1781       1792       1791       1901       1902       1913       1912  
      1781       1782       1793       1792       1902       1903       1914       1913  
      1783       1784       1795       1794       1904       1905       1916       1915  
      1784       1785       1796       1795       1905       1906       1917       1916  
      1785       1786       1797       1796       1906       1907       1918       1917  
      1786       1787       1798       1797       1907       1908       1919       1918  
      1787       1788       1799       1798       1908       1909       1920       1919  
      1788       1789       1800       1799       1909       1910       1921       1920  
      1789       1790       1801       1800       1910       1911       1922       1921  
      1790       1791       1802       1801       1911       1912       1923       1922  
      1791       1792       1803       1802       1912       1913       1924       1923  
      1792       1793       1804       1803       1913       1914       1925       1924  
      1794       1795       1806       1805       1915       1916       1927       1926  
      1795       1796       1807       1806       1916       1917       1928       1927  
      1796       1797       1808       1807       1917       1918       1929       1928  
      1797       1798       1809       1808       1918       1919       1930       1929  
      1798       1799       1810       1809       1919       1920       1931       1930  
      1799       1800       1811       1810       1920       1921       1932       1931  
      1800       1801       1812       1811       1921       1922       1933       1932  
      1801       1802       1813       1812       1922       1923       1934       1933  
      1802       1803       1814       1813       1923       1924       1935       1934  
      1803       1804       1815       1814       1924       1925       1936       1935  
      1816       1817       1828       1827       1937       1938       1949       1948  
      1817       1818       1829       1828       1938       1939       1950       1949  
      1818       1819       1830       1829       1939       1940       1951       1950  
      1819       1820       1831       1830       1940       1941       1952       1951  
      1820       1821       1832       1831       1941       1942       1953       1952  
      1821       1822       1833       1832       1942       1943       1954       1953  
      1822       1823       1834       1833       1943       1944       1955       1954  
      1823       1824       1835       1834       1944       1945       1956       1955  
      1824       1825       1836       1835       1945       1946       1957       1956  
      1825       1826       1837       1836       1946       1947       1958       1957  
      1827       1828       1839       1838       1948       1949       1960       1959  
      1828       1829       1840       1839       1949       1950       1961       1960  
      1829       1830       1841       1840       1950       1951       1962       1961  
      1830       1831       1842       1841       1951       1952       1963       1962  
      1831       1832       1843       1842       1952       1953       1964       1963  
      1832       1833       1844       1843       1953       1954       1965       1964  
      1833       1834       1845       1844       1954       1955       1966       1965  
      1834       1835       1846       1845       1955       1956       1967       1966  
      1835       1836       1847       1846       1956       1957       1968       1967  
      1836       1837       1848       1847       1957       1958       1969       1968  
      1838       1839       1850       1849       1959       1960       1971       1970  
      1839       1840       1851       1850       1960       1961       1972       1971  
      1840       1841       1852       1851       1961       1962       1973       1972  
      1841       1842       1853       1852       1962       1963       1974       1973  
      1842       1843       1854       1853       1963       1964       1975       1974  
      1843       1844       1855       1854       1964       1965       1976       1975  
      1844       1845       1856       1855       1965       1966       1977       1976  
      1845       1846       1857       1856       1966       1967       1978       1977  
      1846       1847       1858       1857       1967       1968       1979       1978  
      1847       1848       1859       1858       1968       1969       1980       1979  
      1849       1850       1861       1860       1970       1971       1982       1981  
      1850       1851       1862       1861       1971       1972       1983       1982  
      1851       1852       1863       1862       1972       1973       1984       1983  
      1852       1853       1864       1863       1973       1974       1985       1984  
      1853       1854       1865       1864       1974       1975       1986       1985  
      1854       1855       1866       1865       1975       1976       1987       1986  
      1855       1856       1867       1866       1976       1977       1988       1987  
      1856       1857       1868       1867       1977       1978       1989       1988  
      1857       1858       1869       1868       1978       1979       1990       1989  
      1858       1859       1870       1869       1979       1980       1991       1990  
      1860       1861       1872       1871       1981       1982       1993       1992  
      1861       1862       1873       1872       1982       1983       1994       1993  
      1862       1863       1874       1873       1983       1984       1995       1994  
      1863       1864       1875       1874       1984       1985       1996       1995  
      1864       1865       1876       1875       1985       1986       1997       1996  
      1865       1866       1877       1876       1986       1987       1998       1997  
      1866       1867       1878       1877       1987       1988       1999       1998  
      1867       1868       1879       1878       1988       1989       2000       1999  
      1868       1869       1880       1879       1989       1990       2001       2000  
      1869       1870       1881       1880       1990       1991       2002       2001  
      1871       1872       1883       1882       1992       1993       2004       2003  
      1872       1873       1884       1883       1993       1994       2005       2004  
      1873       1874       1885       1884       1994       1995       2006       2005  
      1874       1875       1886       1885       1995       1996       2007       2006  
      1875       1876       1887       1886       1996       1997       2008       2007  
      1876       1877       1888       1887       1997       1998       2009       2008  
      1877       1878       1889       1888       1998       1999       2010       2009  
      1878       1879       1890       1889       1999       2000       2011       2010  
      1879       1880       1891       1890       2000       2001       2012       2011  
      1880       1881       1892       1891       2001       2002       2013       2012  
      1882       1883       1894       1893       2003       2004       2015       2014  
      1883       1884       1895       1894       2004       2005       2016       2015  
      1884       1885       1896       1895       2005       2006       2017       2016  
      1885       1886       1897       1896       2006       2007       2018       2017  
      1886       1887       1898       1897       2007       2008       2019       2018  
      1887       1888       1899       1898       2008       2009       2020       2019  
      1888       1889       1900       1899       2009       2010       2021       2020  
      1889       1890       1901       1900       2010       2011       2022       2021  
      1890       1891       1902       1901       2011       2012       2023       2022  
      1891       1892       1903       1902       2012       2013       2024       2023  
      1893       1894       1905       1904       2014       2015       2026       2025  
      1894       1895       1906       1905       2015       2016       2027       2026  
      1895       1896       1907       1906       2016       2017       2028       2027  
      1896       1897       1908       1907       2017       2018       2029       2028  
      1897       1898       1909       1908       2018       2019       2030       2029  
      1898       1899       1910       1909       2019       2020       2031       2030  
      1899       1900       1911       1910       2020       2021       2032       2031  
      1900       1901       1912       1911       2021       2022       2033       2032  
      1901       1902       1913       1912       2022       2023       2034       2033  
      1902       1903       1914       1913       2023       2024       2035       2034  
      1904       1905       1916       1915       2025       2026       2037       2036  
      1905       1906       1917       1916       2026       2027       2038       2037  
      1906       1907       1918       1917       2027       2028       2039       2038  
      1907       1908       1919       1918       2028       2029       2040       2039  
      1908       1909       1920       1919       2029       2030       2041       2040  
      1909       1910       1921       1920       2030       2031       2042       2041  
      1910       1911       1922       1921       2031       2032       2043       2042  
      1911       1912       1923       1922       2032       2033       2044       2043  
      1912       1913       1924       1923       2033       2034       2045       2044  
      1913       1914       1925       1924       2034       2035       2046       2045  
      1915       1916       1927       1926       2036       2037       2048       2047  
      1916       1917       1928       1927       2037       2038       2049       2048  
      1917       1918       1929       1928       2038       2039       2050       2049  
      1918       1919       1930       1929       2039       2040       2051       2050  
      1919       1920       1931       1930       2040       2041       2052       2051  
      1920       1921       1932       1931       2041       2042       2053       2052  
      1921       1922       1933       1932       2042       2043       2054       2053  
      1922       1923       1934       1933       2043       2044       2055       2054  
      1923       1924       1935       1934       2044       2045       2056       2055  
      1924       1925       1936       1935       2045       2046       2057       2056  
      1937       1938       1949       1948       2058       2059       2070       2069  
      1938       1939       1950       1949       2059       2060       2071       2070  
      1939       1940       1951       1950       2060       2061       2072       2071  
      1940       1941       1952       1951       2061       2062       2073       2072  
      1941       1942       1953       1952       2062       2063       2074       2073  
      1942       1943       1954       1953       2063       2064       2075       2074  
      1943       1944       1955       1954       2064       2065       2076       2075  
      1944       1945       1956       1955       2065       2066       2077       2076  
      1945       1946       1957       1956       2066       2067       2078       2077  
      1946       1947       1958       1957       2067       2068       2079       2078  
      1948       1949       1960       1959       2069       2070       2081       2080  
      1949       1950       1961       1960       2070       2071       2082       2081  
      1950       1951       1962       1961       2071       2072       2083       2082  
      1951       1952       1963       1962       2072       2073       2084       2083  
      1952       1953       1964       1963       2073       2074       2085       2084  
      1953       1954       1965       1964       2074       2075       2086       2085  
      1954       1955       1966       1965       2075       2076       2087       2086  
      1955       1956       1967       1966       2076       2077       2088       2087  
      1956       1957       1968       1967       2077       2078       2089       2088  
      1957       1958       1969       1968       2078       2079       2090       2089  
      1959       1960       1971       1970       2080       2081       2092       2091  
      1960       1961       1972       1971       2081       2082       2093       2092  
      1961       1962       1973       1972       2082       2083       2094       2093  
      1962       1963       1974       1973       2083       2084       2095       2094  
      1963       1964       1975       1974       2084       2085       2096       2095  
      1964       1965       1976       1975       2085       2086       2097       2096  
      1965       1966       1977       1976       2086       2087       2098       2097  
      1966       1967       1978       1977       2087       2088       2099       2098  
      1967       1968       1979       1978       2088       2089       2100       2099  
      1968       1969       1980       1979       2089       2090       2101       2100  
      1970       1971       1982       1981       2091       2092       2103       2102  
      1971       1972       1983       1982       2092       2093       2104       2103  
      1972       1973       1984       1983       2093       2094       2105       2104  
      1973       1974       1985       1984       2094       2095       2106       2105  
      1974       1975       1986       1985       2095       2096       2107       2106  
      1975       1976       1987       1986       2096       2097       2108       2107  
      1976       1977       1988       1987       2097       2098       2109       2108  
      1977       1978       1989       1988       2098       2099       2110       2109  
      1978       1979       1990       1989       2099       2100       2111       2110  
      1979       1980       1991       1990       2100       2101       2112       2111  
      1981       1982       1993       1992       2102       2103       2114       2113  
      1982       1983       1994       1993       2103       2104       2115       2114  
      1983       1984       1995       1994       2104       2105       2116       2115  
      1984       1985       1996       1995       2105       2106       2117       2116  
      1985       1986       1997       1996       2106       2107       2118       2117  
      1986       1987       1998       1997       2107       2108       2119       2118  
      1987       1988       1999       1998       2108       2109       2120       2119  
      1988       1989       2000       1999       2109       2110       2121       2120  
      1989       1990       2001       2000       2110       2111       2122       2121  
      1990       1991       2002       2001       2111       2112       2123       2122  
      1992       1993       2004       2003       2113       2114       2125       2124  
      1993       1994       2005       2004       2114       2115       2126       2125  
      1994       1995       2006       2005       2115       2116       2127       2126  
      1995       1996       2007       2006       2116       2117       2128       2127  
      1996       1997       2008       2007       2117       2118       2129       2128  
      1997       1998       2009       2008       2118       2119       2130       2129  
      1998       1999       2010       2009       2119       2120       2131       2130  
      1999       2000       2011       2010       2120       2121       2132       2131  
      2000       2001       2012       2011       2121       2122       2133       2132  
      2001       2002       2013       2012       2122       2123       2134       2133  
      2003       2004       2015       2014       2124       2125       2136       2135  
      2004       2005       2016       2015       2125       2126       2137       2136  
      2005       2006       2017       2016       2126       2127       2138       2137  
      2006       2007       2018       2017       2127       2128       2139       2138  
      2007       2008       2019       2018       2128       2129       2140       2139  
      2008       2009       2020       2019       2129       2130       2141       2140  
      2009       2010       2021       2020       2130       2131       2142       2141  
      2010       2011       2022       2021       2131       2132       2143       2142  
      2011       2012       2023       2022       2132       2133       2144       2143  
      2012       2013       2024       2023       2133       2134       2145       2144  
      2014       2015       2026       2025       2135       2136       2147       2146  
      2015       2016       2027       2026       2136       2137       2148       2147  
      2016       2017       2028       2027       2137       2138       2149       2148  
      2017       2018       2029       2028       2138       2139       2150       2149  
      2018       2019       2030       2029       2139       2140       2151       2150  
      2019       2020       2031       2030       2140       2141       2152       2151  
      2020       2021       2032       2031       2141       2142       2153       2152  
      2021       2022       2033       2032       2142       2143       2154       2153  
      2022       2023       2034       2033       2143       2144       2155       2154  
      2023       2024       2035       2034       2144       2145       2156       2155  
      2025       2026       2037       2036       2146       2147       2158       2157  
      2026       2027       2038       2037       2147       2148       2159       2158  
      2027       2028       2039       2038       2148       2149       2160       2159  
      2028       2029       2040       2039       2149       2150       2161       2160  
      2029       2030       2041       2040       2150       2151       2162       2161  
      2030       2031       2042       2041       2151       2152       2163       2162  
      2031       2032       2043       2042       2152       2153       2164       2163  
      2032       2033       2044       2043       2153       2154       2165       2164  
      2033       2034       2045       2044       2154       2155       2166       2165  
      2034       2035       2046       2045       2155       2156       2167       2166  
      2036       2037       2048       2047       2157       2158       2169       2168  
      2037       2038       2049       2048       2158       2159       2170       2169  
      2038       2039       2050       2049       2159       2160       2171       2170  
      2039       2040       2051       2050       2160       2161       2172       2171  
      2040       2041       2052       2051       2161       2162       2173       2172  
      2041       2042       2053       2052       2162       2163       2174       2173  
      2042       2043       2054       2053       2163       2164       2175       2174  
      2043       2044       2055       2054       2164       2165       2176       2175  
      2044       2045       2056       2055       2165       2166       2177       2176  
      2045       2046       2057       2056       2166       2167       2178       2177  
      2058       2059       2070       2069       2179       2180       2191       2190  
      2059       2060       2071       2070       2180       2181       2192       2191  
      2060       2061       2072       2071       2181       2182       2193       2192  
      2061       2062       2073       2072       2182       2183       2194       2193  
      2062       2063       2074       2073       2183       2184       2195       2194  
      2063       2064       2075       2074       2184       2185       2196       2195  
      2064       2065       2076       2075       2185       2186       2197       2196  
      2065       2066       2077       2076       2186       2187       2198       2197  
      2066       2067       2078       2077       2187       2188       2199       2198  
      2067       2068       2079       2078       2188       2189       2200       2199  
      2069       2070       2081       2080       2190       2191       2202       2201  
      2070       2071       2082       2081       2191       2192       2203       2202  
      2071       2072       2083       2082       2192       2193       2204       2203  
      2072       2073       2084       2083       2193       2194       2205       2204  
      2073       2074       2085       2084       2194       2195       2206       2205  
      2074       2075       2086       2085       2195       2196       2207       2206  
      2075       2076       2087       2086       2196       2197       2208       2207  
      2076       2077       2088       2087       2197       2198       2209       2208  
      2077       2078       2089       2088       2198       2199       2210       2209  
      2078       2079       2090       2089       2199       2200       2211       2210  
      2080       2081       2092       2091       2201       2202       2213       2212  
      2081       2082       2093       2092       2202       2203       2214       2213  
      2082       2083       2094       2093       2203       2204       2215       2214  
      2083       2084       2095       2094       2204       2205       2216       2215  
      2084       2085       2096       2095       2205       2206       2217       2216  
      2085       2086       2097       2096       2206       2207       2218       2217  
      2086       2087       2098       2097       2207       2208       2219       2218  
      2087       2088       2099       2098       2208       2209       2220       2219  
      2088       2089       2100       2099       2209       2210       2221       2220  
      2089       2090       2101       2100       2210       2211       2222       2221  
      2091       2092       2103       2102       2212       2213       2224       2223  
      2092       2093       2104       2103       2213       2214       2225       2224  
      2093       2094       2105       2104       2214       2215       2226       2225  
      2094       2095       2106       2105       2215       2216       2227       2226  
      2095       2096       2107       2106       2216       2217       2228       2227  
      2096       2097       2108       2107       2217       2218       2229       2228  
      2097       2098       2109       2108       2218       2219       2230       2229  
      2098       2099       2110       2109       2219       2220       2231       2230  
      2099       2100       2111       2110       2220       2221       2232       2231  
      2100       2101       2112       2111       2221       2222       2233       2232  
      2102       2103       2114       2113       2223       2224       2235       2234  
      2103       2104       2115       2114       2224       2225       2236       2235  
      2104       2105       2116       2115       2225       2226       2237       2236  
      2105       2106       2117       2116       2226       2227       2238       2237  
      2106       2107       2118       2117       2227       2228       2239       2238  
      2107       2108       2119       2118       2228       2229       2240       2239  
      2108       2109       2120       2119       2229       2230       2241       2240  
      2109       2110       2121       2120       2230       2231       2242       2241  
      2110       2111       2122       2121       2231       2232       2243       2242  
      2111       2112       2123       2122       2232       2233       2244       2243  
      2113       2114       2125       2124       2234       2235       2246       2245  
      2114       2115       2126       2125       2235       2236       2247       2246  
      2115       2116       2127       2126       2236       2237       2248       2247  
      2116       2117       2128       2127       2237       2238       2249       2248  
      2117       2118       2129       2128       2238       2239       2250       2249  
      2118       2119       2130       2129       2239       2240       2251       2250  
      2119       2120       2131       2130       2240       2241       2252       2251  
      2120       2121       2132       2131       2241       2242       2253       2252  
      2121       2122       2133       2132       2242       2243       2254       2253  
      2122       2123       2134       2133       2243       2244       2255       2254  
      2124       2125       2136       2135       2245       2246       2257       2256  
      2125       2126       2137       2136       2246       2247       2258       2257  
      2126       2127       2138       2137       2247       2248       2259       2258  
      2127       2128       2139       2138       2248       2249       2260       2259  
      2128       2129       2140       2139       2249       2250       2261       2260  
      2129       2130       2141       2140       2250       2251       2262       2261  
      2130       2131       2142       2141       2251       2252       2263       2262  
      2131       2132       2143       2142       2252       2253       2264       2263  
      2132       2133       2144       2143       2253       2254       2265       2264  
      2133       2134       2145       2144       2254       2255       2266       2265  
      2135       2136       2147       2146       2256       2257       2268       2267  
      2136       2137       2148       2147       2257       2258       2269       2268  
      2137       2138       2149       2148       2258       2259       2270       2269  
      2138       2139       2150       2149       2259       2260       2271       2270  
      2139       2140       2151       2150       2260       2261       2272       2271  
      2140       2141       2152       2151       2261       2262       2273       2272  
      2141       2142       2153       2152       2262       2263       2274       2273  
      2142       2143       2154       2153       2263       2264       2275       2274  
      2143       2144       2155       2154       2264       2265       2276       2275  
      2144       2145       2156       2155       2265       2266       2277       2276  
      2146       2147       2158       2157       2267       2268       2279       2278  
      2147       2148       2159       2158       2268       2269       2280       2279  
      2148       2149       2160       2159       2269       2270       2281       2280  
      2149       2150       2161       2160       2270       2271       2282       2281  
      2150       2151       2162       2161       2271       2272       2283       2282  
      2151       2152       2163       2162       2272       2273       2284       2283  
      2152       2153       2164       2163       2273       2274       2285       2284  
      2153       2154       2165       2164       2274       2275       2286       2285  
      2154       2155       2166       2165       2275       2276       2287       2286  
      2155       2156       2167       2166       2276       2277       2288       2287  
      2157       2158       2169       2168       2278       2279       2290       2289  
      2158       2159       2170       2169       2279       2280       2291       2290  
      2159       2160       2171       2170       2280       2281       2292       2291  
      2160       2161       2172       2171       2281       2282       2293       2292  
      2161       2162       2173       2172       2282       2283       2294       2293  
      2162       2163       2174       2173       2283       2284       2295       2294  
      2163       2164       2175       2174       2284       2285       2296       2295  
      2164       2165       2176       2175       2285       2286       2297       2296  
      2165       2166       2177       2176       2286       2287       2298       2297  
      2166       2167       2178       2177       2287       2288       2299       2298  
      2179       2180       2191       2190       2300       2301       2312       2311  
      2180       2181       2192       2191       2301       2302       2313       2312  
      2181       2182       2193       2192       2302       2303       2314       2313  
      2182       2183       2194       2193       2303       2304       2315       2314  
      2183       2184       2195       2194       2304       2305       2316       2315  
      2184       2185       2196       2195       2305       2306       2317       2316  
      2185       2186       2197       2196       2306       2307       2318       2317  
      2186       2187       2198       2197       2307       2308       2319       2318  
      2187       2188       2199       2198       2308       2309       2320       2319  
      2188       2189       2200       2199       2309       2310       2321       2320  
      2190       2191       2202       2201       2311       2312       2323       2322  
      2191       2192       2203       2202       2312       2313       2324       2323  
      2192       2193       2204       2203       2313       2314       2325       2324  
      2193       2194       2205       2204       2314       2315       2326       2325  
      2194       2195       2206       2205       2315       2316       2327       2326  
      2195       2196       2207       2206       2316       2317       2328       2327  
      2196       2197       2208       2207       2317       2318       2329       2328  
      2197       2198       2209       2208       2318       2319       2330       2329  
      2198       2199       2210       2209       2319       2320       2331       2330  
      2199       2200       2211       2210       2320       2321       2332       2331  
      2201       2202       2213       2212       2322       2323       2334       2333  
      2202       2203       2214       2213       2323       2324       2335       2334  
      2203       2204       2215       2214       2324       2325       2336       2335  
      2204       2205       2216       2215       2325       2326       2337       2336  
      2205       2206       2217       2216       2326       2327       2338       2337  
      2206       2207       2218       2217       2327       2328       2339       2338  
      2207       2208       2219       2218       2328       2329       2340       2339  
      2208       2209       2220       2219       2329       2330       2341       2340  
      2209       2210       2221       2220       2330       2331       2342       2341  
      2210       2211       2222       2221       2331       2332       2343       2342  
      2212       2213       2224       2223       2333       2334       2345       2344  
      2213       2214       2225       2224       2334       2335       2346       2345  
      2214       2215       2226       2225       2335       2336       2347       2346  
      2215       2216       2227       2226       2336       2337       2348       2347  
      2216       2217       2228       2227       2337       2338       2349       2348  
      2217       2218       2229       2228       2338       2339       2350       2349  
      2218       2219       2230       2229       2339       2340       2351       2350  
      2219       2220       2231       2230       2340       2341       2352       2351  
      2220       2221       2232       2231       2341       2342       2353       2352  
      2221       2222       2233       2232       2342       2343       2354       2353  
      2223       2224       2235       2234       2344       2345       2356       2355  
      2224       2225       2236       2235       2345       2346       2357       2356  
      2225       2226       2237       2236       2346       2347       2358       2357  
      2226       2227       2238       2237       2347       2348       2359       2358  
      2227       2228       2239       2238       2348       2349       2360       2359  
      2228       2229       2240       2239       2349       2350       2361       2360  
      2229       2230       2241       2240       2350       2351       2362       2361  
      2230       2231       2242       2241       2351       2352       2363       2362  
      2231       2232       2243       2242       2352       2353       2364       2363  
      2232       2233       2244       2243       2353       2354       2365       2364  
      2234       2235       2246       2245       2355       2356       2367       2366  
      2235       2236       2247       2246       2356       2357       2368       2367  
      2236       2237       2248       2247       2357       2358       2369       2368  
      2237       2238       2249       2248       2358       2359       2370       2369  
      2238       2239       2250       2249       2359       2360       2371       2370  
      2239       2240       2251       2250       2360       2361       2372       2371  
      2240       2241       2252       2251       2361       2362       2373       2372  
      2241       2242       2253       2252       2362       2363       2374       2373  
      2242       2243       2254       2253       2363       2364       2375       2374  
      2243       2244       2255       2254       2364       2365       2376       2375  
      2245       2246       2257       2256       2366       2367       2378       2377  
      2246       2247       2258       2257       2367       2368       2379       2378  
      2247       2248       2259       2258       2368       2369       2380       2379  
      2248       2249       2260       2259       2369       2370       2381       2380  
      2249       2250       2261       2260       2370       2371       2382       2381  
      2250       2251       2262       2261       2371       2372       2383       2382  
      2251       2252       2263       2262       2372       2373       2384       2383  
      2252       2253       2264       2263       2373       2374       2385       2384  
      2253       2254       2265       2264       2374       2375       2386       2385  
      2254       2255       2266       2265       2375       2376       2387       2386  
      2256       2257       2268       2267       2377       2378       2389       2388  
      2257       2258       2269       2268       2378       2379       2390       2389  
      2258       2259       2270       2269       2379       2380       2391       2390  
      2259       2260       2271       2270       2380       2381       2392       2391  
      2260       2261       2272       2271       2381       2382       2393       2392  
      2261       2262       2273       2272       2382       2383       2394       2393  
      2262       2263       2274       2273       2383       2384       2395       2394  
      2263       2264       2275       2274       2384       2385       2396       2395  
      2264       2265       2276       2275       2385       2386       2397       2396  
      2265       2266       2277       2276       2386       2387       2398       2397  
      2267       2268       2279       2278       2388       2389       2400       2399  
      2268       2269       2280       2279       2389       2390       2401       2400  
      2269       2270       2281       2280       2390       2391       2402       2401  
      2270       2271       2282       2281       2391       2392       2403       2402  
      2271       2272       2283       2282       2392       2393       2404       2403  
      2272       2273       2284       2283       2393       2394       2405       2404  
      2273       2274       2285       2284       2394       2395       2406       2405  
      2274       2275       2286       2285       2395       2396       2407       2406  
      2275       2276       2287       2286       2396       2397       2408       2407  
      2276       2277       2288       2287       2397       2398       2409       2408  
      2278       2279       2290       2289       2399       2400       2411       2410  
      2279       2280       2291       2290       2400       2401       2412       2411  
      2280       2281       2292       2291       2401       2402       2413       2412  
      2281       2282       2293       2292       2402       2403       2414       2413  
      2282       2283       2294       2293       2403       2404       2415       2414  
      2283       2284       2295       2294       2404       2405       2416       2415  
      2284       2285       2296       2295       2405       2406       2417       2416  
      2285       2286       2297       2296       2406       2407       2418       2417  
      2286       2287       2298       2297       2407       2408       2419       2418  
      2287       2288       2299       2298       2408       2409       2420       2419  
      2300       2301       2312       2311       2421       2422       2433       2432  
      2301       2302       2313       2312       2422       2423       2434       2433  
      2302       2303       2314       2313       2423       2424       2435       2434  
      2303       2304       2315       2314       2424       2425       2436       2435  
      2304       2305       2316       2315       2425       2426       2437       2436  
      2305       2306       2317       2316       2426       2427       2438       2437  
      2306       2307       2318       2317       2427       2428       2439       2438  
      2307       2308       2319       2318       2428       2429       2440       2439  
      2308       2309       2320       2319       2429       2430       2441       2440  
      2309       2310       2321       2320       2430       2431       2442       2441  
      2311       2312       2323       2322       2432       2433       2444       2443  
      2312       2313       2324       2323       2433       2434       2445       2444  
      2313       2314       2325       2324       2434       2435       2446       2445  
      2314       2315       2326       2325       2435       2436       2447       2446  
      2315       2316       2327       2326       2436       2437       2448       2447  
      2316       2317       2328       2327       2437       2438       2449       2448  
      2317       2318       2329       2328       2438       2439       2450       2449  
      2318       2319       2330       2329       2439       2440       2451       2450  
      2319       2320       2331       2330       2440       2441       2452       2451  
      2320       2321       2332       2331       2441       2442       2453       2452  
      2322       2323       2334       2333       2443       2444       2455       2454  
      2323       2324       2335       2334       2444       2445       2456       2455  
      2324       2325       2336       2335       2445       2446       2457       2456  
      2325       2326       2337       2336       2446       2447       2458       2457  
      2326       2327       2338       2337       2447       2448       2459       2458  
      2327       2328       2339       2338       2448       2449       2460       2459  
      2328       2329       2340       2339       2449       2450       2461       2460  
      2329       2330       2341       2340       2450       2451       2462       2461  
      2330       2331       2342       2341       2451       2452       2463       2462  
      2331       2332       2343       2342       2452       2453       2464       2463  
      2333       2334       2345       2344       2454       2455       2466       2465  
      2334       2335       2346       2345       2455       2456       2467       2466  
      2335       2336       2347       2346       2456       2457       2468       2467  
      2336       2337       2348       2347       2457       2458       2469       2468  
      2337       2338       2349       2348       2458       2459       2470       2469  
      2338       2339       2350       2349       2459       2460       2471       2470  
      2339       2340       2351       2350       2460       2461       2472       2471  
      2340       2341       2352       2351       2461       2462       2473       2472  
      2341       2342       2353       2352       2462       2463       2474       2473  
      2342       2343       2354       2353       2463       2464       2475       2474  
      2344       2345       2356       2355       2465       2466       2477       2476  
      2345       2346       2357       2356       2466       2467       2478       2477  
      2346       2347       2358       2357       2467       2468       2479       2478  
      2347       2348       2359       2358       2468       2469       2480       2479  
      2348       2349       2360       2359       2469       2470       2481       2480  
      2349       2350       2361       2360       2470       2471       2482       2481  
      2350       2351       2362       2361       2471       2472       2483       2482  
      2351       2352       2363       2362       2472       2473       2484       2483  
      2352       2353       2364       2363       2473       2474       2485       2484  
      2353       2354       2365       2364       2474       2475       2486       2485  
      2355       2356       2367       2366       2476       2477       2488       2487  
      2356       2357       2368       2367       2477       2478       2489       2488  
      2357       2358       2369       2368       2478       2479       2490       2489  
      2358       2359       2370       2369       2479       2480       2491       2490  
      2359       2360       2371       2370       2480       2481       2492       2491  
      2360       2361       2372       2371       2481       2482       2493       2492  
      2361       2362       2373       2372       2482       2483       2494       2493  
      2362       2363       2374       2373       2483       2484       2495       2494  
      2363       2364       2375       2374       2484       2485       2496       2495  
      2364       2365       2376       2375       2485       2486       2497       2496  
      2366       2367       2378       2377       2487       2488       2499       2498  
      2367       2368       2379       2378       2488       2489       2500       2499  
      2368       2369       2380       2379       2489       2490       2501       2500  
      2369       2370       2381       2380       2490       2491       2502       2501  
      2370       2371       2382       2381       2491       2492       2503       2502  
      2371       2372       2383       2382       2492       2493       2504       2503  
      2372       2373       2384       2383       2493       2494       2505       2504  
      2373       2374       2385       2384       2494       2495       2506       2505  
      2374       2375       2386       2385       2495       2496       2507       2506  
      2375       2376       2387       2386       2496       2497       2508       2507  
      2377       2378       2389       2388       2498       2499       2510       2509  
      2378       2379       2390       2389       2499       2500       2511       2510  
      2379       2380       2391       2390       2500       2501       2512       2511  
      2380       2381       2392       2391       2501       2502       2513       2512  
      2381       2382       2393       2392       2502       2503       2514       2513  
      2382       2383       2394       2393       2503       2504       2515       2514  
      2383       2384       2395       2394       2504       2505       2516       2515  
      2384       2385       2396       2395       2505       2506       2517       2516  
      2385       2386       2397       2396       2506       2507       2518       2517  
      2386       2387       2398       2397       2507       2508       2519       2518  
      2388       2389       2400       2399       2509       2510       2521       2520  
      2389       2390       2401       2400       2510       2511       2522       2521  
      2390       2391       2402       2401       2511       2512       2523       2522  
      2391       2392       2403       2402       2512       2513       2524       2523  
      2392       2393       2404       2403       2513       2514       2525       2524  
      2393       2394       2405       2404       2514       2515       2526       2525  
      2394       2395       2406       2405       2515       2516       2527       2526  
      2395       2396       2407       2406       2516       2517       2528       2527  
      2396       2397       2408       2407       2517       2518       2529       2528  
      2397       2398       2409       2408       2518       2519       2530       2529  
      2399       2400       2411       2410       2520       2521       2532       2531  
      2400       2401       2412       2411       2521       2522       2533       2532  
      2401       2402       2413       2412       2522       2523       2534       2533  
      2402       2403       2414       2413       2523       2524       2535       2534  
      2403       2404       2415       2414       2524       2525       2536       2535  
      2404       2405       2416       2415       2525       2526       2537       2536  
      2405       2406       2417       2416       2526       2527       2538       2537  
      2406       2407       2418       2417       2527       2528       2539       2538  
      2407       2408       2419       2418       2528       2529       2540       2539  
      2408       2409       2420       2419       2529       2530       2541       2540  
      2421       2422       2433       2432       2542       2543       2554       2553  
      2422       2423       2434       2433       2543       2544       2555       2554  
      2423       2424       2435       2434       2544       2545       2556       2555  
      2424       2425       2436       2435       2545       2546       2557       2556  
      2425       2426       2437       2436       2546       2547       2558       2557  
      2426       2427       2438       2437       2547       2548       2559       2558  
      2427       2428       2439       2438       2548       2549       2560       2559  
      2428       2429       2440       2439       2549       2550       2561       2560  
      2429       2430       2441       2440       2550       2551       2562       2561  
      2430       2431       2442       2441       2551       2552       2563       2562  
      2432       2433       2444       2443       2553       2554       2565       2564  
      2433       2434       2445       2444       2554       2555       2566       2565  
      2434       2435       2446       2445       2555       2556       2567       2566  
      2435       2436       2447       2446       2556       2557       2568       2567  
      2436       2437       2448       2447       2557       2558       2569       2568  
      2437       2438       2449       2448       2558       2559       2570       2569  
      2438       2439       2450       2449       2559       2560       2571       2570  
      2439       2440       2451       2450       2560       2561       2572       2571  
      2440       2441       2452       2451       2561       2562       2573       2572  
      2441       2442       2453       2452       2562       2563       2574       2573  
      2443       2444       2455       2454       2564       2565       2576       2575  
      2444       2445       2456       2455       2565       2566       2577       2576  
      2445       2446       2457       2456       2566       2567       2578       2577  
      2446       2447       2458       2457       2567       2568       2579       2578  
      2447       2448       2459       2458       2568       2569       2580       2579  
      2448       2449       2460       2459       2569       2570       2581       2580  
      2449       2450       2461       2460       2570       2571       2582       2581  
      2450       2451       2462       2461       2571       2572       2583       2582  
      2451       2452       2463       2462       2572       2573       2584       2583  
      2452       2453       2464       2463       2573       2574       2585       2584  
      2454       2455       2466       2465       2575       2576       2587       2586  
      2455       2456       2467       2466       2576       2577       2588       2587  
      2456       2457       2468       2467       2577       2578       2589       2588  
      2457       2458       2469       2468       2578       2579       2590       2589  
      2458       2459       2470       2469       2579       2580       2591       2590  
      2459       2460       2471       2470       2580       2581       2592       2591  
      2460       2461       2472       2471       2581       2582       2593       2592  
      2461       2462       2473       2472       2582       2583       2594       2593  
      2462       2463       2474       2473       2583       2584       2595       2594  
      2463       2464       2475       2474       2584       2585       2596       2595  
      2465       2466       2477       2476       2586       2587       2598       2597  
      2466       2467       2478       2477       2587       2588       2599       2598  
      2467       2468       2479       2478       2588       2589       2600       2599  
      2468       2469       2480       2479       2589       2590       2601       2600  
      2469       2470       2481       2480       2590       2591       2602       2601  
      2470       2471       2482       2481       2591       2592       2603       2602  
      2471       2472       2483       2482       2592       2593       2604       2603  
      2472       2473       2484       2483       2593       2594       2605       2604  
      2473       2474       2485       2484       2594       2595       2606       2605  
      2474       2475       2486       2485       2595       2596       2607       2606  
      2476       2477       2488       2487       2597       2598       2609       2608  
      2477       2478       2489       2488       2598       2599       2610       2609  
      2478       2479       2490       2489       2599       2600       2611       2610  
      2479       2480       2491       2490       2600       2601       2612       2611  
      2480       2481       2492       2491       2601       2602       2613       2612  
      2481       2482       2493       2492       2602       2603       2614       2613  
      2482       2483       2494       2493       2603       2604       2615       2614  
      2483       2484       2495       2494       2604       2605       2616       2615  
      2484       2485       2496       2495       2605       2606       2617       2616  
      2485       2486       2497       2496       2606       2607       2618       2617  
      2487       2488       2499       2498       2608       2609       2620       2619  
      2488       2489       2500       2499       2609       2610       2621       2620  
      2489       2490       2501       2500       2610       2611       2622       2621  
      2490       2491       2502       2501       2611       2612       2623       2622  
      2491       2492       2503       2502       2612       2613       2624       2623  
      2492       2493       2504       2503       2613       2614       2625       2624  
      2493       2494       2505       2504       2614       2615       2626       2625  
      2494       2495       2506       2505       2615       2616       2627       2626  
      2495       2496       2507       2506       2616       2617       2628       2627  
      2496       2497       2508       2507       2617       2618       2629       2628  
      2498       2499       2510       2509       2619       2620       2631       2630  
      2499       2500       2511       2510       2620       2621       2632       2631  
      2500       2501       2512       2511       2621       2622       2633       2632  
      2501       2502       2513       2512       2622       2623       2634       2633  
      2502       2503       2514       2513       2623       2624       2635       2634  
      2503       2504       2515       2514       2624       2625       2636       2635  
      2504       2505       2516       2515       2625       2626       2637       2636  
      2505       2506       2517       2516       2626       2627       2638       2637  
      2506       2507       2518       2517       2627       2628       2639       2638  
      2507       2508       2519       2518       2628       2629       2640       2639  
      2509       2510       2521       2520       2630       2631       2642       2641  
      2510       2511       2522       2521       2631       2632       2643       2642  
      2511       2512       2523       2522       2632       2633       2644       2643  
      2512       2513       2524       2523       2633       2634       2645       2644  
      2513       2514       2525       2524       2634       2635       2646       2645  
      2514       2515       2526       2525       2635       2636       2647       2646  
      2515       2516       2527       2526       2636       2637       2648       2647  
      2516       2517       2528       2527       2637       2638       2649       2648  
      2517       2518       2529       2528       2638       2639       2650       2649  
      2518       2519       2530       2529       2639       2640       2651       2650  
      2520       2521       2532       2531       2641       2642       2653       2652  
      2521       2522       2533       2532       2642       2643       2654       2653  
      2522       2523       2534       2533       2643       2644       2655       2654  
      2523       2524       2535       2534       2644       2645       2656       2655  
      2524       2525       2536       2535       2645       2646       2657       2656  
      2525       2526       2537       2536       2646       2647       2658       2657  
      2526       2527       2538       2537       2647       2648       2659       2658  
      2527       2528       2539       2538       2648       2649       2660       2659  
      2528       2529       2540       2539       2649       2650       2661       2660  
      2529       2530       2541       2540       2650       2651       2662       2661  
      2542       2543       2554       2553       2663       2664       2675       2674  
      2543       2544       2555       2554       2664       2665       2676       2675  
      2544       2545       2556       2555       2665       2666       2677       2676  
      2545       2546       2557       2556       2666       2667       2678       2677  
      2546       2547       2558       2557       2667       2668       2679       2678  
      2547       2548       2559       2558       2668       2669       2680       2679  
      2548       2549       2560       2559       2669       2670       2681       2680  
      2549       2550       2561       2560       2670       2671       2682       2681  
      2550       2551       2562       2561       2671       2672       2683       2682  
      2551       2552       2563       2562       2672       2673       2684       2683  
      2553       2554       2565       2564       2674       2675       2686       2685  
      2554       2555       2566       2565       2675       2676       2687       2686  
      2555       2556       2567       2566       2676       2677       2688       2687  
      2556       2557       2568       2567       2677       2678       2689       2688  
      2557       2558       2569       2568       2678       2679       2690       2689  
      2558       2559       2570       2569       2679       2680       2691       2690  
      2559       2560       2571       2570       2680       2681       2692       2691  
      2560       2561       2572       2571       2681       2682       2693       2692  
      2561       2562       2573       2572       2682       2683       2694       2693  
      2562       2563       2574       2573       2683       2684       2695       2694  
      2564       2565       2576       2575       2685       2686       2697       2696  
      2565       2566       2577       2576       2686       2687       2698       2697  
      2566       2567       2578       2577       2687       2688       2699       2698  
      2567       2568       2579       2578       2688       2689       2700       2699  
      2568       2569       2580       2579       2689       2690       2701       2700  
      2569       2570       2581       2580       2690       2691       2702       2701  
      2570       2571       2582       2581       2691       2692       2703       2702  
      2571       2572       2583       2582       2692       2693       2704       2703  
      2572       2573       2584       2583       2693       2694       2705       2704  
      2573       2574       2585       2584       2694       2695       2706       2705  
      2575       2576       2587       2586       2696       2697       2708       2707  
      2576       2577       2588       2587       2697       2698       2709       2708  
      2577       2578       2589       2588       2698       2699       2710       2709  
      2578       2579       2590       2589       2699       2700       2711       2710  
      2579       2580       2591       2590       2700       2701       2712       2711  
      2580       2581       2592       2591       2701       2702       2713       2712  
      2581       2582       2593       2592       2702       2703       2714       2713  
      2582       2583       2594       2593       2703       2704       2715       2714  
      2583       2584       2595       2594       2704       2705       2716       2715  
      2584       2585       2596       2595       2705       2706       2717       2716  
      2586       2587       2598       2597       2707       2708       2719       2718  
      2587       2588       2599       2598       2708       2709       2720       2719  
      2588       2589       2600       2599       2709       2710       2721       2720  
      2589       2590       2601       2600       2710       2711       2722       2721  
      2590       2591       2602       2601       2711       2712       2723       2722  
      2591       2592       2603       2602       2712       2713       2724       2723  
      2592       2593       2604       2603       2713       2714       2725       2724  
      2593       2594       2605       2604       2714       2715       2726       2725  
      2594       2595       2606       2605       2715       2716       2727       2726  
      2595       2596       2607       2606       2716       2717       2728       2727  
      2597       2598       2609       2608       2718       2719       2730       2729  
      2598       2599       2610       2609       2719       2720       2731       2730  
      2599       2600       2611       2610       2720       2721       2732       2731  
      2600       2601       2612       2611       2721       2722       2733       2732  
      2601       2602       2613       2612       2722       2723       2734       2733  
      2602       2603       2614       2613       2723       2724       2735       2734  
      2603       2604       2615       2614       2724       2725       2736       2735  
      2604       2605       2616       2615       2725       2726       2737       2736  
      2605       2606       2617       2616       2726       2727       2738       2737  
      2606       2607       2618       2617       2727       2728       2739       2738  
      2608       2609       2620       2619       2729       2730       2741       2740  
      2609       2610       2621       2620       2730       2731       2742       2741  
      2610       2611       2622       2621       2731       2732       2743       2742  
      2611       2612       2623       2622       2732       2733       2744       2743  
      2612       2613       2624       2623       2733       2734       2745       2744  
      2613       2614       2625       2624       2734       2735       2746       2745  
      2614       2615       2626       2625       2735       2736       2747       2746  
      2615       2616       2627       2626       2736       2737       2748       2747  
      2616       2617       2628       2627       2737       2738       2749       2748  
      2617       2618       2629       2628       2738       2739       2750       2749  
      2619       2620       2631       2630       2740       2741       2752       2751  
      2620       2621       2632       2631       2741       2742       2753       2752  
      2621       2622       2633       2632       2742       2743       2754       2753  
      2622       2623       2634       2633       2743       2744       2755       2754  
      2623       2624       2635       2634       2744       2745       2756       2755  
      2624       2625       2636       2635       2745       2746       2757       2756  
      2625       2626       2637       2636       2746       2747       2758       2757  
      2626       2627       2638       2637       2747       2748       2759       2758  
      2627       2628       2639       2638       2748       2749       2760       2759  
      2628       2629       2640       2639       2749       2750       2761       2760  
      2630       2631       2642       2641       2751       2752       2763       2762  
      2631       2632       2643       2642       2752       2753       2764       2763  
      2632       2633       2644       2643       2753       2754       2765       2764  
      2633       2634       2645       2644       2754       2755       2766       2765  
      2634       2635       2646       2645       2755       2756       2767       2766  
      2635       2636       2647       2646       2756       2757       2768       2767  
      2636       2637       2648       2647       2757       2758       2769       2768  
      2637       2638       2649       2648       2758       2759       2770       2769  
      2638       2639       2650       2649       2759       2760       2771       2770  
      2639       2640       2651       2650       2760       2761       2772       2771  
      2641       2642       2653       2652       2762       2763       2774       2773  
      2642       2643       2654       2653       2763       2764       2775       2774  
      2643       2644       2655       2654       2764       2765       2776       2775  
      2644       2645       2656       2655       2765       2766       2777       2776  
      2645       2646       2657       2656       2766       2767       2778       2777  
      2646       2647       2658       2657       2767       2768       2779       2778  
      2647       2648       2659       2658       2768       2769       2780       2779  
      2648       2649       2660       2659       2769       2770       2781       2780  
      2649       2650       2661       2660       2770       2771       2782       2781  
      2650       2651       2662       2661       2771       2772       2783       2782  
      2663       2664       2675       2674       2784       2785       2796       2795  
      2664       2665       2676       2675       2785       2786       2797       2796  
      2665       2666       2677       2676       2786       2787       2798       2797  
      2666       2667       2678       2677       2787       2788       2799       2798  
      2667       2668       2679       2678       2788       2789       2800       2799  
      2668       2669       2680       2679       2789       2790       2801       2800  
      2669       2670       2681       2680       2790       2791       2802       2801  
      2670       2671       2682       2681       2791       2792       2803       2802  
      2671       2672       2683       2682       2792       2793       2804       2803  
      2672       2673       2684       2683       2793       2794       2805       2804  
      2674       2675       2686       2685       2795       2796       2807       2806  
      2675       2676       2687       2686       2796       2797       2808       2807  
      2676       2677       2688       2687       2797       2798       2809       2808  
      2677       2678       2689       2688       2798       2799       2810       2809  
      2678       2679       2690       2689       2799       2800       2811       2810  
      2679       2680       2691       2690       2800       2801       2812       2811  
      2680       2681       2692       2691       2801       2802       2813       2812  
      2681       2682       2693       2692       2802       2803       2814       2813  
      2682       2683       2694       2693       2803       2804       2815       2814  
      2683       2684       2695       2694       2804       2805       2816       2815  
      2685       2686       2697       2696       2806       2807       2818       2817  
      2686       2687       2698       2697       2807       2808       2819       2818  
      2687       2688       2699       2698       2808       2809       2820       2819  
      2688       2689       2700       2699       2809       2810       2821       2820  
      2689       2690       2701       2700       2810       2811       2822       2821  
      2690       2691       2702       2701       2811       2812       2823       2822  
      2691       2692       2703       2702       2812       2813       2824       2823  
      2692       2693       2704       2703       2813       2814       2825       2824  
      2693       2694       2705       2704       2814       2815       2826       2825  
      2694       2695       2706       2705       2815       2816       2827       2826  
      2696       2697       2708       2707       2817       2818       2829       2828  
      2697       2698       2709       2708       2818       2819       2830       2829  
      2698       2699       2710       2709       2819       2820       2831       2830  
      2699       2700       2711       2710       2820       2821       2832       2831  
      2700       2701       2712       2711       2821       2822       2833       2832  
      2701       2702       2713       2712       2822       2823       2834       2833  
      2702       2703       2714       2713       2823       2824       2835       2834  
      2703       2704       2715       2714       2824       2825       2836       2835  
      2704       2705       2716       2715       2825       2826       2837       2836  
      2705       2706       2717       2716       2826       2827       2838       2837  
      2707       2708       2719       2718       2828       2829       2840       2839  
      2708       2709       2720       2719       2829       2830       2841       2840  
      2709       2710       2721       2720       2830       2831       2842       2841  
      2710       2711       2722       2721       2831       2832       2843       2842  
      2711       2712       2723       2722       2832       2833       2844       2843  
      2712       2713       2724       2723       2833       2834       2845       2844  
      2713       2714       2725       2724       2834       2835       2846       2845  
      2714       2715       2726       2725       2835       2836       2847       2846  
      2715       2716       2727       2726       2836       2837       2848       2847  
      2716       2717       2728       2727       2837       2838       2849       2848  
      2718       2719       2730       2729       2839       2840       2851       2850  
      2719       2720       2731       2730       2840       2841       2852       2851  
      2720       2721       2732       2731       2841       2842       2853       2852  
      2721       2722       2733       2732       2842       2843       2854       2853  
      2722       2723       2734       2733       2843       2844       2855       2854  
      2723       2724       2735       2734       2844       2845       2856       2855  
      2724       2725       2736       2735       2845       2846       2857       2856  
      2725       2726       2737       2736       2846       2847       2858       2857  
      2726       2727       2738       2737       2847       2848       2859       2858  
      2727       2728       2739       2738       2848       2849       2860       2859  
      2729       2730       2741       2740       2850       2851       2862       2861  
      2730       2731       2742       2741       2851       2852       2863       2862  
      2731       2732       2743       2742       2852       2853       2864       2863  
      2732       2733       2744       2743       2853       2854       2865       2864  
      2733       2734       2745       2744       2854       2855       2866       2865  
      2734       2735       2746       2745       2855       2856       2867       2866  
      2735       2736       2747       2746       2856       2857       2868       2867  
      2736       2737       2748       2747       2857       2858       2869       2868  
      2737       2738       2749       2748       2858       2859       2870       2869  
      2738       2739       2750       2749       2859       2860       2871       2870  
      2740       2741       2752       2751       2861       2862       2873       2872  
      2741       2742       2753       2752       2862       2863       2874       2873  
      2742       2743       2754       2753       2863       2864       2875       2874  
      2743       2744       2755       2754       2864       2865       2876       2875  
      2744       2745       2756       2755       2865       2866       2877       2876  
      2745       2746       2757       2756       2866       2867       2878       2877  
      2746       2747       2758       2757       2867       2868       2879       2878  
      2747       2748       2759       2758       2868       2869       2880       2879  
      2748       2749       2760       2759       2869       2870       2881       2880  
      2749       2750       2761       2760       2870       2871       2882       2881  
      2751       2752       2763       2762       2872       2873       2884       2883  
      2752       2753       2764       2763       2873       2874       2885       2884  
      2753       2754       2765       2764       2874       2875       2886       2885  
      2754       2755       2766       2765       2875       2876       2887       2886  
      2755       2756       2767       2766       2876       2877       2888       2887  
      2756       2757       2768       2767       2877       2878       2889       2888  
      2757       2758       2769       2768       2878       2879       2890       2889  
      2758       2759       2770       2769       2879       2880       2891       2890  
      2759       2760       2771       2770       2880       2881       2892       2891  
      2760       2761       2772       2771       2881       2882       2893       2892  
      2762       2763       2774       2773       2883       2884       2895       2894  
      2763       2764       2775       2774       2884       2885       2896       2895  
      2764       2765       2776       2775       2885       2886       2897       2896  
      2765       2766       2777       2776       2886       2887       2898       2897  
      2766       2767       2778       2777       2887       2888       2899       2898  
      2767       2768       2779       2778       2888       2889       2900       2899  
      2768       2769       2780       2779       2889       2890       2901       2900  
      2769       2770       2781       2780       2890       2891       2902       2901  
      2770       2771       2782       2781       2891       2892       2903       2902  
      2771       2772       2783       2782       2892       2893       2904       2903  
      2784       2785       2796       2795       2905       2906       2917       2916  
      2785       2786       2797       2796       2906       2907       2918       2917  
      2786       2787       2798       2797       2907       2908       2919       2918  
      2787       2788       2799       2798       2908       2909       2920       2919  
      2788       2789       2800       2799       2909       2910       2921       2920  
      2789       2790       2801       2800       2910       2911       2922       2921  
      2790       2791       2802       2801       2911       2912       2923       2922  
      2791       2792       2803       2802       2912       2913       2924       2923  
      2792       2793       2804       2803       2913       2914       2925       2924  
      2793       2794       2805       2804       2914       2915       2926       2925  
      2795       2796       2807       2806       2916       2917       2928       2927  
      2796       2797       2808       2807       2917       2918       2929       2928  
      2797       2798       2809       2808       2918       2919       2930       2929  
      2798       2799       2810       2809       2919       2920       2931       2930  
      2799       2800       2811       2810       2920       2921       2932       2931  
      2800       2801       2812       2811       2921       2922       2933       2932  
      2801       2802       2813       2812       2922       2923       2934       2933  
      2802       2803       2814       2813       2923       2924       2935       2934  
      2803       2804       2815       2814       2924       2925       2936       2935  
      2804       2805       2816       2815       2925       2926       2937       2936  
      2806       2807       2818       2817       2927       2928       2939       2938  
      2807       2808       2819       2818       2928       2929       2940       2939  
      2808       2809       2820       2819       2929       2930       2941       2940  
      2809       2810       2821       2820       2930       2931       2942       2941  
      2810       2811       2822       2821       2931       2932       2943       2942  
      2811       2812       2823       2822       2932       2933       2944       2943  
      2812       2813       2824       2823       2933       2934       2945       2944  
      2813       2814       2825       2824       2934       2935       2946       2945  
      2814       2815       2826       2825       2935       2936       2947       2946  
      2815       2816       2827       2826       2936       2937       2948       2947  
      2817       2818       2829       2828       2938       2939       2950       2949  
      2818       2819       2830       2829       2939       2940       2951       2950  
      2819       2820       2831       2830       2940       2941       2952       2951  
      2820       2821       2832       2831       2941       2942       2953       2952  
      2821       2822       2833       2832       2942       2943       2954       2953  
      2822       2823       2834       2833       2943       2944       2955       2954  
      2823       2824       2835       2834       2944       2945       2956       2955  
      2824       2825       2836       2835       2945       2946       2957       2956  
      2825       2826       2837       2836       2946       2947       2958       2957  
      2826       2827       2838       2837       2947       2948       2959       2958  
      2828       2829       2840       2839       2949       2950       2961       2960  
      2829       2830       2841       2840       2950       2951       2962       2961  
      2830       2831       2842       2841       2951       2952       2963       2962  
      2831       2832       2843       2842       2952       2953       2964       2963  
      2832       2833       2844       2843       2953       2954       2965       2964  
      2833       2834       2845       2844       2954       2955       2966       2965  
      2834       2835       2846       2845       2955       2956       2967       2966  
      2835       2836       2847       2846       2956       2957       2968       2967  
      2836       2837       2848       2847       2957       2958       2969       2968  
      2837       2838       2849       2848       2958       2959       2970       2969  
      2839       2840       2851       2850       2960       2961       2972       2971  
      2840       2841       2852       2851       2961       2962       2973       2972  
      2841       2842       2853       2852       2962       2963       2974       2973  
      2842       2843       2854       2853       2963       2964       2975       2974  
      2843       2844       2855       2854       2964       2965       2976       2975  
      2844       2845       2856       2855       2965       2966       2977       2976  
      2845       2846       2857       2856       2966       2967       2978       2977  
      2846       2847       2858       2857       2967       2968       2979       2978  
      2847       2848       2859       2858       2968       2969       2980       2979  
      2848       2849       2860       2859       2969       2970       2981       2980  
      2850       2851       2862       2861       2971       2972       2983       2982  
      2851       2852       2863       2862       2972       2973       2984       2983  
      2852       2853       2864       2863       2973       2974       2985       2984  
      2853       2854       2865       2864       2974       2975       2986       2985  
      2854       2855       2866       2865       2975       2976       2987       2986  
      2855       2856       2867       2866       2976       2977       2988       2987  
      2856       2857       2868       2867       2977       2978       2989       2988  
      2857       2858       2869       2868       2978       2979       2990       2989  
      2858       2859       2870       2869       2979       2980       2991       2990  
      2859       2860       2871       2870       2980       2981       2992       2991  
      2861       2862       2873       2872       2982       2983       2994       2993  
      2862       2863       2874       2873       2983       2984       2995       2994  
      2863       2864       2875       2874       2984       2985       2996       2995  
      2864       2865       2876       2875       2985       2986       2997       2996  
      2865       2866       2877       2876       2986       2987       2998       2997  
      2866       2867       2878       2877       2987       2988       2999       2998  
      2867       2868       2879       2878       2988       2989       3000       2999  
      2868       2869       2880       2879       2989       2990       3001       3000  
      2869       2870       2881       2880       2990       2991       3002       3001  
      2870       2871       2882       2881       2991       2992       3003       3002  
      2872       2873       2884       2883       2993       2994       3005       3004  
      2873       2874       2885       2884       2994       2995       3006       3005  
      2874       2875       2886       2885       2995       2996       3007       3006  
      2875       2876       2887       2886       2996       2997       3008       3007  
      2876       2877       2888       2887       2997       2998       3009       3008  
      2877       2878       2889       2888       2998       2999       3010       3009  
      2878       2879       2890       2889       2999       3000       3011       3010  
      2879       2880       2891       2890       3000       3001       3012       3011  
      2880       2881       2892       2891       3001       3002       3013       3012  
      2881       2882       2893       2892       3002       3003       3014       3013  
      2883       2884       2895       2894       3004       3005       3016       3015  
      2884       2885       2896       2895       3005       3006       3017       3016  
      2885       2886       2897       2896       3006       3007       3018       3017  
      2886       2887       2898       2897       3007       3008       3019       3018  
      2887       2888       2899       2898       3008       3009       3020       3019  
      2888       2889       2900       2899       3009       3010       3021       3020  
      2889       2890       2901       2900       3010       3011       3022       3021  
      2890       2891       2902       2901       3011       3012       3023       3022  
      2891       2892       2903       2902       3012       3013       3024       3023  
      2892       2893       2904       2903       3013       3014       3025       3024  
      2905       2906       2917       2916       3026       3027       3038       3037  
      2906       2907       2918       2917       3027       3028       3039       3038  
      2907       2908       2919       2918       3028       3029       3040       3039  
      2908       2909       2920       2919       3029       3030       3041       3040  
      2909       2910       2921       2920       3030       3031       3042       3041  
      2910       2911       2922       2921       3031       3032       3043       3042  
      2911       2912       2923       2922       3032       3033       3044       3043  
      2912       2913       2924       2923       3033       3034       3045       3044  
      2913       2914       2925       2924       3034       3035       3046       3045  
      2914       2915       2926       2925       3035       3036       3047       3046  
      2916       2917       2928       2927       3037       3038       3049       3048  
      2917       2918       2929       2928       3038       3039       3050       3049  
      2918       2919       2930       2929       3039       3040       3051       3050  
      2919       2920       2931       2930       3040       3041       3052       3051  
      2920       2921       2932       2931       3041       3042       3053       3052  
      2921       2922       2933       2932       3042       3043       3054       3053  
      2922       2923       2934       2933       3043       3044       3055       3054  
      2923       2924       2935       2934       3044       3045       3056       3055  
      2924       2925       2936       2935       3045       3046       3057       3056  
      2925       2926       2937       2936       3046       3047       3058       3057  
      2927       2928       2939       2938       3048       3049       3060       3059  
      2928       2929       2940       2939       3049       3050       3061       3060  
      2929       2930       2941       2940       3050       3051       3062       3061  
      2930       2931       2942       2941       3051       3052       3063       3062  
      2931       2932       2943       2942       3052       3053       3064       3063  
      2932       2933       2944       2943       3053       3054       3065       3064  
      2933       2934       2945       2944       3054       3055       3066       3065  
      2934       2935       2946       2945       3055       3056       3067       3066  
      2935       2936       2947       2946       3056       3057       3068       3067  
      2936       2937       2948       2947       3057       3058       3069       3068  
      2938       2939       2950       2949       3059       3060       3071       3070  
      2939       2940       2951       2950       3060       3061       3072       3071  
      2940       2941       2952       2951       3061       3062       3073       3072  
      2941       2942       2953       2952       3062       3063       3074       3073  
      2942       2943       2954       2953       3063       3064       3075       3074  
      2943       2944       2955       2954       3064       3065       3076       3075  
      2944       2945       2956       2955       3065       3066       3077       3076  
      2945       2946       2957       2956       3066       3067       3078       3077  
      2946       2947       2958       2957       3067       3068       3079       3078  
      2947       2948       2959       2958       3068       3069       3080       3079  
      2949       2950       2961       2960       3070       3071       3082       3081  
      2950       2951       2962       2961       3071       3072       3083       3082  
      2951       2952       2963       2962       3072       3073       3084       3083  
      2952       2953       2964       2963       3073       3074       3085       3084  
      2953       2954       2965       2964       3074       3075       3086       3085  
      2954       2955       2966       2965       3075       3076       3087       3086  
      2955       2956       2967       2966       3076       3077       3088       3087  
      2956       2957       2968       2967       3077       3078       3089       3088  
      2957       2958       2969       2968       3078       3079       3090       3089  
      2958       2959       2970       2969       3079       3080       3091       3090  
      2960       2961       2972       2971       3081       3082       3093       3092  
      2961       2962       2973       2972       3082       3083       3094       3093  
      2962       2963       2974       2973       3083       3084       3095       3094  
      2963       2964       2975       2974       3084       3085       3096       3095  
      2964       2965       2976       2975       3085       3086       3097       3096  
      2965       2966       2977       2976       3086       3087       3098       3097  
      2966       2967       2978       2977       3087       3088       3099       3098  
      2967       2968       2979       2978       3088       3089       3100       3099  
      2968       2969       2980       2979       3089       3090       3101       3100  
      2969       2970       2981       2980       3090       3091       3102       3101  
      2971       2972       2983       2982       3092       3093       3104       3103  
      2972       2973       2984       2983       3093       3094       3105       3104  
      2973       2974       2985       2984       3094       3095       3106       3105  
      2974       2975       2986       2985       3095       3096       3107       3106  
      2975       2976       2987       2986       3096       3097       3108       3107  
      2976       2977       2988       2987       3097       3098       3109       3108  
      2977       2978       2989       2988       3098       3099       3110       3109  
      2978       2979       2990       2989       3099       3100       3111       3110  
      2979       2980       2991       2990       3100       3101       3112       3111  
      2980       2981       2992       2991       3101       3102       3113       3112  
      2982       2983       2994       2993       3103       3104       3115       3114  
      2983       2984       2995       2994       3104       3105       3116       3115  
      2984       2985       2996       2995       3105       3106       3117       3116  
      2985       2986       2997       2996       3106       3107       3118       3117  
      2986       2987       2998       2997       3107       3108       3119       3118  
      2987       2988       2999       2998       3108       3109       3120       3119  
      2988       2989       3000       2999       3109       3110       3121       3120  
      2989       2990       3001       3000       3110       3111       3122       3121  
      2990       2991       3002       3001       3111       3112       3123       3122  
      2991       2992       3003       3002       3112       3113       3124       3123  
      2993       2994       3005       3004       3114       3115       3126       3125  
      2994       2995       3006       3005       3115       3116       3127       3126  
      2995       2996       3007       3006       3116       3117       3128       3127  
      2996       2997       3008       3007       3117       3118       3129       3128  
      2997       2998       3009       3008       3118       3119       3130       3129  
      2998       2999       3010       3009       3119       3120       3131       3130  
      2999       3000       3011       3010       3120       3121       3132       3131  
      3000       3001       3012       3011       3121       3122       3133       3132  
      3001       3002       3013       3012       3122       3123       3134       3133  
      3002       3003       3014       3013       3123       3124       3135       3134  
      3004       3005       3016       3015       3125       3126       3137       3136  
      3005       3006       3017       3016       3126       3127       3138       3137  
      3006       3007       3018       3017       3127       3128       3139       3138  
      3007       3008       3019       3018       3128       3129       3140       3139  
      3008       3009       3020       3019       3129       3130       3141       3140  
      3009       3010       3021       3020       3130       3131       3142       3141  
      3010       3011       3022       3021       3131       3132       3143       3142  
      3011       3012       3023       3022       3132       3133       3144       3143  
      3012       3013       3024       3023       3133       3134       3145       3144  
      3013       3014       3025       3024       3134       3135       3146       3145  
      3026       3027       3038       3037       3147       3148       3159       3158  
      3027       3028       3039       3038       3148       3149       3160       3159  
      3028       3029       3040       3039       3149       3150       3161       3160  
      3029       3030       3041       3040       3150       3151       3162       3161  
      3030       3031       3042       3041       3151       3152       3163       3162  
      3031       3032       3043       3042       3152       3153       3164       3163  
      3032       3033       3044       3043       3153       3154       3165       3164  
      3033       3034       3045       3044       3154       3155       3166       3165  
      3034       3035       3046       3045       3155       3156       3167       3166  
      3035       3036       3047       3046       3156       3157       3168       3167  
      3037       3038       3049       3048       3158       3159       3170       3169  
      3038       3039       3050       3049       3159       3160       3171       3170  
      3039       3040       3051       3050       3160       3161       3172       3171  
      3040       3041       3052       3051       3161       3162       3173       3172  
      3041       3042       3053       3052       3162       3163       3174       3173  
      3042       3043       3054       3053       3163       3164       3175       3174  
      3043       3044       3055       3054       3164       3165       3176       3175  
      3044       3045       3056       3055       3165       3166       3177       3176  
      3045       3046       3057       3056       3166       3167       3178       3177  
      3046       3047       3058       3057       3167       3168       3179       3178  
      3048       3049       3060       3059       3169       3170       3181       3180  
      3049       3050       3061       3060       3170       3171       3182       3181  
      3050       3051       3062       3061       3171       3172       3183       3182  
      3051       3052       3063       3062       3172       3173       3184       3183  
      3052       3053       3064       3063       3173       3174       3185       3184  
      3053       3054       3065       3064       3174       3175       3186       3185  
      3054       3055       3066       3065       3175       3176       3187       3186  
      3055       3056       3067       3066       3176       3177       3188       3187  
      3056       3057       3068       3067       3177       3178       3189       3188  
      3057       3058       3069       3068       3178       3179       3190       3189  
      3059       3060       3071       3070       3180       3181       3192       3191  
      3060       3061       3072       3071       3181       3182       3193       3192  
      3061       3062       3073       3072       3182       3183       3194       3193  
      3062       3063       3074       3073       3183       3184       3195       3194  
      3063       3064       3075       3074       3184       3185       3196       3195  
      3064       3065       3076       3075       3185       3186       3197       3196  
      3065       3066       3077       3076       3186       3187       3198       3197  
      3066       3067       3078       3077       3187       3188       3199       3198  
      3067       3068       3079       3078       3188       3189       3200       3199  
      3068       3069       3080       3079       3189       3190       3201       3200  
      3070       3071       3082       3081       3191       3192       3203       3202  
      3071       3072       3083       3082       3192       3193       3204       3203  
      3072       3073       3084       3083       3193       3194       3205       3204  
      3073       3074       3085       3084       3194       3195       3206       3205  
      3074       3075       3086       3085       3195       3196       3207       3206  
      3075       3076       3087       3086       3196       3197       3208       3207  
      3076       3077       3088       3087       3197       3198       3209       3208  
      3077       3078       3089       3088       3198       3199       3210       3209  
      3078       3079       3090       3089       3199       3200       3211       3210  
      3079       3080       3091       3090       3200       3201       3212       3211  
      3081       3082       3093       3092       3202       3203       3214       3213  
      3082       3083       3094       3093       3203       3204       3215       3214  
      3083       3084       3095       3094       3204       3205       3216       3215  
      3084       3085       3096       3095       3205       3206       3217       3216  
      3085       3086       3097       3096       3206       3207       3218       3217  
      3086       3087       3098       3097       3207       3208       3219       3218  
      3087       3088       3099       3098       3208       3209       3220       3219  
      3088       3089       3100       3099       3209       3210       3221       3220  
      3089       3090       3101       3100       3210       3211       3222       3221  
      3090       3091       3102       3101       3211       3212       3223       3222  
      3092       3093       3104       3103       3213       3214       3225       3224  
      3093       3094       3105       3104       3214       3215       3226       3225  
      3094       3095       3106       3105       3215       3216       3227       3226  
      3095       3096       3107       3106       3216       3217       3228       3227  
      3096       3097       3108       3107       3217       3218       3229       3228  
      3097       3098       3109       3108       3218       3219       3230       3229  
      3098       3099       3110       3109       3219       3220       3231       3230  
      3099       3100       3111       3110       3220       3221       3232       3231  
      3100       3101       3112       3111       3221       3222       3233       3232  
      3101       3102       3113       3112       3222       3223       3234       3233  
      3103       3104       3115       3114       3224       3225       3236       3235  
      3104       3105       3116       3115       3225       3226       3237       3236  
      3105       3106       3117       3116       3226       3227       3238       3237  
      3106       3107       3118       3117       3227       3228       3239       3238  
      3107       3108       3119       3118       3228       3229       3240       3239  
      3108       3109       3120       3119       3229       3230       3241       3240  
      3109       3110       3121       3120       3230       3231       3242       3241  
      3110       3111       3122       3121       3231       3232       3243       3242  
      3111       3112       3123       3122       3232       3233       3244       3243  
      3112       3113       3124       3123       3233       3234       3245       3244  
      3114       3115       3126       3125       3235       3236       3247       3246  
      3115       3116       3127       3126       3236       3237       3248       3247  
      3116       3117       3128       3127       3237       3238       3249       3248  
      3117       3118       3129       3128       3238       3239       3250       3249  
      3118       3119       3130       3129       3239       3240       3251       3250  
      3119       3120       3131       3130       3240       3241       3252       3251  
      3120       3121       3132       3131       3241       3242       3253       3252  
      3121       3122       3133       3132       3242       3243       3254       3253  
      3122       3123       3134       3133       3243       3244       3255       3254  
      3123       3124       3135       3134       3244       3245       3256       3255  
      3125       3126       3137       3136       3246       3247       3258       3257  
      3126       3127       3138       3137       3247       3248       3259       3258  
      3127       3128       3139       3138       3248       3249       3260       3259  
      3128       3129       3140       3139       3249       3250       3261       3260  
      3129       3130       3141       3140       3250       3251       3262       3261  
      3130       3131       3142       3141       3251       3252       3263       3262  
      3131       3132       3143       3142       3252       3253       3264       3263  
      3132       3133       3144       3143       3253       3254       3265       3264  
      3133       3134       3145       3144       3254       3255       3266       3265  
      3134       3135       3146       3145       3255       3256       3267       3266  
      3147       3148       3159       3158       3268       3269       3280       3279  
      3148       3149       3160       3159       3269       3270       3281       3280  
      3149       3150       3161       3160       3270       3271       3282       3281  
      3150       3151       3162       3161       3271       3272       3283       3282  
      3151       3152       3163       3162       3272       3273       3284       3283  
      3152       3153       3164       3163       3273       3274       3285       3284  
      3153       3154       3165       3164       3274       3275       3286       3285  
      3154       3155       3166       3165       3275       3276       3287       3286  
      3155       3156       3167       3166       3276       3277       3288       3287  
      3156       3157       3168       3167       3277       3278       3289       3288  
      3158       3159       3170       3169       3279       3280       3291       3290  
      3159       3160       3171       3170       3280       3281       3292       3291  
      3160       3161       3172       3171       3281       3282       3293       3292  
      3161       3162       3173       3172       3282       3283       3294       3293  
      3162       3163       3174       3173       3283       3284       3295       3294  
      3163       3164       3175       3174       3284       3285       3296       3295  
      3164       3165       3176       3175       3285       3286       3297       3296  
      3165       3166       3177       3176       3286       3287       3298       3297  
      3166       3167       3178       3177       3287       3288       3299       3298  
      3167       3168       3179       3178       3288       3289       3300       3299  
      3169       3170       3181       3180       3290       3291       3302       3301  
      3170       3171       3182       3181       3291       3292       3303       3302  
      3171       3172       3183       3182       3292       3293       3304       3303  
      3172       3173       3184       3183       3293       3294       3305       3304  
      3173       3174       3185       3184       3294       3295       3306       3305  
      3174       3175       3186       3185       3295       3296       3307       3306  
      3175       3176       3187       3186       3296       3297       3308       3307  
      3176       3177       3188       3187       3297       3298       3309       3308  
      3177       3178       3189       3188       3298       3299       3310       3309  
      3178       3179       3190       3189       3299       3300       3311       3310  
      3180       3181       3192       3191       3301       3302       3313       3312  
      3181       3182       3193       3192       3302       3303       3314       3313  
      3182       3183       3194       3193       3303       3304       3315       3314  
      3183       3184       3195       3194       3304       3305       3316       3315  
      3184       3185       3196       3195       3305       3306       3317       3316  
      3185       3186       3197       3196       3306       3307       3318       3317  
      3186       3187       3198       3197       3307       3308       3319       3318  
      3187       3188       3199       3198       3308       3309       3320       3319  
      3188       3189       3200       3199       3309       3310       3321       3320  
      3189       3190       3201       3200       3310       3311       3322       3321  
      3191       3192       3203       3202       3312       3313       3324       3323  
      3192       3193       3204       3203       3313       3314       3325       3324  
      3193       3194       3205       3204       3314       3315       3326       3325  
      3194       3195       3206       3205       3315       3316       3327       3326  
      3195       3196       3207       3206       3316       3317       3328       3327  
      3196       3197       3208       3207       3317       3318       3329       3328  
      3197       3198       3209       3208       3318       3319       3330       3329  
      3198       3199       3210       3209       3319       3320       3331       3330  
      3199       3200       3211       3210       3320       3321       3332       3331  
      3200       3201       3212       3211       3321       3322       3333       3332  
      3202       3203       3214       3213       3323       3324       3335       3334  
      3203       3204       3215       3214       3324       3325       3336       3335  
      3204       3205       3216       3215       3325       3326       3337       3336  
      3205       3206       3217       3216       3326       3327       3338       3337  
      3206       3207       3218       3217       3327       3328       3339       3338  
      3207       3208       3219       3218       3328       3329       3340       3339  
      3208       3209       3220       3219       3329       3330       3341       3340  
      3209       3210       3221       3220       3330       3331       3342       3341  
      3210       3211       3222       3221       3331       3332       3343       3342  
      3211       3212       3223       3222       3332       3333       3344       3343  
      3213       3214       3225       3224       3334       3335       3346       3345  
      3214       3215       3226       3225       3335       3336       3347       3346  
      3215       3216       3227       3226       3336       3337       3348       3347  
      3216       3217       3228       3227       3337       3338       3349       3348  
      3217       3218       3229       3228       3338       3339       3350       3349  
      3218       3219       3230       3229       3339       3340       3351       3350  
      3219       3220       3231       3230       3340       3341       3352       3351  
      3220       3221       3232       3231       3341       3342       3353       3352  
      3221       3222       3233       3232       3342       3343       3354       3353  
      3222       3223       3234       3233       3343       3344       3355       3354  
      3224       3225       3236       3235       3345       3346       3357       3356  
      3225       3226       3237       3236       3346       3347       3358       3357  
      3226       3227       3238       3237       3347       3348       3359       3358  
      3227       3228       3239       3238       3348       3349       3360       3359  
      3228       3229       3240       3239       3349       3350       3361       3360  
      3229       3230       3241       3240       3350       3351       3362       3361  
      3230       3231       3242       3241       3351       3352       3363       3362  
      3231       3232       3243       3242       3352       3353       3364       3363  
      3232       3233       3244       3243       3353       3354       3365       3364  
      3233       3234       3245       3244       3354       3355       3366       3365  
      3235       3236       3247       3246       3356       3357       3368       3367  
      3236       3237       3248       3247       3357       3358       3369       3368  
      3237       3238       3249       3248       3358       3359       3370       3369  
      3238       3239       3250       3249       3359       3360       3371       3370  
      3239       3240       3251       3250       3360       3361       3372       3371  
      3240       3241       3252       3251       3361       3362       3373       3372  
      3241       3242       3253       3252       3362       3363       3374       3373  
      3242       3243       3254       3253       3363       3364       3375       3374  
      3243       3244       3255       3254       3364       3365       3376       3375  
      3244       3245       3256       3255       3365       3366       3377       3376  
      3246       3247       3258       3257       3367       3368       3379       3378  
      3247       3248       3259       3258       3368       3369       3380       3379  
      3248       3249       3260       3259       3369       3370       3381       3380  
      3249       3250       3261       3260       3370       3371       3382       3381  
      3250       3251       3262       3261       3371       3372       3383       3382  
      3251       3252       3263       3262       3372       3373       3384       3383  
      3252       3253       3264       3263       3373       3374       3385       3384  
      3253       3254       3265       3264       3374       3375       3386       3385  
      3254       3255       3266       3265       3375       3376       3387       3386  
      3255       3256       3267       3266       3376       3377       3388       3387  
      3268       3269       3280       3279       3389       3390       3401       3400  
      3269       3270       3281       3280       3390       3391       3402       3401  
      3270       3271       3282       3281       3391       3392       3403       3402  
      3271       3272       3283       3282       3392       3393       3404       3403  
      3272       3273       3284       3283       3393       3394       3405       3404  
      3273       3274       3285       3284       3394       3395       3406       3405  
      3274       3275       3286       3285       3395       3396       3407       3406  
      3275       3276       3287       3286       3396       3397       3408       3407  
      3276       3277       3288       3287       3397       3398       3409       3408  
      3277       3278       3289       3288       3398       3399       3410       3409  
      3279       3280       3291       3290       3400       3401       3412       3411  
      3280       3281       3292       3291       3401       3402       3413       3412  
      3281       3282       3293       3292       3402       3403       3414       3413  
      3282       3283       3294       3293       3403       3404       3415       3414  
      3283       3284       3295       3294       3404       3405       3416       3415  
      3284       3285       3296       3295       3405       3406       3417       3416  
      3285       3286       3297       3296       3406       3407       3418       3417  
      3286       3287       3298       3297       3407       3408       3419       3418  
      3287       3288       3299       3298       3408       3409       3420       3419  
      3288       3289       3300       3299       3409       3410       3421       3420  
      3290       3291       3302       3301       3411       3412       3423       3422  
      3291       3292       3303       3302       3412       3413       3424       3423  
      3292       3293       3304       3303       3413       3414       3425       3424  
      3293       3294       3305       3304       3414       3415       3426       3425  
      3294       3295       3306       3305       3415       3416       3427       3426  
      3295       3296       3307       3306       3416       3417       3428       3427  
      3296       3297       3308       3307       3417       3418       3429       3428  
      3297       3298       3309       3308       3418       3419       3430       3429  
      3298       3299       3310       3309       3419       3420       3431       3430  
      3299       3300       3311       3310       3420       3421       3432       3431  
      3301       3302       3313       3312       3422       3423       3434       3433  
      3302       3303       3314       3313       3423       3424       3435       3434  
      3303       3304       3315       3314       3424       3425       3436       3435  
      3304       3305       3316       3315       3425       3426       3437       3436  
      3305       3306       3317       3316       3426       3427       3438       3437  
      3306       3307       3318       3317       3427       3428       3439       3438  
      3307       3308       3319       3318       3428       3429       3440       3439  
      3308       3309       3320       3319       3429       3430       3441       3440  
      3309       3310       3321       3320       3430       3431       3442       3441  
      3310       3311       3322       3321       3431       3432       3443       3442  
      3312       3313       3324       3323       3433       3434       3445       3444  
      3313       3314       3325       3324       3434       3435       3446       3445  
      3314       3315       3326       3325       3435       3436       3447       3446  
      3315       3316       3327       3326       3436       3437       3448       3447  
      3316       3317       3328       3327       3437       3438       3449       3448  
      3317       3318       3329       3328       3438       3439       3450       3449  
      3318       3319       3330       3329       3439       3440       3451       3450  
      3319       3320       3331       3330       3440       3441       3452       3451  
      3320       3321       3332       3331       3441       3442       3453       3452  
      3321       3322       3333       3332       3442       3443       3454       3453  
      3323       3324       3335       3334       3444       3445       3456       3455  
      3324       3325       3336       3335       3445       3446       3457       3456  
      3325       3326       3337       3336       3446       3447       3458       3457  
      3326       3327       3338       3337       3447       3448       3459       3458  
      3327       3328       3339       3338       3448       3449       3460       3459  
      3328       3329       3340       3339       3449       3450       3461       3460  
      3329       3330       3341       3340       3450       3451       3462       3461  
      3330       3331       3342       3341       3451       3452       3463       3462  
      3331       3332       3343       3342       3452       3453       3464       3463  
      3332       3333       3344       3343       3453       3454       3465       3464  
      3334       3335       3346       3345       3455       3456       3467       3466  
      3335       3336       3347       3346       3456       3457       3468       3467  
      3336       3337       3348       3347       3457       3458       3469       3468  
      3337       3338       3349       3348       3458       3459       3470       3469  
      3338       3339       3350       3349       3459       3460       3471       3470  
      3339       3340       3351       3350       3460       3461       3472       3471  
      3340       3341       3352       3351       3461       3462       3473       3472  
      3341       3342       3353       3352       3462       3463       3474       3473  
      3342       3343       3354       3353       3463       3464       3475       3474  
      3343       3344       3355       3354       3464       3465       3476       3475  
      3345       3346       3357       3356       3466       3467       3478       3477  
      3346       3347       3358       3357       3467       3468       3479       3478  
      3347       3348       3359       3358       3468       3469       3480       3479  
      3348       3349       3360       3359       3469       3470       3481       3480  
      3349       3350       3361       3360       3470       3471       3482       3481  
      3350       3351       3362       3361       3471       3472       3483       3482  
      3351       3352       3363       3362       3472       3473       3484       3483  
      3352       3353       3364       3363       3473       3474       3485       3484  
      3353       3354       3365       3364       3474       3475       3486       3485  
      3354       3355       3366       3365       3475       3476       3487       3486  
      3356       3357       3368       3367       3477       3478       3489       3488  
      3357       3358       3369       3368       3478       3479       3490       3489  
      3358       3359       3370       3369       3479       3480       3491       3490  
      3359       3360       3371       3370       3480       3481       3492       3491  
      3360       3361       3372       3371       3481       3482       3493       3492  
      3361       3362       3373       3372       3482       3483       3494       3493  
      3362       3363       3374       3373       3483       3484       3495       3494  
      3363       3364       3375       3374       3484       3485       3496       3495  
      3364       3365       3376       3375       3485       3486       3497       3496  
      3365       3366       3377       3376       3486       3487       3498       3497  
      3367       3368       3379       3378       3488       3489       3500       3499  
      3368       3369       3380       3379       3489       3490       3501       3500  
      3369       3370       3381       3380       3490       3491       3502       3501  
      3370       3371       3382       3381       3491       3492       3503       3502  
      3371       3372       3383       3382       3492       3493       3504       3503  
      3372       3373       3384       3383       3493       3494       3505       3504  
      3373       3374       3385       3384       3494       3495       3506       3505  
      3374       3375       3386       3385       3495       3496       3507       3506  
      3375       3376       3387       3386       3496       3497       3508       3507  
      3376       3377       3388       3387       3497       3498       3509       3508  
      3389       3390       3401       3400       3510       3511       3522       3521  
      3390       3391       3402       3401       3511       3512       3523       3522  
      3391       3392       3403       3402       3512       3513       3524       3523  
      3392       3393       3404       3403       3513       3514       3525       3524  
      3393       3394       3405       3404       3514       3515       3526       3525  
      3394       3395       3406       3405       3515       3516       3527       3526  
      3395       3396       3407       3406       3516       3517       3528       3527  
      3396       3397       3408       3407       3517       3518       3529       3528  
      3397       3398       3409       3408       3518       3519       3530       3529  
      3398       3399       3410       3409       3519       3520       3531       3530  
      3400       3401       3412       3411       3521       3522       3533       3532  
      3401       3402       3413       3412       3522       3523       3534       3533  
      3402       3403       3414       3413       3523       3524       3535       3534  
      3403       3404       3415       3414       3524       3525       3536       3535  
      3404       3405       3416       3415       3525       3526       3537       3536  
      3405       3406       3417       3416       3526       3527       3538       3537  
      3406       3407       3418       3417       3527       3528       3539       3538  
      3407       3408       3419       3418       3528       3529       3540       3539  
      3408       3409       3420       3419       3529       3530       3541       3540  
      3409       3410       3421       3420       3530       3531       3542       3541  
      3411       3412       3423       3422       3532       3533       3544       3543  
      3412       3413       3424       3423       3533       3534       3545       3544  
      3413       3414       3425       3424       3534       3535       3546       3545  
      3414       3415       3426       3425       3535       3536       3547       3546  
      3415       3416       3427       3426       3536       3537       3548       3547  
      3416       3417       3428       3427       3537       3538       3549       3548  
      3417       3418       3429       3428       3538       3539       3550       3549  
      3418       3419       3430       3429       3539       3540       3551       3550  
      3419       3420       3431       3430       3540       3541       3552       3551  
      3420       3421       3432       3431       3541       3542       3553       3552  
      3422       3423       3434       3433       3543       3544       3555       3554  
      3423       3424       3435       3434       3544       3545       3556       3555  
      3424       3425       3436       3435       3545       3546       3557       3556  
      3425       3426       3437       3436       3546       3547       3558       3557  
      3426       3427       3438       3437       3547       3548       3559       3558  
      3427       3428       3439       3438       3548       3549       3560       3559  
      3428       3429       3440       3439       3549       3550       3561       3560  
      3429       3430       3441       3440       3550       3551       3562       3561  
      3430       3431       3442       3441       3551       3552       3563       3562  
      3431       3432       3443       3442       3552       3553       3564       3563  
      3433       3434       3445       3444       3554       3555       3566       3565  
      3434       3435       3446       3445       3555       3556       3567       3566  
      3435       3436       3447       3446       3556       3557       3568       3567  
      3436       3437       3448       3447       3557       3558       3569       3568  
      3437       3438       3449       3448       3558       3559       3570       3569  
      3438       3439       3450       3449       3559       3560       3571       3570  
      3439       3440       3451       3450       3560       3561       3572       3571  
      3440       3441       3452       3451       3561       3562       3573       3572  
      3441       3442       3453       3452       3562       3563       3574       3573  
      3442       3443       3454       3453       3563       3564       3575       3574  
      3444       3445       3456       3455       3565       3566       3577       3576  
      3445       3446       3457       3456       3566       3567       3578       3577  
      3446       3447       3458       3457       3567       3568       3579       3578  
      3447       3448       3459       3458       3568       3569       3580       3579  
      3448       3449       3460       3459       3569       3570       3581       3580  
      3449       3450       3461       3460       3570       3571       3582       3581  
      3450       3451       3462       3461       3571       3572       3583       3582  
      3451       3452       3463       3462       3572       3573       3584       3583  
      3452       3453       3464       3463       3573       3574       3585       3584  
      3453       3454       3465       3464       3574       3575       3586       3585  
      3455       3456       3467       3466       3576       3577       3588       3587  
      3456       3457       3468       3467       3577       3578       3589       3588  
      3457       3458       3469       3468       3578       3579       3590       3589  
      3458       3459       3470       3469       3579       3580       3591       3590  
      3459       3460       3471       3470       3580       3581       3592       3591  
      3460       3461       3472       3471       3581       3582       3593       3592  
      3461       3462       3473       3472       3582       3583       3594       3593  
      3462       3463       3474       3473       3583       3584       3595       3594  
      3463       3464       3475       3474       3584       3585       3596       3595  
      3464       3465       3476       3475       3585       3586       3597       3596  
      3466       3467       3478       3477       3587       3588       3599       3598  
      3467       3468       3479       3478       3588       3589       3600       3599  
      3468       3469       3480       3479       3589       3590       3601       3600  
      3469       3470       3481       3480       3590       3591       3602       3601  
      3470       3471       3482       3481       3591       3592       3603       3602  
      3471       3472       3483       3482       3592       3593       3604       3603  
      3472       3473       3484       3483       3593       3594       3605       3604  
      3473       3474       3485       3484       3594       3595       3606       3605  
      3474       3475       3486       3485       3595       3596       3607       3606  
      3475       3476       3487       3486       3596       3597       3608       3607  
      3477       3478       3489       3488       3598       3599       3610       3609  
      3478       3479       3490       3489       3599       3600       3611       3610  
      3479       3480       3491       3490       3600       3601       3612       3611  
      3480       3481       3492       3491       3601       3602       3613       3612  
      3481       3482       3493       3492       3602       3603       3614       3613  
      3482       3483       3494       3493       3603       3604       3615       3614  
      3483       3484       3495       3494       3604       3605       3616       3615  
      3484       3485       3496       3495       3605       3606       3617       3616  
      3485       3486       3497       3496       3606       3607       3618       3617  
      3486       3487       3498       3497       3607       3608       3619       3618  
      3488       3489       3500       3499       3609       3610       3621       3620  
      3489       3490       3501       3500       3610       3611       3622       3621  
      3490       3491       3502       3501       3611       3612       3623       3622  
      3491       3492       3503       3502       3612       3613       3624       3623  
      3492       3493       3504       3503       3613       3614       3625       3624  
      3493       3494       3505       3504       3614       3615       3626       3625  
      3494       3495       3506       3505       3615       3616       3627       3626  
      3495       3496       3507       3506       3616       3617       3628       3627  
      3496       3497       3508       3507       3617       3618       3629       3628  
      3497       3498       3509       3508       3618       3619       3630       3629  
      3510       3511       3522       3521       3631       3632       3643       3642  
      3511       3512       3523       3522       3632       3633       3644       3643  
      3512       3513       3524       3523       3633       3634       3645       3644  
      3513       3514       3525       3524       3634       3635       3646       3645  
      3514       3515       3526       3525       3635       3636       3647       3646  
      3515       3516       3527       3526       3636       3637       3648       3647  
      3516       3517       3528       3527       3637       3638       3649       3648  
      3517       3518       3529       3528       3638       3639       3650       3649  
      3518       3519       3530       3529       3639       3640       3651       3650  
      3519       3520       3531       3530       3640       3641       3652       3651  
      3521       3522       3533       3532       3642       3643       3654       3653  
      3522       3523       3534       3533       3643       3644       3655       3654  
      3523       3524       3535       3534       3644       3645       3656       3655  
      3524       3525       3536       3535       3645       3646       3657       3656  
      3525       3526       3537       3536       3646       3647       3658       3657  
      3526       3527       3538       3537       3647       3648       3659       3658  
      3527       3528       3539       3538       3648       3649       3660       3659  
      3528       3529       3540       3539       3649       3650       3661       3660  
      3529       3530       3541       3540       3650       3651       3662       3661  
      3530       3531       3542       3541       3651       3652       3663       3662  
      3532       3533       3544       3543       3653       3654       3665       3664  
      3533       3534       3545       3544       3654       3655       3666       3665  
      3534       3535       3546       3545       3655       3656       3667       3666  
      3535       3536       3547       3546       3656       3657       3668       3667  
      3536       3537       3548       3547       3657       3658       3669       3668  
      3537       3538       3549       3548       3658       3659       3670       3669  
      3538       3539       3550       3549       3659       3660       3671       3670  
      3539       3540       3551       3550       3660       3661       3672       3671  
      3540       3541       3552       3551       3661       3662       3673       3672  
      3541       3542       3553       3552       3662       3663       3674       3673  
      3543       3544       3555       3554       3664       3665       3676       3675  
      3544       3545       3556       3555       3665       3666       3677       3676  
      3545       3546       3557       3556       3666       3667       3678       3677  
      3546       3547       3558       3557       3667       3668       3679       3678  
      3547       3548       3559       3558       3668       3669       3680       3679  
      3548       3549       3560       3559       3669       3670       3681       3680  
      3549       3550       3561       3560       3670       3671       3682       3681  
      3550       3551       3562       3561       3671       3672       3683       3682  
      3551       3552       3563       3562       3672       3673       3684       3683  
      3552       3553       3564       3563       3673       3674       3685       3684  
      3554       3555       3566       3565       3675       3676       3687       3686  
      3555       3556       3567       3566       3676       3677       3688       3687  
      3556       3557       3568       3567       3677       3678       3689       3688  
      3557       3558       3569       3568       3678       3679       3690       3689  
      3558       3559       3570       3569       3679       3680       3691       3690  
      3559       3560       3571       3570       3680       3681       3692       3691  
      3560       3561       3572       3571       3681       3682       3693       3692  
      3561       3562       3573       3572       3682       3683       3694       3693  
      3562       3563       3574       3573       3683       3684       3695       3694  
      3563       3564       3575       3574       3684       3685       3696       3695  
      3565       3566       3577       3576       3686       3687       3698       3697  
      3566       3567       3578       3577       3687       3688       3699       3698  
      3567       3568       3579       3578       3688       3689       3700       3699  
      3568       3569       3580       3579       3689       3690       3701       3700  
      3569       3570       3581       3580       3690       3691       3702       3701  
      3570       3571       3582       3581       3691       3692       3703       3702  
      3571       3572       3583       3582       3692       3693       3704       3703  
      3572       3573       3584       3583       3693       3694       3705       3704  
      3573       3574       3585       3584       3694       3695       3706       3705  
      3574       3575       3586       3585       3695       3696       3707       3706  
      3576       3577       3588       3587       3697       3698       3709       3708  
      3577       3578       3589       3588       3698       3699       3710       3709  
      3578       3579       3590       3589       3699       3700       3711       3710  
      3579       3580       3591       3590       3700       3701       3712       3711  
      3580       3581       3592       3591       3701       3702       3713       3712  
      3581       3582       3593       3592       3702       3703       3714       3713  
      3582       3583       3594       3593       3703       3704       3715       3714  
      3583       3584       3595       3594       3704       3705       3716       3715  
      3584       3585       3596       3595       3705       3706       3717       3716  
      3585       3586       3597       3596       3706       3707       3718       3717  
      3587       3588       3599       3598       3708       3709       3720       3719  
      3588       3589       3600       3599       3709       3710       3721       3720  
      3589       3590       3601       3600       3710       3711       3722       3721  
      3590       3591       3602       3601       3711       3712       3723       3722  
      3591       3592       3603       3602       3712       3713       3724       3723  
      3592       3593       3604       3603       3713       3714       3725       3724  
      3593       3594       3605       3604       3714       3715       3726       3725  
      3594       3595       3606       3605       3715       3716       3727       3726  
      3595       3596       3607       3606       3716       3717       3728       3727  
      3596       3597       3608       3607       3717       3718       3729       3728  
      3598       3599       3610       3609       3719       3720       3731       3730  
      3599       3600       3611       3610       3720       3721       3732       3731  
      3600       3601       3612       3611       3721       3722       3733       3732  
      3601       3602       3613       3612       3722       3723       3734       3733  
      3602       3603       3614       3613       3723       3724       3735       3734  
      3603       3604       3615       3614       3724       3725       3736       3735  
      3604       3605       3616       3615       3725       3726       3737       3736  
      3605       3606       3617       3616       3726       3727       3738       3737  
      3606       3607       3618       3617       3727       3728       3739       3738  
      3607       3608       3619       3618       3728       3729       3740       3739  
      3609       3610       3621       3620       3730       3731       3742       3741  
      3610       3611       3622       3621       3731       3732       3743       3742  
      3611       3612       3623       3622       3732       3733       3744       3743  
      3612       3613       3624       3623       3733       3734       3745       3744  
      3613       3614       3625       3624       3734       3735       3746       3745  
      3614       3615       3626       3625       3735       3736       3747       3746  
      3615       3616       3627       3626       3736       3737       3748       3747  
      3616       3617       3628       3627       3737       3738       3749       3748  
      3617       3618       3629       3628       3738       3739       3750       3749  
      3618       3619       3630       3629       3739       3740       3751       3750  
      3631       3632       3643       3642       3752       3753       3764       3763  
      3632       3633       3644       3643       3753       3754       3765       3764  
      3633       3634       3645       3644       3754       3755       3766       3765  
      3634       3635       3646       3645       3755       3756       3767       3766  
      3635       3636       3647       3646       3756       3757       3768       3767  
      3636       3637       3648       3647       3757       3758       3769       3768  
      3637       3638       3649       3648       3758       3759       3770       3769  
      3638       3639       3650       3649       3759       3760       3771       3770  
      3639       3640       3651       3650       3760       3761       3772       3771  
      3640       3641       3652       3651       3761       3762       3773       3772  
      3642       3643       3654       3653       3763       3764       3775       3774  
      3643       3644       3655       3654       3764       3765       3776       3775  
      3644       3645       3656       3655       3765       3766       3777       3776  
      3645       3646       3657       3656       3766       3767       3778       3777  
      3646       3647       3658       3657       3767       3768       3779       3778  
      3647       3648       3659       3658       3768       3769       3780       3779  
      3648       3649       3660       3659       3769       3770       3781       3780  
      3649       3650       3661       3660       3770       3771       3782       3781  
      3650       3651       3662       3661       3771       3772       3783       3782  
      3651       3652       3663       3662       3772       3773       3784       3783  
      3653       3654       3665       3664       3774       3775       3786       3785  
      3654       3655       3666       3665       3775       3776       3787       3786  
      3655       3656       3667       3666       3776       3777       3788       3787  
      3656       3657       3668       3667       3777       3778       3789       3788  
      3657       3658       3669       3668       3778       3779       3790       3789  
      3658       3659       3670       3669       3779       3780       3791       3790  
      3659       3660       3671       3670       3780       3781       3792       3791  
      3660       3661       3672       3671       3781       3782       3793       3792  
      3661       3662       3673       3672       3782       3783       3794       3793  
      3662       3663       3674       3673       3783       3784       3795       3794  
      3664       3665       3676       3675       3785       3786       3797       3796  
      3665       3666       3677       3676       3786       3787       3798       3797  
      3666       3667       3678       3677       3787       3788       3799       3798  
      3667       3668       3679       3678       3788       3789       3800       3799  
      3668       3669       3680       3679       3789       3790       3801       3800  
      3669       3670       3681       3680       3790       3791       3802       3801  
      3670       3671       3682       3681       3791       3792       3803       3802  
      3671       3672       3683       3682       3792       3793       3804       3803  
      3672       3673       3684       3683       3793       3794       3805       3804  
      3673       3674       3685       3684       3794       3795       3806       3805  
      3675       3676       3687       3686       3796       3797       3808       3807  
      3676       3677       3688       3687       3797       3798       3809       3808  
      3677       3678       3689       3688       3798       3799       3810       3809  
      3678       3679       3690       3689       3799       3800       3811       3810  
      3679       3680       3691       3690       3800       3801       3812       3811  
      3680       3681       3692       3691       3801       3802       3813       3812  
      3681       3682       3693       3692       3802       3803       3814       3813  
      3682       3683       3694       3693       3803       3804       3815       3814  
      3683       3684       3695       3694       3804       3805       3816       3815  
      3684       3685       3696       3695       3805       3806       3817       3816  
      3686       3687       3698       3697       3807       3808       3819       3818  
      3687       3688       3699       3698       3808       3809       3820       3819  
      3688       3689       3700       3699       3809       3810       3821       3820  
      3689       3690       3701       3700       3810       3811       3822       3821  
      3690       3691       3702       3701       3811       3812       3823       3822  
      3691       3692       3703       3702       3812       3813       3824       3823  
      3692       3693       3704       3703       3813       3814       3825       3824  
      3693       3694       3705       3704       3814       3815       3826       3825  
      3694       3695       3706       3705       3815       3816       3827       3826  
      3695       3696       3707       3706       3816       3817       3828       3827  
      3697       3698       3709       3708       3818       3819       3830       3829  
      3698       3699       3710       3709       3819       3820       3831       3830  
      3699       3700       3711       3710       3820       3821       3832       3831  
      3700       3701       3712       3711       3821       3822       3833       3832  
      3701       3702       3713       3712       3822       3823       3834       3833  
      3702       3703       3714       3713       3823       3824       3835       3834  
      3703       3704       3715       3714       3824       3825       3836       3835  
      3704       3705       3716       3715       3825       3826       3837       3836  
      3705       3706       3717       3716       3826       3827       3838       3837  
      3706       3707       3718       3717       3827       3828       3839       3838  
      3708       3709       3720       3719       3829       3830       3841       3840  
      3709       3710       3721       3720       3830       3831       3842       3841  
      3710       3711       3722       3721       3831       3832       3843       3842  
      3711       3712       3723       3722       3832       3833       3844       3843  
      3712       3713       3724       3723       3833       3834       3845       3844  
      3713       3714       3725       3724       3834       3835       3846       3845  
      3714       3715       3726       3725       3835       3836       3847       3846  
      3715       3716       3727       3726       3836       3837       3848       3847  
      3716       3717       3728       3727       3837       3838       3849       3848  
      3717       3718       3729       3728       3838       3839       3850       3849  
      3719       3720       3731       3730       3840       3841       3852       3851  
      3720       3721       3732       3731       3841       3842       3853       3852  
      3721       3722       3733       3732       3842       3843       3854       3853  
      3722       3723       3734       3733       3843       3844       3855       3854  
      3723       3724       3735       3734       3844       3845       3856       3855  
      3724       3725       3736       3735       3845       3846       3857       3856  
      3725       3726       3737       3736       3846       3847       3858       3857  
      3726       3727       3738       3737       3847       3848       3859       3858  
      3727       3728       3739       3738       3848       3849       3860       3859  
      3728       3729       3740       3739       3849       3850       3861       3860  
      3730       3731       3742       3741       3851       3852       3863       3862  
      3731       3732       3743       3742       3852       3853       3864       3863  
      3732       3733       3744       3743       3853       3854       3865       3864  
      3733       3734       3745       3744       3854       3855       3866       3865  
      3734       3735       3746       3745       3855       3856       3867       3866  
      3735       3736       3747       3746       3856       3857       3868       3867  
      3736       3737       3748       3747       3857       3858       3869       3868  
      3737       3738       3749       3748       3858       3859       3870       3869  
      3738       3739       3750       3749       3859       3860       3871       3870  
      3739       3740       3751       3750       3860       3861       3872       3871  
      3752       3753       3764       3763       3873       3874       3885       3884  
      3753       3754       3765       3764       3874       3875       3886       3885  
      3754       3755       3766       3765       3875       3876       3887       3886  
      3755       3756       3767       3766       3876       3877       3888       3887  
      3756       3757       3768       3767       3877       3878       3889       3888  
      3757       3758       3769       3768       3878       3879       3890       3889  
      3758       3759       3770       3769       3879       3880       3891       3890  
      3759       3760       3771       3770       3880       3881       3892       3891  
      3760       3761       3772       3771       3881       3882       3893       3892  
      3761       3762       3773       3772       3882       3883       3894       3893  
      3763       3764       3775       3774       3884       3885       3896       3895  
      3764       3765       3776       3775       3885       3886       3897       3896  
      3765       3766       3777       3776       3886       3887       3898       3897  
      3766       3767       3778       3777       3887       3888       3899       3898  
      3767       3768       3779       3778       3888       3889       3900       3899  
      3768       3769       3780       3779       3889       3890       3901       3900  
      3769       3770       3781       3780       3890       3891       3902       3901  
      3770       3771       3782       3781       3891       3892       3903       3902  
      3771       3772       3783       3782       3892       3893       3904       3903  
      3772       3773       3784       3783       3893       3894       3905       3904  
      3774       3775       3786       3785       3895       3896       3907       3906  
      3775       3776       3787       3786       3896       3897       3908       3907  
      3776       3777       3788       3787       3897       3898       3909       3908  
      3777       3778       3789       3788       3898       3899       3910       3909  
      3778       3779       3790       3789       3899       3900       3911       3910  
      3779       3780       3791       3790       3900       3901       3912       3911  
      3780       3781       3792       3791       3901       3902       3913       3912  
      3781       3782       3793       3792       3902       3903       3914       3913  
      3782       3783       3794       3793       3903       3904       3915       3914  
      3783       3784       3795       3794       3904       3905       3916       3915  
      3785       3786       3797       3796       3906       3907       3918       3917  
      3786       3787       3798       3797       3907       3908       3919       3918  
      3787       3788       3799       3798       3908       3909       3920       3919  
      3788       3789       3800       3799       3909       3910       3921       3920  
      3789       3790       3801       3800       3910       3911       3922       3921  
      3790       3791       3802       3801       3911       3912       3923       3922  
      3791       3792       3803       3802       3912       3913       3924       3923  
      3792       3793       3804       3803       3913       3914       3925       3924  
      3793       3794       3805       3804       3914       3915       3926       3925  
      3794       3795       3806       3805       3915       3916       3927       3926  
      3796       3797       3808       3807       3917       3918       3929       3928  
      3797       3798       3809       3808       3918       3919       3930       3929  
      3798       3799       3810       3809       3919       3920       3931       3930  
      3799       3800       3811       3810       3920       3921       3932       3931  
      3800       3801       3812       3811       3921       3922       3933       3932  
      3801       3802       3813       3812       3922       3923       3934       3933  
      3802       3803       3814       3813       3923       3924       3935       3934  
      3803       3804       3815       3814       3924       3925       3936       3935  
      3804       3805       3816       3815       3925       3926       3937       3936  
      3805       3806       3817       3816       3926       3927       3938       3937  
      3807       3808       3819       3818       3928       3929       3940       3939  
      3808       3809       3820       3819       3929       3930       3941       3940  
      3809       3810       3821       3820       3930       3931       3942       3941  
      3810       3811       3822       3821       3931       3932       3943       3942  
      3811       3812       3823       3822       3932       3933       3944       3943  
      3812       3813       3824       3823       3933       3934       3945       3944  
      3813       3814       3825       3824       3934       3935       3946       3945  
      3814       3815       3826       3825       3935       3936       3947       3946  
      3815       3816       3827       3826       3936       3937       3948       3947  
      3816       3817       3828       3827       3937       3938       3949       3948  
      3818       3819       3830       3829       3939       3940       3951       3950  
      3819       3820       3831       3830       3940       3941       3952       3951  
      3820       3821       3832       3831       3941       3942       3953       3952  
      3821       3822       3833       3832       3942       3943       3954       3953  
      3822       3823       3834       3833       3943       3944       3955       3954  
      3823       3824       3835       3834       3944       3945       3956       3955  
      3824       3825       3836       3835       3945       3946       3957       3956  
      3825       3826       3837       3836       3946       3947       3958       3957  
      3826       3827       3838       3837       3947       3948       3959       3958  
      3827       3828       3839       3838       3948       3949       3960       3959  
      3829       3830       3841       3840       3950       3951       3962       3961  
      3830       3831       3842       3841       3951       3952       3963       3962  
      3831       3832       3843       3842       3952       3953       3964       3963  
      3832       3833       3844       3843       3953       3954       3965       3964  
      3833       3834       3845       3844       3954       3955       3966       3965  
      3834       3835       3846       3845       3955       3956       3967       3966  
      3835       3836       3847       3846       3956       3957       3968       3967  
      3836       3837       3848       3847       3957       3958       3969       3968  
      3837       3838       3849       3848       3958       3959       3970       3969  
      3838       3839       3850       3849       3959       3960       3971       3970  
      3840       3841       3852       3851       3961       3962       3973       3972  
      3841       3842       3853       3852       3962       3963       3974       3973  
      3842       3843       3854       3853       3963       3964       3975       3974  
      3843       3844       3855       3854       3964       3965       3976       3975  
      3844       3845       3856       3855       3965       3966       3977       3976  
      3845       3846       3857       3856       3966       3967       3978       3977  
      3846       3847       3858       3857       3967       3968       3979       3978  
      3847       3848       3859       3858       3968       3969       3980       3979  
      3848       3849       3860       3859       3969       3970       3981       3980  
      3849       3850       3861       3860       3970       3971       3982       3981  
      3851       3852       3863       3862       3972       3973       3984       3983  
      3852       3853       3864       3863       3973       3974       3985       3984  
      3853       3854       3865       3864       3974       3975       3986       3985  
      3854       3855       3866       3865       3975       3976       3987       3986  
      3855       3856       3867       3866       3976       3977       3988       3987  
      3856       3857       3868       3867       3977       3978       3989       3988  
      3857       3858       3869       3868       3978       3979       3990       3989  
      3858       3859       3870       3869       3979       3980       3991       3990  
      3859       3860       3871       3870       3980       3981       3992       3991  
      3860       3861       3872       3871       3981       3982       3993       3992  
      3873       3874       3885       3884       3994       3995       4006       4005  
      3874       3875       3886       3885       3995       3996       4007       4006  
      3875       3876       3887       3886       3996       3997       4008       4007  
      3876       3877       3888       3887       3997       3998       4009       4008  
      3877       3878       3889       3888       3998       3999       4010       4009  
      3878       3879       3890       3889       3999       4000       4011       4010  
      3879       3880       3891       3890       4000       4001       4012       4011  
      3880       3881       3892       3891       4001       4002       4013       4012  
      3881       3882       3893       3892       4002       4003       4014       4013  
      3882       3883       3894       3893       4003       4004       4015       4014  
      3884       3885       3896       3895       4005       4006       4017       4016  
      3885       3886       3897       3896       4006       4007       4018       4017  
      3886       3887       3898       3897       4007       4008       4019       4018  
      3887       3888       3899       3898       4008       4009       4020       4019  
      3888       3889       3900       3899       4009       4010       4021       4020  
      3889       3890       3901       3900       4010       4011       4022       4021  
      3890       3891       3902       3901       4011       4012       4023       4022  
      3891       3892       3903       3902       4012       4013       4024       4023  
      3892       3893       3904       3903       4013       4014       4025       4024  
      3893       3894       3905       3904       4014       4015       4026       4025  
      3895       3896       3907       3906       4016       4017       4028       4027  
      3896       3897       3908       3907       4017       4018       4029       4028  
      3897       3898       3909       3908       4018       4019       4030       4029  
      3898       3899       3910       3909       4019       4020       4031       4030  
      3899       3900       3911       3910       4020       4021       4032       4031  
      3900       3901       3912       3911       4021       4022       4033       4032  
      3901       3902       3913       3912       4022       4023       4034       4033  
      3902       3903       3914       3913       4023       4024       4035       4034  
      3903       3904       3915       3914       4024       4025       4036       4035  
      3904       3905       3916       3915       4025       4026       4037       4036  
      3906       3907       3918       3917       4027       4028       4039       4038  
      3907       3908       3919       3918       4028       4029       4040       4039  
      3908       3909       3920       3919       4029       4030       4041       4040  
      3909       3910       3921       3920       4030       4031       4042       4041  
      3910       3911       3922       3921       4031       4032       4043       4042  
      3911       3912       3923       3922       4032       4033       4044       4043  
      3912       3913       3924       3923       4033       4034       4045       4044  
      3913       3914       3925       3924       4034       4035       4046       4045  
      3914       3915       3926       3925       4035       4036       4047       4046  
      3915       3916       3927       3926       4036       4037       4048       4047  
      3917       3918       3929       3928       4038       4039       4050       4049  
      3918       3919       3930       3929       4039       4040       4051       4050  
      3919       3920       3931       3930       4040       4041       4052       4051  
      3920       3921       3932       3931       4041       4042       4053       4052  
      3921       3922       3933       3932       4042       4043       4054       4053  
      3922       3923       3934       3933       4043       4044       4055       4054  
      3923       3924       3935       3934       4044       4045       4056       4055  
      3924       3925       3936       3935       4045       4046       4057       4056  
      3925       3926       3937       3936       4046       4047       4058       4057  
      3926       3927       3938       3937       4047       4048       4059       4058  
      3928       3929       3940       3939       4049       4050       4061       4060  
      3929       3930       3941       3940       4050       4051       4062       4061  
      3930       3931       3942       3941       4051       4052       4063       4062  
      3931       3932       3943       3942       4052       4053       4064       4063  
      3932       3933       3944       3943       4053       4054       4065       4064  
      3933       3934       3945       3944       4054       4055       4066       4065  
      3934       3935       3946       3945       4055       4056       4067       4066  
      3935       3936       3947       3946       4056       4057       4068       4067  
      3936       3937       3948       3947       4057       4058       4069       4068  
      3937       3938       3949       3948       4058       4059       4070       4069  
      3939       3940       3951       3950       4060       4061       4072       4071  
      3940       3941       3952       3951       4061       4062       4073       4072  
      3941       3942       3953       3952       4062       4063       4074       4073  
      3942       3943       3954       3953       4063       4064       4075       4074  
      3943       3944       3955       3954       4064       4065       4076       4075  
      3944       3945       3956       3955       4065       4066       4077       4076  
      3945       3946       3957       3956       4066       4067       4078       4077  
      3946       3947       3958       3957       4067       4068       4079       4078  
      3947       3948       3959       3958       4068       4069       4080       4079  
      3948       3949       3960       3959       4069       4070       4081       4080  
      3950       3951       3962       3961       4071       4072       4083       4082  
      3951       3952       3963       3962       4072       4073       4084       4083  
      3952       3953       3964       3963       4073       4074       4085       4084  
      3953       3954       3965       3964       4074       4075       4086       4085  
      3954       3955       3966       3965       4075       4076       4087       4086  
      3955       3956       3967       3966       4076       4077       4088       4087  
      3956       3957       3968       3967       4077       4078       4089       4088  
      3957       3958       3969       3968       4078       4079       4090       4089  
      3958       3959       3970       3969       4079       4080       4091       4090  
      3959       3960       3971       3970       4080       4081       4092       4091  
      3961       3962       3973       3972       4082       4083       4094       4093  
      3962       3963       3974       3973       4083       4084       4095       4094  
      3963       3964       3975       3974       4084       4085       4096       4095  
      3964       3965       3976       3975       4085       4086       4097       4096  
      3965       3966       3977       3976       4086       4087       4098       4097  
      3966       3967       3978       3977       4087       4088       4099       4098  
      3967       3968       3979       3978       4088       4089       4100       4099  
      3968       3969       3980       3979       4089       4090       4101       4100  
      3969       3970       3981       3980       4090       4091       4102       4101  
      3970       3971       3982       3981       4091       4092       4103       4102  
      3972       3973       3984       3983       4093       4094       4105       4104  
      3973       3974       3985       3984       4094       4095       4106       4105  
      3974       3975       3986       3985       4095       4096       4107       4106  
      3975       3976       3987       3986       4096       4097       4108       4107  
      3976       3977       3988       3987       4097       4098       4109       4108  
      3977       3978       3989       3988       4098       4099       4110       4109  
      3978       3979       3990       3989       4099       4100       4111       4110  
      3979       3980       3991       3990       4100       4101       4112       4111  
      3980       3981       3992       3991       4101       4102       4113       4112  
      3981       3982       3993       3992       4102       4103       4114       4113  
      3994       3995       4006       4005       4115       4116       4127       4126  
      3995       3996       4007       4006       4116       4117       4128       4127  
      3996       3997       4008       4007       4117       4118       4129       4128  
      3997       3998       4009       4008       4118       4119       4130       4129  
      3998       3999       4010       4009       4119       4120       4131       4130  
      3999       4000       4011       4010       4120       4121       4132       4131  
      4000       4001       4012       4011       4121       4122       4133       4132  
      4001       4002       4013       4012       4122       4123       4134       4133  
      4002       4003       4014       4013       4123       4124       4135       4134  
      4003       4004       4015       4014       4124       4125       4136       4135  
      4005       4006       4017       4016       4126       4127       4138       4137  
      4006       4007       4018       4017       4127       4128       4139       4138  
      4007       4008       4019       4018       4128       4129       4140       4139  
      4008       4009       4020       4019       4129       4130       4141       4140  
      4009       4010       4021       4020       4130       4131       4142       4141  
      4010       4011       4022       4021       4131       4132       4143       4142  
      4011       4012       4023       4022       4132       4133       4144       4143  
      4012       4013       4024       4023       4133       4134       4145       4144  
      4013       4014       4025       4024       4134       4135       4146       4145  
      4014       4015       4026       4025       4135       4136       4147       4146  
      4016       4017       4028       4027       4137       4138       4149       4148  
      4017       4018       4029       4028       4138       4139       4150       4149  
      4018       4019       4030       4029       4139       4140       4151       4150  
      4019       4020       4031       4030       4140       4141       4152       4151  
      4020       4021       4032       4031       4141       4142       4153       4152  
      4021       4022       4033       4032       4142       4143       4154       4153  
      4022       4023       4034       4033       4143       4144       4155       4154  
      4023       4024       4035       4034       4144       4145       4156       4155  
      4024       4025       4036       4035       4145       4146       4157       4156  
      4025       4026       4037       4036       4146       4147       4158       4157  
      4027       4028       4039       4038       4148       4149       4160       4159  
      4028       4029       4040       4039       4149       4150       4161       4160  
      4029       4030       4041       4040       4150       4151       4162       4161  
      4030       4031       4042       4041       4151       4152       4163       4162  
      4031       4032       4043       4042       4152       4153       4164       4163  
      4032       4033       4044       4043       4153       4154       4165       4164  
      4033       4034       4045       4044       4154       4155       4166       4165  
      4034       4035       4046       4045       4155       4156       4167       4166  
      4035       4036       4047       4046       4156       4157       4168       4167  
      4036       4037       4048       4047       4157       4158       4169       4168  
      4038       4039       4050       4049       4159       4160       4171       4170  
      4039       4040       4051       4050       4160       4161       4172       4171  
      4040       4041       4052       4051       4161       4162       4173       4172  
      4041       4042       4053       4052       4162       4163       4174       4173  
      4042       4043       4054       4053       4163       4164       4175       4174  
      4043       4044       4055       4054       4164       4165       4176       4175  
      4044       4045       4056       4055       4165       4166       4177       4176  
      4045       4046       4057       4056       4166       4167       4178       4177  
      4046       4047       4058       4057       4167       4168       4179       4178  
      4047       4048       4059       4058       4168       4169       4180       4179  
      4049       4050       4061       4060       4170       4171       4182       4181  
      4050       4051       4062       4061       4171       4172       4183       4182  
      4051       4052       4063       4062       4172       4173       4184       4183  
      4052       4053       4064       4063       4173       4174       4185       4184  
      4053       4054       4065       4064       4174       4175       4186       4185  
      4054       4055       4066       4065       4175       4176       4187       4186  
      4055       4056       4067       4066       4176       4177       4188       4187  
      4056       4057       4068       4067       4177       4178       4189       4188  
      4057       4058       4069       4068       4178       4179       4190       4189  
      4058       4059       4070       4069       4179       4180       4191       4190  
      4060       4061       4072       4071       4181       4182       4193       4192  
      4061       4062       4073       4072       4182       4183       4194       4193  
      4062       4063       4074       4073       4183       4184       4195       4194  
      4063       4064       4075       4074       4184       4185       4196       4195  
      4064       4065       4076       4075       4185       4186       4197       4196  
      4065       4066       4077       4076       4186       4187       4198       4197  
      4066       4067       4078       4077       4187       4188       4199       4198  
      4067       4068       4079       4078       4188       4189       4200       4199  
      4068       4069       4080       4079       4189       4190       4201       4200  
      4069       4070       4081       4080       4190       4191       4202       4201  
      4071       4072       4083       4082       4192       4193       4204       4203  
      4072       4073       4084       4083       4193       4194       4205       4204  
      4073       4074       4085       4084       4194       4195       4206       4205  
      4074       4075       4086       4085       4195       4196       4207       4206  
      4075       4076       4087       4086       4196       4197       4208       4207  
      4076       4077       4088       4087       4197       4198       4209       4208  
      4077       4078       4089       4088       4198       4199       4210       4209  
      4078       4079       4090       4089       4199       4200       4211       4210  
      4079       4080       4091       4090       4200       4201       4212       4211  
      4080       4081       4092       4091       4201       4202       4213       4212  
      4082       4083       4094       4093       4203       4204       4215       4214  
      4083       4084       4095       4094       4204       4205       4216       4215  
      4084       4085       4096       4095       4205       4206       4217       4216  
      4085       4086       4097       4096       4206       4207       4218       4217  
      4086       4087       4098       4097       4207       4208       4219       4218  
      4087       4088       4099       4098       4208       4209       4220       4219  
      4088       4089       4100       4099       4209       4210       4221       4220  
      4089       4090       4101       4100       4210       4211       4222       4221  
      4090       4091       4102       4101       4211       4212       4223       4222  
      4091       4092       4103       4102       4212       4213       4224       4223  
      4093       4094       4105       4104       4214       4215       4226       4225  
      4094       4095       4106       4105       4215       4216       4227       4226  
      4095       4096       4107       4106       4216       4217       4228       4227  
      4096       4097       4108       4107       4217       4218       4229       4228  
      4097       4098       4109       4108       4218       4219       4230       4229  
      4098       4099       4110       4109       4219       4220       4231       4230  
      4099       4100       4111       4110       4220       4221       4232       4231  
      4100       4101       4112       4111       4221       4222       4233       4232  
      4101       4102       4113       4112       4222       4223       4234       4233  
      4102       4103       4114       4113       4223       4224       4235       4234  
      4115       4116       4127       4126       4236       4237       4248       4247  
      4116       4117       4128       4127       4237       4238       4249       4248  
      4117       4118       4129       4128       4238       4239       4250       4249  
      4118       4119       4130       4129       4239       4240       4251       4250  
      4119       4120       4131       4130       4240       4241       4252       4251  
      4120       4121       4132       4131       4241       4242       4253       4252  
      4121       4122       4133       4132       4242       4243       4254       4253  
      4122       4123       4134       4133       4243       4244       4255       4254  
      4123       4124       4135       4134       4244       4245       4256       4255  
      4124       4125       4136       4135       4245       4246       4257       4256  
      4126       4127       4138       4137       4247       4248       4259       4258  
      4127       4128       4139       4138       4248       4249       4260       4259  
      4128       4129       4140       4139       4249       4250       4261       4260  
      4129       4130       4141       4140       4250       4251       4262       4261  
      4130       4131       4142       4141       4251       4252       4263       4262  
      4131       4132       4143       4142       4252       4253       4264       4263  
      4132       4133       4144       4143       4253       4254       4265       4264  
      4133       4134       4145       4144       4254       4255       4266       4265  
      4134       4135       4146       4145       4255       4256       4267       4266  
      4135       4136       4147       4146       4256       4257       4268       4267  
      4137       4138       4149       4148       4258       4259       4270       4269  
      4138       4139       4150       4149       4259       4260       4271       4270  
      4139       4140       4151       4150       4260       4261       4272       4271  
      4140       4141       4152       4151       4261       4262       4273       4272  
      4141       4142       4153       4152       4262       4263       4274       4273  
      4142       4143       4154       4153       4263       4264       4275       4274  
      4143       4144       4155       4154       4264       4265       4276       4275  
      4144       4145       4156       4155       4265       4266       4277       4276  
      4145       4146       4157       4156       4266       4267       4278       4277  
      4146       4147       4158       4157       4267       4268       4279       4278  
      4148       4149       4160       4159       4269       4270       4281       4280  
      4149       4150       4161       4160       4270       4271       4282       4281  
      4150       4151       4162       4161       4271       4272       4283       4282  
      4151       4152       4163       4162       4272       4273       4284       4283  
      4152       4153       4164       4163       4273       4274       4285       4284  
      4153       4154       4165       4164       4274       4275       4286       4285  
      4154       4155       4166       4165       4275       4276       4287       4286  
      4155       4156       4167       4166       4276       4277       4288       4287  
      4156       4157       4168       4167       4277       4278       4289       4288  
      4157       4158       4169       4168       4278       4279       4290       4289  
      4159       4160       4171       4170       4280       4281       4292       4291  
      4160       4161       4172       4171       4281       4282       4293       4292  
      4161       4162       4173       4172       4282       4283       4294       4293  
      4162       4163       4174       4173       4283       4284       4295       4294  
      4163       4164       4175       4174       4284       4285       4296       4295  
      4164       4165       4176       4175       4285       4286       4297       4296  
      4165       4166       4177       4176       4286       4287       4298       4297  
      4166       4167       4178       4177       4287       4288       4299       4298  
      4167       4168       4179       4178       4288       4289       4300       4299  
      4168       4169       4180       4179       4289       4290       4301       4300  
      4170       4171       4182       4181       4291       4292       4303       4302  
      4171       4172       4183       4182       4292       4293       4304       4303  
      4172       4173       4184       4183       4293       4294       4305       4304  
      4173       4174       4185       4184       4294       4295       4306       4305  
      4174       4175       4186       4185       4295       4296       4307       4306  
      4175       4176       4187       4186       4296       4297       4308       4307  
      4176       4177       4188       4187       4297       4298       4309       4308  
      4177       4178       4189       4188       4298       4299       4310       4309  
      4178       4179       4190       4189       4299       4300       4311       4310  
      4179       4180       4191       4190       4300       4301       4312       4311  
      4181       4182       4193       4192       4302       4303       4314       4313  
      4182       4183       4194       4193       4303       4304       4315       4314  
      4183       4184       4195       4194       4304       4305       4316       4315  
      4184       4185       4196       4195       4305       4306       4317       4316  
      4185       4186       4197       4196       4306       4307       4318       4317  
      4186       4187       4198       4197       4307       4308       4319       4318  
      4187       4188       4199       4198       4308       4309       4320       4319  
      4188       4189       4200       4199       4309       4310       4321       4320  
      4189       4190       4201       4200       4310       4311       4322       4321  
      4190       4191       4202       4201       4311       4312       4323       4322  
      4192       4193       4204       4203       4313       4314       4325       4324  
      4193       4194       4205       4204       4314       4315       4326       4325  
      4194       4195       4206       4205       4315       4316       4327       4326  
      4195       4196       4207       4206       4316       4317       4328       4327  
      4196       4197       4208       4207       4317       4318       4329       4328  
      4197       4198       4209       4208       4318       4319       4330       4329  
      4198       4199       4210       4209       4319       4320       4331       4330  
      4199       4200       4211       4210       4320       4321       4332       4331  
      4200       4201       4212       4211       4321       4322       4333       4332  
      4201       4202       4213       4212       4322       4323       4334       4333  
      4203       4204       4215       4214       4324       4325       4336       4335  
      4204       4205       4216       4215       4325       4326       4337       4336  
      4205       4206       4217       4216       4326       4327       4338       4337  
      4206       4207       4218       4217       4327       4328       4339       4338  
      4207       4208       4219       4218       4328       4329       4340       4339  
      4208       4209       4220       4219       4329       4330       4341       4340  
      4209       4210       4221       4220       4330       4331       4342       4341  
      4210       4211       4222       4221       4331       4332       4343       4342  
      4211       4212       4223       4222       4332       4333       4344       4343  
      4212       4213       4224       4223       4333       4334       4345       4344  
      4214       4215       4226       4225       4335       4336       4347       4346  
      4215       4216       4227       4226       4336       4337       4348       4347  
      4216       4217       4228       4227       4337       4338       4349       4348  
      4217       4218       4229       4228       4338       4339       4350       4349  
      4218       4219       4230       4229       4339       4340       4351       4350  
      4219       4220       4231       4230       4340       4341       4352       4351  
      4220       4221       4232       4231       4341       4342       4353       4352  
      4221       4222       4233       4232       4342       4343       4354       4353  
      4222       4223       4234       4233       4343       4344       4355       4354  
      4223       4224       4235       4234       4344       4345       4356       4355  
      4236       4237       4248       4247       4357       4358       4369       4368  
      4237       4238       4249       4248       4358       4359       4370       4369  
      4238       4239       4250       4249       4359       4360       4371       4370  
      4239       4240       4251       4250       4360       4361       4372       4371  
      4240       4241       4252       4251       4361       4362       4373       4372  
      4241       4242       4253       4252       4362       4363       4374       4373  
      4242       4243       4254       4253       4363       4364       4375       4374  
      4243       4244       4255       4254       4364       4365       4376       4375  
      4244       4245       4256       4255       4365       4366       4377       4376  
      4245       4246       4257       4256       4366       4367       4378       4377  
      4247       4248       4259       4258       4368       4369       4380       4379  
      4248       4249       4260       4259       4369       4370       4381       4380  
      4249       4250       4261       4260       4370       4371       4382       4381  
      4250       4251       4262       4261       4371       4372       4383       4382  
      4251       4252       4263       4262       4372       4373       4384       4383  
      4252       4253       4264       4263       4373       4374       4385       4384  
      4253       4254       4265       4264       4374       4375       4386       4385  
      4254       4255       4266       4265       4375       4376       4387       4386  
      4255       4256       4267       4266       4376       4377       4388       4387  
      4256       4257       4268       4267       4377       4378       4389       4388  
      4258       4259       4270       4269       4379       4380       4391       4390  
      4259       4260       4271       4270       4380       4381       4392       4391  
      4260       4261       4272       4271       4381       4382       4393       4392  
      4261       4262       4273       4272       4382       4383       4394       4393  
      4262       4263       4274       4273       4383       4384       4395       4394  
      4263       4264       4275       4274       4384       4385       4396       4395  
      4264       4265       4276       4275       4385       4386       4397       4396  
      4265       4266       4277       4276       4386       4387       4398       4397  
      4266       4267       4278       4277       4387       4388       4399       4398  
      4267       4268       4279       4278       4388       4389       4400       4399  
      4269       4270       4281       4280       4390       4391       4402       4401  
      4270       4271       4282       4281       4391       4392       4403       4402  
      4271       4272       4283       4282       4392       4393       4404       4403  
      4272       4273       4284       4283       4393       4394       4405       4404  
      4273       4274       4285       4284       4394       4395       4406       4405  
      4274       4275       4286       4285       4395       4396       4407       4406  
      4275       4276       4287       4286       4396       4397       4408       4407  
      4276       4277       4288       4287       4397       4398       4409       4408  
      4277       4278       4289       4288       4398       4399       4410       4409  
      4278       4279       4290       4289       4399       4400       4411       4410  
      4280       4281       4292       4291       4401       4402       4413       4412  
      4281       4282       4293       4292       4402       4403       4414       4413  
      4282       4283       4294       4293       4403       4404       4415       4414  
      4283       4284       4295       4294       4404       4405       4416       4415  
      4284       4285       4296       4295       4405       4406       4417       4416  
      4285       4286       4297       4296       4406       4407       4418       4417  
      4286       4287       4298       4297       4407       4408       4419       4418  
      4287       4288       4299       4298       4408       4409       4420       4419  
      4288       4289       4300       4299       4409       4410       4421       4420  
      4289       4290       4301       4300       4410       4411       4422       4421  
      4291       4292       4303       4302       4412       4413       4424       4423  
      4292       4293       4304       4303       4413       4414       4425       4424  
      4293       4294       4305       4304       4414       4415       4426       4425  
      4294       4295       4306       4305       4415       4416       4427       4426  
      4295       4296       4307       4306       4416       4417       4428       4427  
      4296       4297       4308       4307       4417       4418       4429       4428  
      4297       4298       4309       4308       4418       4419       4430       4429  
      4298       4299       4310       4309       4419       4420       4431       4430  
      4299       4300       4311       4310       4420       4421       4432       4431  
      4300       4301       4312       4311       4421       4422       4433       4432  
      4302       4303       4314       4313       4423       4424       4435       4434  
      4303       4304       4315       4314       4424       4425       4436       4435  
      4304       4305       4316       4315       4425       4426       4437       4436  
      4305       4306       4317       4316       4426       4427       4438       4437  
      4306       4307       4318       4317       4427       4428       4439       4438  
      4307       4308       4319       4318       4428       4429       4440       4439  
      4308       4309       4320       4319       4429       4430       4441       4440  
      4309       4310       4321       4320       4430       4431       4442       4441  
      4310       4311       4322       4321       4431       4432       4443       4442  
      4311       4312       4323       4322       4432       4433       4444       4443  
      4313       4314       4325       4324       4434       4435       4446       4445  
      4314       4315       4326       4325       4435       4436       4447       4446  
      4315       4316       4327       4326       4436       4437       4448       4447  
      4316       4317       4328       4327       4437       4438       4449       4448  
      4317       4318       4329       4328       4438       4439       4450       4449  
      4318       4319       4330       4329       4439       4440       4451       4450  
      4319       4320       4331       4330       4440       4441       4452       4451  
      4320       4321       4332       4331       4441       4442       4453       4452  
      4321       4322       4333       4332       4442       4443       4454       4453  
      4322       4323       4334       4333       4443       4444       4455       4454  
      4324       4325       4336       4335       4445       4446       4457       4456  
      4325       4326       4337       4336       4446       4447       4458       4457  
      4326       4327       4338       4337       4447       4448       4459       4458  
      4327       4328       4339       4338       4448       4449       4460       4459  
      4328       4329       4340       4339       4449       4450       4461       4460  
      4329       4330       4341       4340       4450       4451       4462       4461  
      4330       4331       4342       4341       4451       4452       4463       4462  
      4331       4332       4343       4342       4452       4453       4464       4463  
      4332       4333       4344       4343       4453       4454       4465       4464  
      4333       4334       4345       4344       4454       4455       4466       4465  
      4335       4336       4347       4346       4456       4457       4468       4467  
      4336       4337       4348       4347       4457       4458       4469       4468  
      4337       4338       4349       4348       4458       4459       4470       4469  
      4338       4339       4350       4349       4459       4460       4471       4470  
      4339       4340       4351       4350       4460       4461       4472       4471  
      4340       4341       4352       4351       4461       4462       4473       4472  
      4341       4342       4353       4352       4462       4463       4474       4473  
      4342       4343       4354       4353       4463       4464       4475       4474  
      4343       4344       4355       4354       4464       4465       4476       4475  
      4344       4345       4356       4355       4465       4466       4477       4476  
      4357       4358       4369       4368       4478       4479       4490       4489  
      4358       4359       4370       4369       4479       4480       4491       4490  
      4359       4360       4371       4370       4480       4481       4492       4491  
      4360       4361       4372       4371       4481       4482       4493       4492  
      4361       4362       4373       4372       4482       4483       4494       4493  
      4362       4363       4374       4373       4483       4484       4495       4494  
      4363       4364       4375       4374       4484       4485       4496       4495  
      4364       4365       4376       4375       4485       4486       4497       4496  
      4365       4366       4377       4376       4486       4487       4498       4497  
      4366       4367       4378       4377       4487       4488       4499       4498  
      4368       4369       4380       4379       4489       4490       4501       4500  
      4369       4370       4381       4380       4490       4491       4502       4501  
      4370       4371       4382       4381       4491       4492       4503       4502  
      4371       4372       4383       4382       4492       4493       4504       4503  
      4372       4373       4384       4383       4493       4494       4505       4504  
      4373       4374       4385       4384       4494       4495       4506       4505  
      4374       4375       4386       4385       4495       4496       4507       4506  
      4375       4376       4387       4386       4496       4497       4508       4507  
      4376       4377       4388       4387       4497       4498       4509       4508  
      4377       4378       4389       4388       4498       4499       4510       4509  
      4379       4380       4391       4390       4500       4501       4512       4511  
      4380       4381       4392       4391       4501       4502       4513       4512  
      4381       4382       4393       4392       4502       4503       4514       4513  
      4382       4383       4394       4393       4503       4504       4515       4514  
      4383       4384       4395       4394       4504       4505       4516       4515  
      4384       4385       4396       4395       4505       4506       4517       4516  
      4385       4386       4397       4396       4506       4507       4518       4517  
      4386       4387       4398       4397       4507       4508       4519       4518  
      4387       4388       4399       4398       4508       4509       4520       4519  
      4388       4389       4400       4399       4509       4510       4521       4520  
      4390       4391       4402       4401       4511       4512       4523       4522  
      4391       4392       4403       4402       4512       4513       4524       4523  
      4392       4393       4404       4403       4513       4514       4525       4524  
      4393       4394       4405       4404       4514       4515       4526       4525  
      4394       4395       4406       4405       4515       4516       4527       4526  
      4395       4396       4407       4406       4516       4517       4528       4527  
      4396       4397       4408       4407       4517       4518       4529       4528  
      4397       4398       4409       4408       4518       4519       4530       4529  
      4398       4399       4410       4409       4519       4520       4531       4530  
      4399       4400       4411       4410       4520       4521       4532       4531  
      4401       4402       4413       4412       4522       4523       4534       4533  
      4402       4403       4414       4413       4523       4524       4535       4534  
      4403       4404       4415       4414       4524       4525       4536       4535  
      4404       4405       4416       4415       4525       4526       4537       4536  
      4405       4406       4417       4416       4526       4527       4538       4537  
      4406       4407       4418       4417       4527       4528       4539       4538  
      4407       4408       4419       4418       4528       4529       4540       4539  
      4408       4409       4420       4419       4529       4530       4541       4540  
      4409       4410       4421       4420       4530       4531       4542       4541  
      4410       4411       4422       4421       4531       4532       4543       4542  
      4412       4413       4424       4423       4533       4534       4545       4544  
      4413       4414       4425       4424       4534       4535       4546       4545  
      4414       4415       4426       4425       4535       4536       4547       4546  
      4415       4416       4427       4426       4536       4537       4548       4547  
      4416       4417       4428       4427       4537       4538       4549       4548  
      4417       4418       4429       4428       4538       4539       4550       4549  
      4418       4419       4430       4429       4539       4540       4551       4550  
      4419       4420       4431       4430       4540       4541       4552       4551  
      4420       4421       4432       4431       4541       4542       4553       4552  
      4421       4422       4433       4432       4542       4543       4554       4553  
      4423       4424       4435       4434       4544       4545       4556       4555  
      4424       4425       4436       4435       4545       4546       4557       4556  
      4425       4426       4437       4436       4546       4547       4558       4557  
      4426       4427       4438       4437       4547       4548       4559       4558  
      4427       4428       4439       4438       4548       4549       4560       4559  
      4428       4429       4440       4439       4549       4550       4561       4560  
      4429       4430       4441       4440       4550       4551       4562       4561  
      4430       4431       4442       4441       4551       4552       4563       4562  
      4431       4432       4443       4442       4552       4553       4564       4563  
      4432       4433       4444       4443       4553       4554       4565       4564  
      4434       4435       4446       4445       4555       4556       4567       4566  
      4435       4436       4447       4446       4556       4557       4568       4567  
      4436       4437       4448       4447       4557       4558       4569       4568  
      4437       4438       4449       4448       4558       4559       4570       4569  
      4438       4439       4450       4449       4559       4560       4571       4570  
      4439       4440       4451       4450       4560       4561       4572       4571  
      4440       4441       4452       4451       4561       4562       4573       4572  
      4441       4442       4453       4452       4562       4563       4574       4573  
      4442       4443       4454       4453       4563       4564       4575       4574  
      4443       4444       4455       4454       4564       4565       4576       4575  
      4445       4446       4457       4456       4566       4567       4578       4577  
      4446       4447       4458       4457       4567       4568       4579       4578  
      4447       4448       4459       4458       4568       4569       4580       4579  
      4448       4449       4460       4459       4569       4570       4581       4580  
      4449       4450       4461       4460       4570       4571       4582       4581  
      4450       4451       4462       4461       4571       4572       4583       4582  
      4451       4452       4463       4462       4572       4573       4584       4583  
      4452       4453       4464       4463       4573       4574       4585       4584  
      4453       4454       4465       4464       4574       4575       4586       4585  
      4454       4455       4466       4465       4575       4576       4587       4586  
      4456       4457       4468       4467       4577       4578       4589       4588  
      4457       4458       4469       4468       4578       4579       4590       4589  
      4458       4459       4470       4469       4579       4580       4591       4590  
      4459       4460       4471       4470       4580       4581       4592       4591  
      4460       4461       4472       4471       4581       4582       4593       4592  
      4461       4462       4473       4472       4582       4583       4594       4593  
      4462       4463       4474       4473       4583       4584       4595       4594  
      4463       4464       4475       4474       4584       4585       4596       4595  
      4464       4465       4476       4475       4585       4586       4597       4596  
      4465       4466       4477       4476       4586       4587       4598       4597  
      4478       4479       4490       4489       4599       4600       4611       4610  
      4479       4480       4491       4490       4600       4601       4612       4611  
      4480       4481       4492       4491       4601       4602       4613       4612  
      4481       4482       4493       4492       4602       4603       4614       4613  
      4482       4483       4494       4493       4603       4604       4615       4614  
      4483       4484       4495       4494       4604       4605       4616       4615  
      4484       4485       4496       4495       4605       4606       4617       4616  
      4485       4486       4497       4496       4606       4607       4618       4617  
      4486       4487       4498       4497       4607       4608       4619       4618  
      4487       4488       4499       4498       4608       4609       4620       4619  
      4489       4490       4501       4500       4610       4611       4622       4621  
      4490       4491       4502       4501       4611       4612       4623       4622  
      4491       4492       4503       4502       4612       4613       4624       4623  
      4492       4493       4504       4503       4613       4614       4625       4624  
      4493       4494       4505       4504       4614       4615       4626       4625  
      4494       4495       4506       4505       4615       4616       4627       4626  
      4495       4496       4507       4506       4616       4617       4628       4627  
      4496       4497       4508       4507       4617       4618       4629       4628  
      4497       4498       4509       4508       4618       4619       4630       4629  
      4498       4499       4510       4509       4619       4620       4631       4630  
      4500       4501       4512       4511       4621       4622       4633       4632  
      4501       4502       4513       4512       4622       4623       4634       4633  
      4502       4503       4514       4513       4623       4624       4635       4634  
      4503       4504       4515       4514       4624       4625       4636       4635  
      4504       4505       4516       4515       4625       4626       4637       4636  
      4505       4506       4517       4516       4626       4627       4638       4637  
      4506       4507       4518       4517       4627       4628       4639       4638  
      4507       4508       4519       4518       4628       4629       4640       4639  
      4508       4509       4520       4519       4629       4630       4641       4640  
      4509       4510       4521       4520       4630       4631       4642       4641  
      4511       4512       4523       4522       4632       4633       4644       4643  
      4512       4513       4524       4523       4633       4634       4645       4644  
      4513       4514       4525       4524       4634       4635       4646       4645  
      4514       4515       4526       4525       4635       4636       4647       4646  
      4515       4516       4527       4526       4636       4637       4648       4647  
      4516       4517       4528       4527       4637       4638       4649       4648  
      4517       4518       4529       4528       4638       4639       4650       4649  
      4518       4519       4530       4529       4639       4640       4651       4650  
      4519       4520       4531       4530       4640       4641       4652       4651  
      4520       4521       4532       4531       4641       4642       4653       4652  
      4522       4523       4534       4533       4643       4644       4655       4654  
      4523       4524       4535       4534       4644       4645       4656       4655  
      4524       4525       4536       4535       4645       4646       4657       4656  
      4525       4526       4537       4536       4646       4647       4658       4657  
      4526       4527       4538       4537       4647       4648       4659       4658  
      4527       4528       4539       4538       4648       4649       4660       4659  
      4528       4529       4540       4539       4649       4650       4661       4660  
      4529       4530       4541       4540       4650       4651       4662       4661  
      4530       4531       4542       4541       4651       4652       4663       4662  
      4531       4532       4543       4542       4652       4653       4664       4663  
      4533       4534       4545       4544       4654       4655       4666       4665  
      4534       4535       4546       4545       4655       4656       4667       4666  
      4535       4536       4547       4546       4656       4657       4668       4667  
      4536       4537       4548       4547       4657       4658       4669       4668  
      4537       4538       4549       4548       4658       4659       4670       4669  
      4538       4539       4550       4549       4659       4660       4671       4670  
      4539       4540       4551       4550       4660       4661       4672       4671  
      4540       4541       4552       4551       4661       4662       4673       4672  
      4541       4542       4553       4552       4662       4663       4674       4673  
      4542       4543       4554       4553       4663       4664       4675       4674  
      4544       4545       4556       4555       4665       4666       4677       4676  
      4545       4546       4557       4556       4666       4667       4678       4677  
      4546       4547       4558       4557       4667       4668       4679       4678  
      4547       4548       4559       4558       4668       4669       4680       4679  
      4548       4549       4560       4559       4669       4670       4681       4680  
      4549       4550       4561       4560       4670       4671       4682       4681  
      4550       4551       4562       4561       4671       4672       4683       4682  
      4551       4552       4563       4562       4672       4673       4684       4683  
      4552       4553       4564       4563       4673       4674       4685       4684  
      4553       4554       4565       4564       4674       4675       4686       4685  
      4555       4556       4567       4566       4676       4677       4688       4687  
      4556       4557       4568       4567       4677       4678       4689       4688  
      4557       4558       4569       4568       4678       4679       4690       4689  
      4558       4559       4570       4569       4679       4680       4691       4690  
      4559       4560       4571       4570       4680       4681       4692       4691  
      4560       4561       4572       4571       4681       4682       4693       4692  
      4561       4562       4573       4572       4682       4683       4694       4693  
      4562       4563       4574       4573       4683       4684       4695       4694  
      4563       4564       4575       4574       4684       4685       4696       4695  
      4564       4565       4576       4575       4685       4686       4697       4696  
      4566       4567       4578       4577       4687       4688       4699       4698  
      4567       4568       4579       4578       4688       4689       4700       4699  
      4568       4569       4580       4579       4689       4690       4701       4700  
      4569       4570       4581       4580       4690       4691       4702       4701  
      4570       4571       4582       4581       4691       4692       4703       4702  
      4571       4572       4583       4582       4692       4693       4704       4703  
      4572       4573       4584       4583       4693       4694       4705       4704  
      4573       4574       4585       4584       4694       4695       4706       4705  
      4574       4575       4586       4585       4695       4696       4707       4706  
      4575       4576       4587       4586       4696       4697       4708       4707  
      4577       4578       4589       4588       4698       4699       4710       4709  
      4578       4579       4590       4589       4699       4700       4711       4710  
      4579       4580       4591       4590       4700       4701       4712       4711  
      4580       4581       4592       4591       4701       4702       4713       4712  
      4581       4582       4593       4592       4702       4703       4714       4713  
      4582       4583       4594       4593       4703       4704       4715       4714  
      4583       4584       4595       4594       4704       4705       4716       4715  
      4584       4585       4596       4595       4705       4706       4717       4716  
      4585       4586       4597       4596       4706       4707       4718       4717  
      4586       4587       4598       4597       4707       4708       4719       4718  
      4599       4600       4611       4610       4720       4721       4732       4731  
      4600       4601       4612       4611       4721       4722       4733       4732  
      4601       4602       4613       4612       4722       4723       4734       4733  
      4602       4603       4614       4613       4723       4724       4735       4734  
      4603       4604       4615       4614       4724       4725       4736       4735  
      4604       4605       4616       4615       4725       4726       4737       4736  
      4605       4606       4617       4616       4726       4727       4738       4737  
      4606       4607       4618       4617       4727       4728       4739       4738  
      4607       4608       4619       4618       4728       4729       4740       4739  
      4608       4609       4620       4619       4729       4730       4741       4740  
      4610       4611       4622       4621       4731       4732       4743       4742  
      4611       4612       4623       4622       4732       4733       4744       4743  
      4612       4613       4624       4623       4733       4734       4745       4744  
      4613       4614       4625       4624       4734       4735       4746       4745  
      4614       4615       4626       4625       4735       4736       4747       4746  
      4615       4616       4627       4626       4736       4737       4748       4747  
      4616       4617       4628       4627       4737       4738       4749       4748  
      4617       4618       4629       4628       4738       4739       4750       4749  
      4618       4619       4630       4629       4739       4740       4751       4750  
      4619       4620       4631       4630       4740       4741       4752       4751  
      4621       4622       4633       4632       4742       4743       4754       4753  
      4622       4623       4634       4633       4743       4744       4755       4754  
      4623       4624       4635       4634       4744       4745       4756       4755  
      4624       4625       4636       4635       4745       4746       4757       4756  
      4625       4626       4637       4636       4746       4747       4758       4757  
      4626       4627       4638       4637       4747       4748       4759       4758  
      4627       4628       4639       4638       4748       4749       4760       4759  
      4628       4629       4640       4639       4749       4750       4761       4760  
      4629       4630       4641       4640       4750       4751       4762       4761  
      4630       4631       4642       4641       4751       4752       4763       4762  
      4632       4633       4644       4643       4753       4754       4765       4764  
      4633       4634       4645       4644       4754       4755       4766       4765  
      4634       4635       4646       4645       4755       4756       4767       4766  
      4635       4636       4647       4646       4756       4757       4768       4767  
      4636       4637       4648       4647       4757       4758       4769       4768  
      4637       4638       4649       4648       4758       4759       4770       4769  
      4638       4639       4650       4649       4759       4760       4771       4770  
      4639       4640       4651       4650       4760       4761       4772       4771  
      4640       4641       4652       4651       4761       4762       4773       4772  
      4641       4642       4653       4652       4762       4763       4774       4773  
      4643       4644       4655       4654       4764       4765       4776       4775  
      4644       4645       4656       4655       4765       4766       4777       4776  
      4645       4646       4657       4656       4766       4767       4778       4777  
      4646       4647       4658       4657       4767       4768       4779       4778  
      4647       4648       4659       4658       4768       4769       4780       4779  
      4648       4649       4660       4659       4769       4770       4781       4780  
      4649       4650       4661       4660       4770       4771       4782       4781  
      4650       4651       4662       4661       4771       4772       4783       4782  
      4651       4652       4663       4662       4772       4773       4784       4783  
      4652       4653       4664       4663       4773       4774       4785       4784  
      4654       4655       4666       4665       4775       4776       4787       4786  
      4655       4656       4667       4666       4776       4777       4788       4787  
      4656       4657       4668       4667       4777       4778       4789       4788  
      4657       4658       4669       4668       4778       4779       4790       4789  
      4658       4659       4670       4669       4779       4780       4791       4790  
      4659       4660       4671       4670       4780       4781       4792       4791  
      4660       4661       4672       4671       4781       4782       4793       4792  
      4661       4662       4673       4672       4782       4783       4794       4793  
      4662       4663       4674       4673       4783       4784       4795       4794  
      4663       4664       4675       4674       4784       4785       4796       4795  
      4665       4666       4677       4676       4786       4787       4798       4797  
      4666       4667       4678       4677       4787       4788       4799       4798  
      4667       4668       4679       4678       4788       4789       4800       4799  
      4668       4669       4680       4679       4789       4790       4801       4800  
      4669       4670       4681       4680       4790       4791       4802       4801  
      4670       4671       4682       4681       4791       4792       4803       4802  
      4671       4672       4683       4682       4792       4793       4804       4803  
      4672       4673       4684       4683       4793       4794       4805       4804  
      4673       4674       4685       4684       4794       4795       4806       4805  
      4674       4675       4686       4685       4795       4796       4807       4806  
      4676       4677       4688       4687       4797       4798       4809       4808  
      4677       4678       4689       4688       4798       4799       4810       4809  
      4678       4679       4690       4689       4799       4800       4811       4810  
      4679       4680       4691       4690       4800       4801       4812       4811  
      4680       4681       4692       4691       4801       4802       4813       4812  
      4681       4682       4693       4692       4802       4803       4814       4813  
      4682       4683       4694       4693       4803       4804       4815       4814  
      4683       4684       4695       4694       4804       4805       4816       4815  
      4684       4685       4696       4695       4805       4806       4817       4816  
      4685       4686       4697       4696       4806       4807       4818       4817  
      4687       4688       4699       4698       4808       4809       4820       4819  
      4688       4689       4700       4699       4809       4810       4821       4820  
      4689       4690       4701       4700       4810       4811       4822       4821  
      4690       4691       4702       4701       4811       4812       4823       4822  
      4691       4692       4703       4702       4812       4813       4824       4823  
      4692       4693       4704       4703       4813       4814       4825       4824  
      4693       4694       4705       4704       4814       4815       4826       4825  
      4694       4695       4706       4705       4815       4816       4827       4826  
      4695       4696       4707       4706       4816       4817       4828       4827  
      4696       4697       4708       4707       4817       4818       4829       4828  
      4698       4699       4710       4709       4819       4820       4831       4830  
      4699       4700       4711       4710       4820       4821       4832       4831  
      4700       4701       4712       4711       4821       4822       4833       4832  
      4701       4702       4713       4712       4822       4823       4834       4833  
      4702       4703       4714       4713       4823       4824       4835       4834  
      4703       4704       4715       4714       4824       4825       4836       4835  
      4704       4705       4716       4715       4825       4826       4837       4836  
      4705       4706       4717       4716       4826       4827       4838       4837  
      4706       4707       4718       4717       4827       4828       4839       4838  
      4707       4708       4719       4718       4828       4829       4840       4839  
      4720       4721       4732       4731       4841       4842       4853       4852  
      4721       4722       4733       4732       4842       4843       4854       4853  
      4722       4723       4734       4733       4843       4844       4855       4854  
      4723       4724       4735       4734       4844       4845       4856       4855  
      4724       4725       4736       4735       4845       4846       4857       4856  
      4725       4726       4737       4736       4846       4847       4858       4857  
      4726       4727       4738       4737       4847       4848       4859       4858  
      4727       4728       4739       4738       4848       4849       4860       4859  
      4728       4729       4740       4739       4849       4850       4861       4860  
      4729       4730       4741       4740       4850       4851       4862       4861  
      4731       4732       4743       4742       4852       4853       4864       4863  
      4732       4733       4744       4743       4853       4854       4865       4864  
      4733       4734       4745       4744       4854       4855       4866       4865  
      4734       4735       4746       4745       4855       4856       4867       4866  
      4735       4736       4747       4746       4856       4857       4868       4867  
      4736       4737       4748       4747       4857       4858       4869       4868  
      4737       4738       4749       4748       4858       4859       4870       4869  
      4738       4739       4750       4749       4859       4860       4871       4870  
      4739       4740       4751       4750       4860       4861       4872       4871  
      4740       4741       4752       4751       4861       4862       4873       4872  
      4742       4743       4754       4753       4863       4864       4875       4874  
      4743       4744       4755       4754       4864       4865       4876       4875  
      4744       4745       4756       4755       4865       4866       4877       4876  
      4745       4746       4757       4756       4866       4867       4878       4877  
      4746       4747       4758       4757       4867       4868       4879       4878  
      4747       4748       4759       4758       4868       4869       4880       4879  
      4748       4749       4760       4759       4869       4870       4881       4880  
      4749       4750       4761       4760       4870       4871       4882       4881  
      4750       4751       4762       4761       4871       4872       4883       4882  
      4751       4752       4763       4762       4872       4873       4884       4883  
      4753       4754       4765       4764       4874       4875       4886       4885  
      4754       4755       4766       4765       4875       4876       4887       4886  
      4755       4756       4767       4766       4876       4877       4888       4887  
      4756       4757       4768       4767       4877       4878       4889       4888  
      4757       4758       4769       4768       4878       4879       4890       4889  
      4758       4759       4770       4769       4879       4880       4891       4890  
      4759       4760       4771       4770       4880       4881       4892       4891  
      4760       4761       4772       4771       4881       4882       4893       4892  
      4761       4762       4773       4772       4882       4883       4894       4893  
      4762       4763       4774       4773       4883       4884       4895       4894  
      4764       4765       4776       4775       4885       4886       4897       4896  
      4765       4766       4777       4776       4886       4887       4898       4897  
      4766       4767       4778       4777       4887       4888       4899       4898  
      4767       4768       4779       4778       4888       4889       4900       4899  
      4768       4769       4780       4779       4889       4890       4901       4900  
      4769       4770       4781       4780       4890       4891       4902       4901  
      4770       4771       4782       4781       4891       4892       4903       4902  
      4771       4772       4783       4782       4892       4893       4904       4903  
      4772       4773       4784       4783       4893       4894       4905       4904  
      4773       4774       4785       4784       4894       4895       4906       4905  
      4775       4776       4787       4786       4896       4897       4908       4907  
      4776       4777       4788       4787       4897       4898       4909       4908  
      4777       4778       4789       4788       4898       4899       4910       4909  
      4778       4779       4790       4789       4899       4900       4911       4910  
      4779       4780       4791       4790       4900       4901       4912       4911  
      4780       4781       4792       4791       4901       4902       4913       4912  
      4781       4782       4793       4792       4902       4903       4914       4913  
      4782       4783       4794       4793       4903       4904       4915       4914  
      4783       4784       4795       4794       4904       4905       4916       4915  
      4784       4785       4796       4795       4905       4906       4917       4916  
      4786       4787       4798       4797       4907       4908       4919       4918  
      4787       4788       4799       4798       4908       4909       4920       4919  
      4788       4789       4800       4799       4909       4910       4921       4920  
      4789       4790       4801       4800       4910       4911       4922       4921  
      4790       4791       4802       4801       4911       4912       4923       4922  
      4791       4792       4803       4802       4912       4913       4924       4923  
      4792       4793       4804       4803       4913       4914       4925       4924  
      4793       4794       4805       4804       4914       4915       4926       4925  
      4794       4795       4806       4805       4915       4916       4927       4926  
      4795       4796       4807       4806       4916       4917       4928       4927  
      4797       4798       4809       4808       4918       4919       4930       4929  
      4798       4799       4810       4809       4919       4920       4931       4930  
      4799       4800       4811       4810       4920       4921       4932       4931  
      4800       4801       4812       4811       4921       4922       4933       4932  
      4801       4802       4813       4812       4922       4923       4934       4933  
      4802       4803       4814       4813       4923       4924       4935       4934  
      4803       4804       4815       4814       4924       4925       4936       4935  
      4804       4805       4816       4815       4925       4926       4937       4936  
      4805       4806       4817       4816       4926       4927       4938       4937  
      4806       4807       4818       4817       4927       4928       4939       4938  
      4808       4809       4820       4819       4929       4930       4941       4940  
      4809       4810       4821       4820       4930       4931       4942       4941  
      4810       4811       4822       4821       4931       4932       4943       4942  
      4811       4812       4823       4822       4932       4933       4944       4943  
      4812       4813       4824       4823       4933       4934       4945       4944  
      4813       4814       4825       4824       4934       4935       4946       4945  
      4814       4815       4826       4825       4935       4936       4947       4946  
      4815       4816       4827       4826       4936       4937       4948       4947  
      4816       4817       4828       4827       4937       4938       4949       4948  
      4817       4818       4829       4828       4938       4939       4950       4949  
      4819       4820       4831       4830       4940       4941       4952       4951  
      4820       4821       4832       4831       4941       4942       4953       4952  
      4821       4822       4833       4832       4942       4943       4954       4953  
      4822       4823       4834       4833       4943       4944       4955       4954  
      4823       4824       4835       4834       4944       4945       4956       4955  
      4824       4825       4836       4835       4945       4946       4957       4956  
      4825       4826       4837       4836       4946       4947       4958       4957  
      4826       4827       4838       4837       4947       4948       4959       4958  
      4827       4828       4839       4838       4948       4949       4960       4959  
      4828       4829       4840       4839       4949       4950       4961       4960  
      4841       4842       4853       4852       4962       4963       4974       4973  
      4842       4843       4854       4853       4963       4964       4975       4974  
      4843       4844       4855       4854       4964       4965       4976       4975  
      4844       4845       4856       4855       4965       4966       4977       4976  
      4845       4846       4857       4856       4966       4967       4978       4977  
      4846       4847       4858       4857       4967       4968       4979       4978  
      4847       4848       4859       4858       4968       4969       4980       4979  
      4848       4849       4860       4859       4969       4970       4981       4980  
      4849       4850       4861       4860       4970       4971       4982       4981  
      4850       4851       4862       4861       4971       4972       4983       4982  
      4852       4853       4864       4863       4973       4974       4985       4984  
      4853       4854       4865       4864       4974       4975       4986       4985  
      4854       4855       4866       4865       4975       4976       4987       4986  
      4855       4856       4867       4866       4976       4977       4988       4987  
      4856       4857       4868       4867       4977       4978       4989       4988  
      4857       4858       4869       4868       4978       4979       4990       4989  
      4858       4859       4870       4869       4979       4980       4991       4990  
      4859       4860       4871       4870       4980       4981       4992       4991  
      4860       4861       4872       4871       4981       4982       4993       4992  
      4861       4862       4873       4872       4982       4983       4994       4993  
      4863       4864       4875       4874       4984       4985       4996       4995  
      4864       4865       4876       4875       4985       4986       4997       4996  
      4865       4866       4877       4876       4986       4987       4998       4997  
      4866       4867       4878       4877       4987       4988       4999       4998  
      4867       4868       4879       4878       4988       4989       5000       4999  
      4868       4869       4880       4879       4989       4990       5001       5000  
      4869       4870       4881       4880       4990       4991       5002       5001  
      4870       4871       4882       4881       4991       4992       5003       5002  
      4871       4872       4883       4882       4992       4993       5004       5003  
      4872       4873       4884       4883       4993       4994       5005       5004  
      4874       4875       4886       4885       4995       4996       5007       5006  
      4875       4876       4887       4886       4996       4997       5008       5007  
      4876       4877       4888       4887       4997       4998       5009       5008  
      4877       4878       4889       4888       4998       4999       5010       5009  
      4878       4879       4890       4889       4999       5000       5011       5010  
      4879       4880       4891       4890       5000       5001       5012       5011  
      4880       4881       4892       4891       5001       5002       5013       5012  
      4881       4882       4893       4892       5002       5003       5014       5013  
      4882       4883       4894       4893       5003       5004       5015       5014  
      4883       4884       4895       4894       5004       5005       5016       5015  
      4885       4886       4897       4896       5006       5007       5018       5017  
      4886       4887       4898       4897       5007       5008       5019       5018  
      4887       4888       4899       4898       5008       5009       5020       5019  
      4888       4889       4900       4899       5009       5010       5021       5020  
      4889       4890       4901       4900       5010       5011       5022       5021  
      4890       4891       4902       4901       5011       5012       5023       5022  
      4891       4892       4903       4902       5012       5013       5024       5023  
      4892       4893       4904       4903       5013       5014       5025       5024  
      4893       4894       4905       4904       5014       5015       5026       5025  
      4894       4895       4906       4905       5015       5016       5027       5026  
      4896       4897       4908       4907       5017       5018       5029       5028  
      4897       4898       4909       4908       5018       5019       5030       5029  
      4898       4899       4910       4909       5019       5020       5031       5030  
      4899       4900       4911       4910       5020       5021       5032       5031  
      4900       4901       4912       4911       5021       5022       5033       5032  
      4901       4902       4913       4912       5022       5023       5034       5033  
      4902       4903       4914       4913       5023       5024       5035       5034  
      4903       4904       4915       4914       5024       5025       5036       5035  
      4904       4905       4916       4915       5025       5026       5037       5036  
      4905       4906       4917       4916       5026       5027       5038       5037  
      4907       4908       4919       4918       5028       5029       5040       5039  
      4908       4909       4920       4919       5029       5030       5041       5040  
      4909       4910       4921       4920       5030       5031       5042       5041  
      4910       4911       4922       4921       5031       5032       5043       5042  
      4911       4912       4923       4922       5032       5033       5044       5043  
      4912       4913       4924       4923       5033       5034       5045       5044  
      4913       4914       4925       4924       5034       5035       5046       5045  
      4914       4915       4926       4925       5035       5036       5047       5046  
      4915       4916       4927       4926       5036       5037       5048       5047  
      4916       4917       4928       4927       5037       5038       5049       5048  
      4918       4919       4930       4929       5039       5040       5051       5050  
      4919       4920       4931       4930       5040       5041       5052       5051  
      4920       4921       4932       4931       5041       5042       5053       5052  
      4921       4922       4933       4932       5042       5043       5054       5053  
      4922       4923       4934       4933       5043       5044       5055       5054  
      4923       4924       4935       4934       5044       5045       5056       5055  
      4924       4925       4936       4935       5045       5046       5057       5056  
      4925       4926       4937       4936       5046       5047       5058       5057  
      4926       4927       4938       4937       5047       5048       5059       5058  
      4927       4928       4939       4938       5048       5049       5060       5059  
      4929       4930       4941       4940       5050       5051       5062       5061  
      4930       4931       4942       4941       5051       5052       5063       5062  
      4931       4932       4943       4942       5052       5053       5064       5063  
      4932       4933       4944       4943       5053       5054       5065       5064  
      4933       4934       4945       4944       5054       5055       5066       5065  
      4934       4935       4946       4945       5055       5056       5067       5066  
      4935       4936       4947       4946       5056       5057       5068       5067  
      4936       4937       4948       4947       5057       5058       5069       5068  
      4937       4938       4949       4948       5058       5059       5070       5069  
      4938       4939       4950       4949       5059       5060       5071       5070  
      4940       4941       4952       4951       5061       5062       5073       5072  
      4941       4942       4953       4952       5062       5063       5074       5073  
      4942       4943       4954       4953       5063       5064       5075       5074  
      4943       4944       4955       4954       5064       5065       5076       5075  
      4944       4945       4956       4955       5065       5066       5077       5076  
      4945       4946       4957       4956       5066       5067       5078       5077  
      4946       4947       4958       4957       5067       5068       5079       5078  
      4947       4948       4959       4958       5068       5069       5080       5079  
      4948       4949       4960       4959       5069       5070       5081       5080  
      4949       4950       4961       4960       5070       5071       5082       5081  
      4962       4963       4974       4973       5083       5084       5095       5094  
      4963       4964       4975       4974       5084       5085       5096       5095  
      4964       4965       4976       4975       5085       5086       5097       5096  
      4965       4966       4977       4976       5086       5087       5098       5097  
      4966       4967       4978       4977       5087       5088       5099       5098  
      4967       4968       4979       4978       5088       5089       5100       5099  
      4968       4969       4980       4979       5089       5090       5101       5100  
      4969       4970       4981       4980       5090       5091       5102       5101  
      4970       4971       4982       4981       5091       5092       5103       5102  
      4971       4972       4983       4982       5092       5093       5104       5103  
      4973       4974       4985       4984       5094       5095       5106       5105  
      4974       4975       4986       4985       5095       5096       5107       5106  
      4975       4976       4987       4986       5096       5097       5108       5107  
      4976       4977       4988       4987       5097       5098       5109       5108  
      4977       4978       4989       4988       5098       5099       5110       5109  
      4978       4979       4990       4989       5099       5100       5111       5110  
      4979       4980       4991       4990       5100       5101       5112       5111  
      4980       4981       4992       4991       5101       5102       5113       5112  
      4981       4982       4993       4992       5102       5103       5114       5113  
      4982       4983       4994       4993       5103       5104       5115       5114  
      4984       4985       4996       4995       5105       5106       5117       5116  
      4985       4986       4997       4996       5106       5107       5118       5117  
      4986       4987       4998       4997       5107       5108       5119       5118  
      4987       4988       4999       4998       5108       5109       5120       5119  
      4988       4989       5000       4999       5109       5110       5121       5120  
      4989       4990       5001       5000       5110       5111       5122       5121  
      4990       4991       5002       5001       5111       5112       5123       5122  
      4991       4992       5003       5002       5112       5113       5124       5123  
      4992       4993       5004       5003       5113       5114       5125       5124  
      4993       4994       5005       5004       5114       5115       5126       5125  
      4995       4996       5007       5006       5116       5117       5128       5127  
      4996       4997       5008       5007       5117       5118       5129       5128  
      4997       4998       5009       5008       5118       5119       5130       5129  
      4998       4999       5010       5009       5119       5120       5131       5130  
      4999       5000       5011       5010       5120       5121       5132       5131  
      5000       5001       5012       5011       5121       5122       5133       5132  
      5001       5002       5013       5012       5122       5123       5134       5133  
      5002       5003       5014       5013       5123       5124       5135       5134  
      5003       5004       5015       5014       5124       5125       5136       5135  
      5004       5005       5016       5015       5125       5126       5137       5136  
      5006       5007       5018       5017       5127       5128       5139       5138  
      5007       5008       5019       5018       5128       5129       5140       5139  
      5008       5009       5020       5019       5129       5130       5141       5140  
      5009       5010       5021       5020       5130       5131       5142       5141  
      5010       5011       5022       5021       5131       5132       5143       5142  
      5011       5012       5023       5022       5132       5133       5144       5143  
      5012       5013       5024       5023       5133       5134       5145       5144  
      5013       5014       5025       5024       5134       5135       5146       5145  
      5014       5015       5026       5025       5135       5136       5147       5146  
      5015       5016       5027       5026       5136       5137       5148       5147  
      5017       5018       5029       5028       5138       5139       5150       5149  
      5018       5019       5030       5029       5139       5140       5151       5150  
      5019       5020       5031       5030       5140       5141       5152       5151  
      5020       5021       5032       5031       5141       5142       5153       5152  
      5021       5022       5033       5032       5142       5143       5154       5153  
      5022       5023       5034       5033       5143       5144       5155       5154  
      5023       5024       5035       5034       5144       5145       5156       5155  
      5024       5025       5036       5035       5145       5146       5157       5156  
      5025       5026       5037       5036       5146       5147       5158       5157  
      5026       5027       5038       5037       5147       5148       5159       5158  
      5028       5029       5040       5039       5149       5150       5161       5160  
      5029       5030       5041       5040       5150       5151       5162       5161  
      5030       5031       5042       5041       5151       5152       5163       5162  
      5031       5032       5043       5042       5152       5153       5164       5163  
      5032       5033       5044       5043       5153       5154       5165       5164  
      5033       5034       5045       5044       5154       5155       5166       5165  
      5034       5035       5046       5045       5155       5156       5167       5166  
      5035       5036       5047       5046       5156       5157       5168       5167  
      5036       5037       5048       5047       5157       5158       5169       5168  
      5037       5038       5049       5048       5158       5159       5170       5169  
      5039       5040       5051       5050       5160       5161       5172       5171  
      5040       5041       5052       5051       5161       5162       5173       5172  
      5041       5042       5053       5052       5162       5163       5174       5173  
      5042       5043       5054       5053       5163       5164       5175       5174  
      5043       5044       5055       5054       5164       5165       5176       5175  
      5044       5045       5056       5055       5165       5166       5177       5176  
      5045       5046       5057       5056       5166       5167       5178       5177  
      5046       5047       5058       5057       5167       5168       5179       5178  
      5047       5048       5059       5058       5168       5169       5180       5179  
      5048       5049       5060       5059       5169       5170       5181       5180  
      5050       5051       5062       5061       5171       5172       5183       5182  
      5051       5052       5063       5062       5172       5173       5184       5183  
      5052       5053       5064       5063       5173       5174       5185       5184  
      5053       5054       5065       5064       5174       5175       5186       5185  
      5054       5055       5066       5065       5175       5176       5187       5186  
      5055       5056       5067       5066       5176       5177       5188       5187  
      5056       5057       5068       5067       5177       5178       5189       5188  
      5057       5058       5069       5068       5178       5179       5190       5189  
      5058       5059       5070       5069       5179       5180       5191       5190  
      5059       5060       5071       5070       5180       5181       5192       5191  
      5061       5062       5073       5072       5182       5183       5194       5193  
      5062       5063       5074       5073       5183       5184       5195       5194  
      5063       5064       5075       5074       5184       5185       5196       5195  
      5064       5065       5076       5075       5185       5186       5197       5196  
      5065       5066       5077       5076       5186       5187       5198       5197  
      5066       5067       5078       5077       5187       5188       5199       5198  
      5067       5068       5079       5078       5188       5189       5200       5199  
      5068       5069       5080       5079       5189       5190       5201       5200  
      5069       5070       5081       5080       5190       5191       5202       5201  
      5070       5071       5082       5081       5191       5192       5203       5202  
      5083       5084       5095       5094       5204       5205       5216       5215  
      5084       5085       5096       5095       5205       5206       5217       5216  
      5085       5086       5097       5096       5206       5207       5218       5217  
      5086       5087       5098       5097       5207       5208       5219       5218  
      5087       5088       5099       5098       5208       5209       5220       5219  
      5088       5089       5100       5099       5209       5210       5221       5220  
      5089       5090       5101       5100       5210       5211       5222       5221  
      5090       5091       5102       5101       5211       5212       5223       5222  
      5091       5092       5103       5102       5212       5213       5224       5223  
      5092       5093       5104       5103       5213       5214       5225       5224  
      5094       5095       5106       5105       5215       5216       5227       5226  
      5095       5096       5107       5106       5216       5217       5228       5227  
      5096       5097       5108       5107       5217       5218       5229       5228  
      5097       5098       5109       5108       5218       5219       5230       5229  
      5098       5099       5110       5109       5219       5220       5231       5230  
      5099       5100       5111       5110       5220       5221       5232       5231  
      5100       5101       5112       5111       5221       5222       5233       5232  
      5101       5102       5113       5112       5222       5223       5234       5233  
      5102       5103       5114       5113       5223       5224       5235       5234  
      5103       5104       5115       5114       5224       5225       5236       5235  
      5105       5106       5117       5116       5226       5227       5238       5237  
      5106       5107       5118       5117       5227       5228       5239       5238  
      5107       5108       5119       5118       5228       5229       5240       5239  
      5108       5109       5120       5119       5229       5230       5241       5240  
      5109       5110       5121       5120       5230       5231       5242       5241  
      5110       5111       5122       5121       5231       5232       5243       5242  
      5111       5112       5123       5122       5232       5233       5244       5243  
      5112       5113       5124       5123       5233       5234       5245       5244  
      5113       5114       5125       5124       5234       5235       5246       5245  
      5114       5115       5126       5125       5235       5236       5247       5246  
      5116       5117       5128       5127       5237       5238       5249       5248  
      5117       5118       5129       5128       5238       5239       5250       5249  
      5118       5119       5130       5129       5239       5240       5251       5250  
      5119       5120       5131       5130       5240       5241       5252       5251  
      5120       5121       5132       5131       5241       5242       5253       5252  
      5121       5122       5133       5132       5242       5243       5254       5253  
      5122       5123       5134       5133       5243       5244       5255       5254  
      5123       5124       5135       5134       5244       5245       5256       5255  
      5124       5125       5136       5135       5245       5246       5257       5256  
      5125       5126       5137       5136       5246       5247       5258       5257  
      5127       5128       5139       5138       5248       5249       5260       5259  
      5128       5129       5140       5139       5249       5250       5261       5260  
      5129       5130       5141       5140       5250       5251       5262       5261  
      5130       5131       5142       5141       5251       5252       5263       5262  
      5131       5132       5143       5142       5252       5253       5264       5263  
      5132       5133       5144       5143       5253       5254       5265       5264  
      5133       5134       5145       5144       5254       5255       5266       5265  
      5134       5135       5146       5145       5255       5256       5267       5266  
      5135       5136       5147       5146       5256       5257       5268       5267  
      5136       5137       5148       5147       5257       5258       5269       5268  
      5138       5139       5150       5149       5259       5260       5271       5270  
      5139       5140       5151       5150       5260       5261       5272       5271  
      5140       5141       5152       5151       5261       5262       5273       5272  
      5141       5142       5153       5152       5262       5263       5274       5273  
      5142       5143       5154       5153       5263       5264       5275       5274  
      5143       5144       5155       5154       5264       5265       5276       5275  
      5144       5145       5156       5155       5265       5266       5277       5276  
      5145       5146       5157       5156       5266       5267       5278       5277  
      5146       5147       5158       5157       5267       5268       5279       5278  
      5147       5148       5159       5158       5268       5269       5280       5279  
      5149       5150       5161       5160       5270       5271       5282       5281  
      5150       5151       5162       5161       5271       5272       5283       5282  
      5151       5152       5163       5162       5272       5273       5284       5283  
      5152       5153       5164       5163       5273       5274       5285       5284  
      5153       5154       5165       5164       5274       5275       5286       5285  
      5154       5155       5166       5165       5275       5276       5287       5286  
      5155       5156       5167       5166       5276       5277       5288       5287  
      5156       5157       5168       5167       5277       5278       5289       5288  
      5157       5158       5169       5168       5278       5279       5290       5289  
      5158       5159       5170       5169       5279       5280       5291       5290  
      5160       5161       5172       5171       5281       5282       5293       5292  
      5161       5162       5173       5172       5282       5283       5294       5293  
      5162       5163       5174       5173       5283       5284       5295       5294  
      5163       5164       5175       5174       5284       5285       5296       5295  
      5164       5165       5176       5175       5285       5286       5297       5296  
      5165       5166       5177       5176       5286       5287       5298       5297  
      5166       5167       5178       5177       5287       5288       5299       5298  
      5167       5168       5179       5178       5288       5289       5300       5299  
      5168       5169       5180       5179       5289       5290       5301       5300  
      5169       5170       5181       5180       5290       5291       5302       5301  
      5171       5172       5183       5182       5292       5293       5304       5303  
      5172       5173       5184       5183       5293       5294       5305       5304  
      5173       5174       5185       5184       5294       5295       5306       5305  
      5174       5175       5186       5185       5295       5296       5307       5306  
      5175       5176       5187       5186       5296       5297       5308       5307  
      5176       5177       5188       5187       5297       5298       5309       5308  
      5177       5178       5189       5188       5298       5299       5310       5309  
      5178       5179       5190       5189       5299       5300       5311       5310  
      5179       5180       5191       5190       5300       5301       5312       5311  
      5180       5181       5192       5191       5301       5302       5313       5312  
      5182       5183       5194       5193       5303       5304       5315       5314  
      5183       5184       5195       5194       5304       5305       5316       5315  
      5184       5185       5196       5195       5305       5306       5317       5316  
      5185       5186       5197       5196       5306       5307       5318       5317  
      5186       5187       5198       5197       5307       5308       5319       5318  
      5187       5188       5199       5198       5308       5309       5320       5319  
      5188       5189       5200       5199       5309       5310       5321       5320  
      5189       5190       5201       5200       5310       5311       5322       5321  
      5190       5191       5202       5201       5311       5312       5323       5322  
      5191       5192       5203       5202       5312       5313       5324       5323  
      5204       5205       5216       5215       5325       5326       5337       5336  
      5205       5206       5217       5216       5326       5327       5338       5337  
      5206       5207       5218       5217       5327       5328       5339       5338  
      5207       5208       5219       5218       5328       5329       5340       5339  
      5208       5209       5220       5219       5329       5330       5341       5340  
      5209       5210       5221       5220       5330       5331       5342       5341  
      5210       5211       5222       5221       5331       5332       5343       5342  
      5211       5212       5223       5222       5332       5333       5344       5343  
      5212       5213       5224       5223       5333       5334       5345       5344  
      5213       5214       5225       5224       5334       5335       5346       5345  
      5215       5216       5227       5226       5336       5337       5348       5347  
      5216       5217       5228       5227       5337       5338       5349       5348  
      5217       5218       5229       5228       5338       5339       5350       5349  
      5218       5219       5230       5229       5339       5340       5351       5350  
      5219       5220       5231       5230       5340       5341       5352       5351  
      5220       5221       5232       5231       5341       5342       5353       5352  
      5221       5222       5233       5232       5342       5343       5354       5353  
      5222       5223       5234       5233       5343       5344       5355       5354  
      5223       5224       5235       5234       5344       5345       5356       5355  
      5224       5225       5236       5235       5345       5346       5357       5356  
      5226       5227       5238       5237       5347       5348       5359       5358  
      5227       5228       5239       5238       5348       5349       5360       5359  
      5228       5229       5240       5239       5349       5350       5361       5360  
      5229       5230       5241       5240       5350       5351       5362       5361  
      5230       5231       5242       5241       5351       5352       5363       5362  
      5231       5232       5243       5242       5352       5353       5364       5363  
      5232       5233       5244       5243       5353       5354       5365       5364  
      5233       5234       5245       5244       5354       5355       5366       5365  
      5234       5235       5246       5245       5355       5356       5367       5366  
      5235       5236       5247       5246       5356       5357       5368       5367  
      5237       5238       5249       5248       5358       5359       5370       5369  
      5238       5239       5250       5249       5359       5360       5371       5370  
      5239       5240       5251       5250       5360       5361       5372       5371  
      5240       5241       5252       5251       5361       5362       5373       5372  
      5241       5242       5253       5252       5362       5363       5374       5373  
      5242       5243       5254       5253       5363       5364       5375       5374  
      5243       5244       5255       5254       5364       5365       5376       5375  
      5244       5245       5256       5255       5365       5366       5377       5376  
      5245       5246       5257       5256       5366       5367       5378       5377  
      5246       5247       5258       5257       5367       5368       5379       5378  
      5248       5249       5260       5259       5369       5370       5381       5380  
      5249       5250       5261       5260       5370       5371       5382       5381  
      5250       5251       5262       5261       5371       5372       5383       5382  
      5251       5252       5263       5262       5372       5373       5384       5383  
      5252       5253       5264       5263       5373       5374       5385       5384  
      5253       5254       5265       5264       5374       5375       5386       5385  
      5254       5255       5266       5265       5375       5376       5387       5386  
      5255       5256       5267       5266       5376       5377       5388       5387  
      5256       5257       5268       5267       5377       5378       5389       5388  
      5257       5258       5269       5268       5378       5379       5390       5389  
      5259       5260       5271       5270       5380       5381       5392       5391  
      5260       5261       5272       5271       5381       5382       5393       5392  
      5261       5262       5273       5272       5382       5383       5394       5393  
      5262       5263       5274       5273       5383       5384       5395       5394  
      5263       5264       5275       5274       5384       5385       5396       5395  
      5264       5265       5276       5275       5385       5386       5397       5396  
      5265       5266       5277       5276       5386       5387       5398       5397  
      5266       5267       5278       5277       5387       5388       5399       5398  
      5267       5268       5279       5278       5388       5389       5400       5399  
      5268       5269       5280       5279       5389       5390       5401       5400  
      5270       5271       5282       5281       5391       5392       5403       5402  
      5271       5272       5283       5282       5392       5393       5404       5403  
      5272       5273       5284       5283       5393       5394       5405       5404  
      5273       5274       5285       5284       5394       5395       5406       5405  
      5274       5275       5286       5285       5395       5396       5407       5406  
      5275       5276       5287       5286       5396       5397       5408       5407  
      5276       5277       5288       5287       5397       5398       5409       5408  
      5277       5278       5289       5288       5398       5399       5410       5409  
      5278       5279       5290       5289       5399       5400       5411       5410  
      5279       5280       5291       5290       5400       5401       5412       5411  
      5281       5282       5293       5292       5402       5403       5414       5413  
      5282       5283       5294       5293       5403       5404       5415       5414  
      5283       5284       5295       5294       5404       5405       5416       5415  
      5284       5285       5296       5295       5405       5406       5417       5416  
      5285       5286       5297       5296       5406       5407       5418       5417  
      5286       5287       5298       5297       5407       5408       5419       5418  
      5287       5288       5299       5298       5408       5409       5420       5419  
      5288       5289       5300       5299       5409       5410       5421       5420  
      5289       5290       5301       5300       5410       5411       5422       5421  
      5290       5291       5302       5301       5411       5412       5423       5422  
      5292       5293       5304       5303       5413       5414       5425       5424  
      5293       5294       5305       5304       5414       5415       5426       5425  
      5294       5295       5306       5305       5415       5416       5427       5426  
      5295       5296       5307       5306       5416       5417       5428       5427  
      5296       5297       5308       5307       5417       5418       5429       5428  
      5297       5298       5309       5308       5418       5419       5430       5429  
      5298       5299       5310       5309       5419       5420       5431       5430  
      5299       5300       5311       5310       5420       5421       5432       5431  
      5300       5301       5312       5311       5421       5422       5433       5432  
      5301       5302       5313       5312       5422       5423       5434       5433  
      5303       5304       5315       5314       5424       5425       5436       5435  
      5304       5305       5316       5315       5425       5426       5437       5436  
      5305       5306       5317       5316       5426       5427       5438       5437  
      5306       5307       5318       5317       5427       5428       5439       5438  
      5307       5308       5319       5318       5428       5429       5440       5439  
      5308       5309       5320       5319       5429       5430       5441       5440  
      5309       5310       5321       5320       5430       5431       5442       5441  
      5310       5311       5322       5321       5431       5432       5443       5442  
      5311       5312       5323       5322       5432       5433       5444       5443  
      5312       5313       5324       5323       5433       5434       5445       5444  
      5325       5326       5337       5336       5446       5447       5458       5457  
      5326       5327       5338       5337       5447       5448       5459       5458  
      5327       5328       5339       5338       5448       5449       5460       5459  
      5328       5329       5340       5339       5449       5450       5461       5460  
      5329       5330       5341       5340       5450       5451       5462       5461  
      5330       5331       5342       5341       5451       5452       5463       5462  
      5331       5332       5343       5342       5452       5453       5464       5463  
      5332       5333       5344       5343       5453       5454       5465       5464  
      5333       5334       5345       5344       5454       5455       5466       5465  
      5334       5335       5346       5345       5455       5456       5467       5466  
      5336       5337       5348       5347       5457       5458       5469       5468  
      5337       5338       5349       5348       5458       5459       5470       5469  
      5338       5339       5350       5349       5459       5460       5471       5470  
      5339       5340       5351       5350       5460       5461       5472       5471  
      5340       5341       5352       5351       5461       5462       5473       5472  
      5341       5342       5353       5352       5462       5463       5474       5473  
      5342       5343       5354       5353       5463       5464       5475       5474  
      5343       5344       5355       5354       5464       5465       5476       5475  
      5344       5345       5356       5355       5465       5466       5477       5476  
      5345       5346       5357       5356       5466       5467       5478       5477  
      5347       5348       5359       5358       5468       5469       5480       5479  
      5348       5349       5360       5359       5469       5470       5481       5480  
      5349       5350       5361       5360       5470       5471       5482       5481  
      5350       5351       5362       5361       5471       5472       5483       5482  
      5351       5352       5363       5362       5472       5473       5484       5483  
      5352       5353       5364       5363       5473       5474       5485       5484  
      5353       5354       5365       5364       5474       5475       5486       5485  
      5354       5355       5366       5365       5475       5476       5487       5486  
      5355       5356       5367       5366       5476       5477       5488       5487  
      5356       5357       5368       5367       5477       5478       5489       5488  
      5358       5359       5370       5369       5479       5480       5491       5490  
      5359       5360       5371       5370       5480       5481       5492       5491  
      5360       5361       5372       5371       5481       5482       5493       5492  
      5361       5362       5373       5372       5482       5483       5494       5493  
      5362       5363       5374       5373       5483       5484       5495       5494  
      5363       5364       5375       5374       5484       5485       5496       5495  
      5364       5365       5376       5375       5485       5486       5497       5496  
      5365       5366       5377       5376       5486       5487       5498       5497  
      5366       5367       5378       5377       5487       5488       5499       5498  
      5367       5368       5379       5378       5488       5489       5500       5499  
      5369       5370       5381       5380       5490       5491       5502       5501  
      5370       5371       5382       5381       5491       5492       5503       5502  
      5371       5372       5383       5382       5492       5493       5504       5503  
      5372       5373       5384       5383       5493       5494       5505       5504  
      5373       5374       5385       5384       5494       5495       5506       5505  
      5374       5375       5386       5385       5495       5496       5507       5506  
      5375       5376       5387       5386       5496       5497       5508       5507  
      5376       5377       5388       5387       5497       5498       5509       5508  
      5377       5378       5389       5388       5498       5499       5510       5509  
      5378       5379       5390       5389       5499       5500       5511       5510  
      5380       5381       5392       5391       5501       5502       5513       5512  
      5381       5382       5393       5392       5502       5503       5514       5513  
      5382       5383       5394       5393       5503       5504       5515       5514  
      5383       5384       5395       5394       5504       5505       5516       5515  
      5384       5385       5396       5395       5505       5506       5517       5516  
      5385       5386       5397       5396       5506       5507       5518       5517  
      5386       5387       5398       5397       5507       5508       5519       5518  
      5387       5388       5399       5398       5508       5509       5520       5519  
      5388       5389       5400       5399       5509       5510       5521       5520  
      5389       5390       5401       5400       5510       5511       5522       5521  
      5391       5392       5403       5402       5512       5513       5524       5523  
      5392       5393       5404       5403       5513       5514       5525       5524  
      5393       5394       5405       5404       5514       5515       5526       5525  
      5394       5395       5406       5405       5515       5516       5527       5526  
      5395       5396       5407       5406       5516       5517       5528       5527  
      5396       5397       5408       5407       5517       5518       5529       5528  
      5397       5398       5409       5408       5518       5519       5530       5529  
      5398       5399       5410       5409       5519       5520       5531       5530  
      5399       5400       5411       5410       5520       5521       5532       5531  
      5400       5401       5412       5411       5521       5522       5533       5532  
      5402       5403       5414       5413       5523       5524       5535       5534  
      5403       5404       5415       5414       5524       5525       5536       5535  
      5404       5405       5416       5415       5525       5526       5537       5536  
      5405       5406       5417       5416       5526       5527       5538       5537  
      5406       5407       5418       5417       5527       5528       5539       5538  
      5407       5408       5419       5418       5528       5529       5540       5539  
      5408       5409       5420       5419       5529       5530       5541       5540  
      5409       5410       5421       5420       5530       5531       5542       5541  
      5410       5411       5422       5421       5531       5532       5543       5542  
      5411       5412       5423       5422       5532       5533       5544       5543  
      5413       5414       5425       5424       5534       5535       5546       5545  
      5414       5415       5426       5425       5535       5536       5547       5546  
      5415       5416       5427       5426       5536       5537       5548       5547  
      5416       5417       5428       5427       5537       5538       5549       5548  
      5417       5418       5429       5428       5538       5539       5550       5549  
      5418       5419       5430       5429       5539       5540       5551       5550  
      5419       5420       5431       5430       5540       5541       5552       5551  
      5420       5421       5432       5431       5541       5542       5553       5552  
      5421       5422       5433       5432       5542       5543       5554       5553  
      5422       5423       5434       5433       5543       5544       5555       5554  
      5424       5425       5436       5435       5545       5546       5557       5556  
      5425       5426       5437       5436       5546       5547       5558       5557  
      5426       5427       5438       5437       5547       5548       5559       5558  
      5427       5428       5439       5438       5548       5549       5560       5559  
      5428       5429       5440       5439       5549       5550       5561       5560  
      5429       5430       5441       5440       5550       5551       5562       5561  
      5430       5431       5442       5441       5551       5552       5563       5562  
      5431       5432       5443       5442       5552       5553       5564       5563  
      5432       5433       5444       5443       5553       5554       5565       5564  
      5433       5434       5445       5444       5554       5555       5566       5565  
      5446       5447       5458       5457       5567       5568       5579       5578  
      5447       5448       5459       5458       5568       5569       5580       5579  
      5448       5449       5460       5459       5569       5570       5581       5580  
      5449       5450       5461       5460       5570       5571       5582       5581  
      5450       5451       5462       5461       5571       5572       5583       5582  
      5451       5452       5463       5462       5572       5573       5584       5583  
      5452       5453       5464       5463       5573       5574       5585       5584  
      5453       5454       5465       5464       5574       5575       5586       5585  
      5454       5455       5466       5465       5575       5576       5587       5586  
      5455       5456       5467       5466       5576       5577       5588       5587  
      5457       5458       5469       5468       5578       5579       5590       5589  
      5458       5459       5470       5469       5579       5580       5591       5590  
      5459       5460       5471       5470       5580       5581       5592       5591  
      5460       5461       5472       5471       5581       5582       5593       5592  
      5461       5462       5473       5472       5582       5583       5594       5593  
      5462       5463       5474       5473       5583       5584       5595       5594  
      5463       5464       5475       5474       5584       5585       5596       5595  
      5464       5465       5476       5475       5585       5586       5597       5596  
      5465       5466       5477       5476       5586       5587       5598       5597  
      5466       5467       5478       5477       5587       5588       5599       5598  
      5468       5469       5480       5479       5589       5590       5601       5600  
      5469       5470       5481       5480       5590       5591       5602       5601  
      5470       5471       5482       5481       5591       5592       5603       5602  
      5471       5472       5483       5482       5592       5593       5604       5603  
      5472       5473       5484       5483       5593       5594       5605       5604  
      5473       5474       5485       5484       5594       5595       5606       5605  
      5474       5475       5486       5485       5595       5596       5607       5606  
      5475       5476       5487       5486       5596       5597       5608       5607  
      5476       5477       5488       5487       5597       5598       5609       5608  
      5477       5478       5489       5488       5598       5599       5610       5609  
      5479       5480       5491       5490       5600       5601       5612       5611  
      5480       5481       5492       5491       5601       5602       5613       5612  
      5481       5482       5493       5492       5602       5603       5614       5613  
      5482       5483       5494       5493       5603       5604       5615       5614  
      5483       5484       5495       5494       5604       5605       5616       5615  
      5484       5485       5496       5495       5605       5606       5617       5616  
      5485       5486       5497       5496       5606       5607       5618       5617  
      5486       5487       5498       5497       5607       5608       5619       5618  
      5487       5488       5499       5498       5608       5609       5620       5619  
      5488       5489       5500       5499       5609       5610       5621       5620  
      5490       5491       5502       5501       5611       5612       5623       5622  
      5491       5492       5503       5502       5612       5613       5624       5623  
      5492       5493       5504       5503       5613       5614       5625       5624  
      5493       5494       5505       5504       5614       5615       5626       5625  
      5494       5495       5506       5505       5615       5616       5627       5626  
      5495       5496       5507       5506       5616       5617       5628       5627  
      5496       5497       5508       5507       5617       5618       5629       5628  
      5497       5498       5509       5508       5618       5619       5630       5629  
      5498       5499       5510       5509       5619       5620       5631       5630  
      5499       5500       5511       5510       5620       5621       5632       5631  
      5501       5502       5513       5512       5622       5623       5634       5633  
      5502       5503       5514       5513       5623       5624       5635       5634  
      5503       5504       5515       5514       5624       5625       5636       5635  
      5504       5505       5516       5515       5625       5626       5637       5636  
      5505       5506       5517       5516       5626       5627       5638       5637  
      5506       5507       5518       5517       5627       5628       5639       5638  
      5507       5508       5519       5518       5628       5629       5640       5639  
      5508       5509       5520       5519       5629       5630       5641       5640  
      5509       5510       5521       5520       5630       5631       5642       5641  
      5510       5511       5522       5521       5631       5632       5643       5642  
      5512       5513       5524       5523       5633       5634       5645       5644  
      5513       5514       5525       5524       5634       5635       5646       5645  
      5514       5515       5526       5525       5635       5636       5647       5646  
      5515       5516       5527       5526       5636       5637       5648       5647  
      5516       5517       5528       5527       5637       5638       5649       5648  
      5517       5518       5529       5528       5638       5639       5650       5649  
      5518       5519       5530       5529       5639       5640       5651       5650  
      5519       5520       5531       5530       5640       5641       5652       5651  
      5520       5521       5532       5531       5641       5642       5653       5652  
      5521       5522       5533       5532       5642       5643       5654       5653  
      5523       5524       5535       5534       5644       5645       5656       5655  
      5524       5525       5536       5535       5645       5646       5657       5656  
      5525       5526       5537       5536       5646       5647       5658       5657  
      5526       5527       5538       5537       5647       5648       5659       5658  
      5527       5528       5539       5538       5648       5649       5660       5659  
      5528       5529       5540       5539       5649       5650       5661       5660  
      5529       5530       5541       5540       5650       5651       5662       5661  
      5530       5531       5542       5541       5651       5652       5663       5662  
      5531       5532       5543       5542       5652       5653       5664       5663  
      5532       5533       5544       5543       5653       5654       5665       5664  
      5534       5535       5546       5545       5655       5656       5667       5666  
      5535       5536       5547       5546       5656       5657       5668       5667  
      5536       5537       5548       5547       5657       5658       5669       5668  
      5537       5538       5549       5548       5658       5659       5670       5669  
      5538       5539       5550       5549       5659       5660       5671       5670  
      5539       5540       5551       5550       5660       5661       5672       5671  
      5540       5541       5552       5551       5661       5662       5673       5672  
      5541       5542       5553       5552       5662       5663       5674       5673  
      5542       5543       5554       5553       5663       5664       5675       5674  
      5543       5544       5555       5554       5664       5665       5676       5675  
      5545       5546       5557       5556       5666       5667       5678       5677  
      5546       5547       5558       5557       5667       5668       5679       5678  
      5547       5548       5559       5558       5668       5669       5680       5679  
      5548       5549       5560       5559       5669       5670       5681       5680  
      5549       5550       5561       5560       5670       5671       5682       5681  
      5550       5551       5562       5561       5671       5672       5683       5682  
      5551       5552       5563       5562       5672       5673       5684       5683  
      5552       5553       5564       5563       5673       5674       5685       5684  
      5553       5554       5565       5564       5674       5675       5686       5685  
      5554       5555       5566       5565       5675       5676       5687       5686  
      5567       5568       5579       5578       5688       5689       5700       5699  
      5568       5569       5580       5579       5689       5690       5701       5700  
      5569       5570       5581       5580       5690       5691       5702       5701  
      5570       5571       5582       5581       5691       5692       5703       5702  
      5571       5572       5583       5582       5692       5693       5704       5703  
      5572       5573       5584       5583       5693       5694       5705       5704  
      5573       5574       5585       5584       5694       5695       5706       5705  
      5574       5575       5586       5585       5695       5696       5707       5706  
      5575       5576       5587       5586       5696       5697       5708       5707  
      5576       5577       5588       5587       5697       5698       5709       5708  
      5578       5579       5590       5589       5699       5700       5711       5710  
      5579       5580       5591       5590       5700       5701       5712       5711  
      5580       5581       5592       5591       5701       5702       5713       5712  
      5581       5582       5593       5592       5702       5703       5714       5713  
      5582       5583       5594       5593       5703       5704       5715       5714  
      5583       5584       5595       5594       5704       5705       5716       5715  
      5584       5585       5596       5595       5705       5706       5717       5716  
      5585       5586       5597       5596       5706       5707       5718       5717  
      5586       5587       5598       5597       5707       5708       5719       5718  
      5587       5588       5599       5598       5708       5709       5720       5719  
      5589       5590       5601       5600       5710       5711       5722       5721  
      5590       5591       5602       5601       5711       5712       5723       5722  
      5591       5592       5603       5602       5712       5713       5724       5723  
      5592       5593       5604       5603       5713       5714       5725       5724  
      5593       5594       5605       5604       5714       5715       5726       5725  
      5594       5595       5606       5605       5715       5716       5727       5726  
      5595       5596       5607       5606       5716       5717       5728       5727  
      5596       5597       5608       5607       5717       5718       5729       5728  
      5597       5598       5609       5608       5718       5719       5730       5729  
      5598       5599       5610       5609       5719       5720       5731       5730  
      5600       5601       5612       5611       5721       5722       5733       5732  
      5601       5602       5613       5612       5722       5723       5734       5733  
      5602       5603       5614       5613       5723       5724       5735       5734  
      5603       5604       5615       5614       5724       5725       5736       5735  
      5604       5605       5616       5615       5725       5726       5737       5736  
      5605       5606       5617       5616       5726       5727       5738       5737  
      5606       5607       5618       5617       5727       5728       5739       5738  
      5607       5608       5619       5618       5728       5729       5740       5739  
      5608       5609       5620       5619       5729       5730       5741       5740  
      5609       5610       5621       5620       5730       5731       5742       5741  
      5611       5612       5623       5622       5732       5733       5744       5743  
      5612       5613       5624       5623       5733       5734       5745       5744  
      5613       5614       5625       5624       5734       5735       5746       5745  
      5614       5615       5626       5625       5735       5736       5747       5746  
      5615       5616       5627       5626       5736       5737       5748       5747  
      5616       5617       5628       5627       5737       5738       5749       5748  
      5617       5618       5629       5628       5738       5739       5750       5749  
      5618       5619       5630       5629       5739       5740       5751       5750  
      5619       5620       5631       5630       5740       5741       5752       5751  
      5620       5621       5632       5631       5741       5742       5753       5752  
      5622       5623       5634       5633       5743       5744       5755       5754  
      5623       5624       5635       5634       5744       5745       5756       5755  
      5624       5625       5636       5635       5745       5746       5757       5756  
      5625       5626       5637       5636       5746       5747       5758       5757  
      5626       5627       5638       5637       5747       5748       5759       5758  
      5627       5628       5639       5638       5748       5749       5760       5759  
      5628       5629       5640       5639       5749       5750       5761       5760  
      5629       5630       5641       5640       5750       5751       5762       5761  
      5630       5631       5642       5641       5751       5752       5763       5762  
      5631       5632       5643       5642       5752       5753       5764       5763  
      5633       5634       5645       5644       5754       5755       5766       5765  
      5634       5635       5646       5645       5755       5756       5767       5766  
      5635       5636       5647       5646       5756       5757       5768       5767  
      5636       5637       5648       5647       5757       5758       5769       5768  
      5637       5638       5649       5648       5758       5759       5770       5769  
      5638       5639       5650       5649       5759       5760       5771       5770  
      5639       5640       5651       5650       5760       5761       5772       5771  
      5640       5641       5652       5651       5761       5762       5773       5772  
      5641       5642       5653       5652       5762       5763       5774       5773  
      5642       5643       5654       5653       5763       5764       5775       5774  
      5644       5645       5656       5655       5765       5766       5777       5776  
      5645       5646       5657       5656       5766       5767       5778       5777  
      5646       5647       5658       5657       5767       5768       5779       5778  
      5647       5648       5659       5658       5768       5769       5780       5779  
      5648       5649       5660       5659       5769       5770       5781       5780  
      5649       5650       5661       5660       5770       5771       5782       5781  
      5650       5651       5662       5661       5771       5772       5783       5782  
      5651       5652       5663       5662       5772       5773       5784       5783  
      5652       5653       5664       5663       5773       5774       5785       5784  
      5653       5654       5665       5664       5774       5775       5786       5785  
      5655       5656       5667       5666       5776       5777       5788       5787  
      5656       5657       5668       5667       5777       5778       5789       5788  
      5657       5658       5669       5668       5778       5779       5790       5789  
      5658       5659       5670       5669       5779       5780       5791       5790  
      5659       5660       5671       5670       5780       5781       5792       5791  
      5660       5661       5672       5671       5781       5782       5793       5792  
      5661       5662       5673       5672       5782       5783       5794       5793  
      5662       5663       5674       5673       5783       5784       5795       5794  
      5663       5664       5675       5674       5784       5785       5796       5795  
      5664       5665       5676       5675       5785       5786       5797       5796  
      5666       5667       5678       5677       5787       5788       5799       5798  
      5667       5668       5679       5678       5788       5789       5800       5799  
      5668       5669       5680       5679       5789       5790       5801       5800  
      5669       5670       5681       5680       5790       5791       5802       5801  
      5670       5671       5682       5681       5791       5792       5803       5802  
      5671       5672       5683       5682       5792       5793       5804       5803  
      5672       5673       5684       5683       5793       5794       5805       5804  
      5673       5674       5685       5684       5794       5795       5806       5805  
      5674       5675       5686       5685       5795       5796       5807       5806  
      5675       5676       5687       5686       5796       5797       5808       5807  
      5688       5689       5700       5699       5809       5810       5821       5820  
      5689       5690       5701       5700       5810       5811       5822       5821  
      5690       5691       5702       5701       5811       5812       5823       5822  
      5691       5692       5703       5702       5812       5813       5824       5823  
      5692       5693       5704       5703       5813       5814       5825       5824  
      5693       5694       5705       5704       5814       5815       5826       5825  
      5694       5695       5706       5705       5815       5816       5827       5826  
      5695       5696       5707       5706       5816       5817       5828       5827  
      5696       5697       5708       5707       5817       5818       5829       5828  
      5697       5698       5709       5708       5818       5819       5830       5829  
      5699       5700       5711       5710       5820       5821       5832       5831  
      5700       5701       5712       5711       5821       5822       5833       5832  
      5701       5702       5713       5712       5822       5823       5834       5833  
      5702       5703       5714       5713       5823       5824       5835       5834  
      5703       5704       5715       5714       5824       5825       5836       5835  
      5704       5705       5716       5715       5825       5826       5837       5836  
      5705       5706       5717       5716       5826       5827       5838       5837  
      5706       5707       5718       5717       5827       5828       5839       5838  
      5707       5708       5719       5718       5828       5829       5840       5839  
      5708       5709       5720       5719       5829       5830       5841       5840  
      5710       5711       5722       5721       5831       5832       5843       5842  
      5711       5712       5723       5722       5832       5833       5844       5843  
      5712       5713       5724       5723       5833       5834       5845       5844  
      5713       5714       5725       5724       5834       5835       5846       5845  
      5714       5715       5726       5725       5835       5836       5847       5846  
      5715       5716       5727       5726       5836       5837       5848       5847  
      5716       5717       5728       5727       5837       5838       5849       5848  
      5717       5718       5729       5728       5838       5839       5850       5849  
      5718       5719       5730       5729       5839       5840       5851       5850  
      5719       5720       5731       5730       5840       5841       5852       5851  
      5721       5722       5733       5732       5842       5843       5854       5853  
      5722       5723       5734       5733       5843       5844       5855       5854  
      5723       5724       5735       5734       5844       5845       5856       5855  
      5724       5725       5736       5735       5845       5846       5857       5856  
      5725       5726       5737       5736       5846       5847       5858       5857  
      5726       5727       5738       5737       5847       5848       5859       5858  
      5727       5728       5739       5738       5848       5849       5860       5859  
      5728       5729       5740       5739       5849       5850       5861       5860  
      5729       5730       5741       5740       5850       5851       5862       5861  
      5730       5731       5742       5741       5851       5852       5863       5862  
      5732       5733       5744       5743       5853       5854       5865       5864  
      5733       5734       5745       5744       5854       5855       5866       5865  
      5734       5735       5746       5745       5855       5856       5867       5866  
      5735       5736       5747       5746       5856       5857       5868       5867  
      5736       5737       5748       5747       5857       5858       5869       5868  
      5737       5738       5749       5748       5858       5859       5870       5869  
      5738       5739       5750       5749       5859       5860       5871       5870  
      5739       5740       5751       5750       5860       5861       5872       5871  
      5740       5741       5752       5751       5861       5862       5873       5872  
      5741       5742       5753       5752       5862       5863       5874       5873  
      5743       5744       5755       5754       5864       5865       5876       5875  
      5744       5745       5756       5755       5865       5866       5877       5876  
      5745       5746       5757       5756       5866       5867       5878       5877  
      5746       5747       5758       5757       5867       5868       5879       5878  
      5747       5748       5759       5758       5868       5869       5880       5879  
      5748       5749       5760       5759       5869       5870       5881       5880  
      5749       5750       5761       5760       5870       5871       5882       5881  
      5750       5751       5762       5761       5871       5872       5883       5882  
      5751       5752       5763       5762       5872       5873       5884       5883  
      5752       5753       5764       5763       5873       5874       5885       5884  
      5754       5755       5766       5765       5875       5876       5887       5886  
      5755       5756       5767       5766       5876       5877       5888       5887  
      5756       5757       5768       5767       5877       5878       5889       5888  
      5757       5758       5769       5768       5878       5879       5890       5889  
      5758       5759       5770       5769       5879       5880       5891       5890  
      5759       5760       5771       5770       5880       5881       5892       5891  
      5760       5761       5772       5771       5881       5882       5893       5892  
      5761       5762       5773       5772       5882       5883       5894       5893  
      5762       5763       5774       5773       5883       5884       5895       5894  
      5763       5764       5775       5774       5884       5885       5896       5895  
      5765       5766       5777       5776       5886       5887       5898       5897  
      5766       5767       5778       5777       5887       5888       5899       5898  
      5767       5768       5779       5778       5888       5889       5900       5899  
      5768       5769       5780       5779       5889       5890       5901       5900  
      5769       5770       5781       5780       5890       5891       5902       5901  
      5770       5771       5782       5781       5891       5892       5903       5902  
      5771       5772       5783       5782       5892       5893       5904       5903  
      5772       5773       5784       5783       5893       5894       5905       5904  
      5773       5774       5785       5784       5894       5895       5906       5905  
      5774       5775       5786       5785       5895       5896       5907       5906  
      5776       5777       5788       5787       5897       5898       5909       5908  
      5777       5778       5789       5788       5898       5899       5910       5909  
      5778       5779       5790       5789       5899       5900       5911       5910  
      5779       5780       5791       5790       5900       5901       5912       5911  
      5780       5781       5792       5791       5901       5902       5913       5912  
      5781       5782       5793       5792       5902       5903       5914       5913  
      5782       5783       5794       5793       5903       5904       5915       5914  
      5783       5784       5795       5794       5904       5905       5916       5915  
      5784       5785       5796       5795       5905       5906       5917       5916  
      5785       5786       5797       5796       5906       5907       5918       5917  
      5787       5788       5799       5798       5908       5909       5920       5919  
      5788       5789       5800       5799       5909       5910       5921       5920  
      5789       5790       5801       5800       5910       5911       5922       5921  
      5790       5791       5802       5801       5911       5912       5923       5922  
      5791       5792       5803       5802       5912       5913       5924       5923  
      5792       5793       5804       5803       5913       5914       5925       5924  
      5793       5794       5805       5804       5914       5915       5926       5925  
      5794       5795       5806       5805       5915       5916       5927       5926  
      5795       5796       5807       5806       5916       5917       5928       5927  
      5796       5797       5808       5807       5917       5918       5929       5928  
      5809       5810       5821       5820       5930       5931       5942       5941  
      5810       5811       5822       5821       5931       5932       5943       5942  
      5811       5812       5823       5822       5932       5933       5944       5943  
      5812       5813       5824       5823       5933       5934       5945       5944  
      5813       5814       5825       5824       5934       5935       5946       5945  
      5814       5815       5826       5825       5935       5936       5947       5946  
      5815       5816       5827       5826       5936       5937       5948       5947  
      5816       5817       5828       5827       5937       5938       5949       5948  
      5817       5818       5829       5828       5938       5939       5950       5949  
      5818       5819       5830       5829       5939       5940       5951       5950  
      5820       5821       5832       5831       5941       5942       5953       5952  
      5821       5822       5833       5832       5942       5943       5954       5953  
      5822       5823       5834       5833       5943       5944       5955       5954  
      5823       5824       5835       5834       5944       5945       5956       5955  
      5824       5825       5836       5835       5945       5946       5957       5956  
      5825       5826       5837       5836       5946       5947       5958       5957  
      5826       5827       5838       5837       5947       5948       5959       5958  
      5827       5828       5839       5838       5948       5949       5960       5959  
      5828       5829       5840       5839       5949       5950       5961       5960  
      5829       5830       5841       5840       5950       5951       5962       5961  
      5831       5832       5843       5842       5952       5953       5964       5963  
      5832       5833       5844       5843       5953       5954       5965       5964  
      5833       5834       5845       5844       5954       5955       5966       5965  
      5834       5835       5846       5845       5955       5956       5967       5966  
      5835       5836       5847       5846       5956       5957       5968       5967  
      5836       5837       5848       5847       5957       5958       5969       5968  
      5837       5838       5849       5848       5958       5959       5970       5969  
      5838       5839       5850       5849       5959       5960       5971       5970  
      5839       5840       5851       5850       5960       5961       5972       5971  
      5840       5841       5852       5851       5961       5962       5973       5972  
      5842       5843       5854       5853       5963       5964       5975       5974  
      5843       5844       5855       5854       5964       5965       5976       5975  
      5844       5845       5856       5855       5965       5966       5977       5976  
      5845       5846       5857       5856       5966       5967       5978       5977  
      5846       5847       5858       5857       5967       5968       5979       5978  
      5847       5848       5859       5858       5968       5969       5980       5979  
      5848       5849       5860       5859       5969       5970       5981       5980  
      5849       5850       5861       5860       5970       5971       5982       5981  
      5850       5851       5862       5861       5971       5972       5983       5982  
      5851       5852       5863       5862       5972       5973       5984       5983  
      5853       5854       5865       5864       5974       5975       5986       5985  
      5854       5855       5866       5865       5975       5976       5987       5986  
      5855       5856       5867       5866       5976       5977       5988       5987  
      5856       5857       5868       5867       5977       5978       5989       5988  
      5857       5858       5869       5868       5978       5979       5990       5989  
      5858       5859       5870       5869       5979       5980       5991       5990  
      5859       5860       5871       5870       5980       5981       5992       5991  
      5860       5861       5872       5871       5981       5982       5993       5992  
      5861       5862       5873       5872       5982       5983       5994       5993  
      5862       5863       5874       5873       5983       5984       5995       5994  
      5864       5865       5876       5875       5985       5986       5997       5996  
      5865       5866       5877       5876       5986       5987       5998       5997  
      5866       5867       5878       5877       5987       5988       5999       5998  
      5867       5868       5879       5878       5988       5989       6000       5999  
      5868       5869       5880       5879       5989       5990       6001       6000  
      5869       5870       5881       5880       5990       5991       6002       6001  
      5870       5871       5882       5881       5991       5992       6003       6002  
      5871       5872       5883       5882       5992       5993       6004       6003  
      5872       5873       5884       5883       5993       5994       6005       6004  
      5873       5874       5885       5884       5994       5995       6006       6005  
      5875       5876       5887       5886       5996       5997       6008       6007  
      5876       5877       5888       5887       5997       5998       6009       6008  
      5877       5878       5889       5888       5998       5999       6010       6009  
      5878       5879       5890       5889       5999       6000       6011       6010  
      5879       5880       5891       5890       6000       6001       6012       6011  
      5880       5881       5892       5891       6001       6002       6013       6012  
      5881       5882       5893       5892       6002       6003       6014       6013  
      5882       5883       5894       5893       6003       6004       6015       6014  
      5883       5884       5895       5894       6004       6005       6016       6015  
      5884       5885       5896       5895       6005       6006       6017       6016  
      5886       5887       5898       5897       6007       6008       6019       6018  
      5887       5888       5899       5898       6008       6009       6020       6019  
      5888       5889       5900       5899       6009       6010       6021       6020  
      5889       5890       5901       5900       6010       6011       6022       6021  
      5890       5891       5902       5901       6011       6012       6023       6022  
      5891       5892       5903       5902       6012       6013       6024       6023  
      5892       5893       5904       5903       6013       6014       6025       6024  
      5893       5894       5905       5904       6014       6015       6026       6025  
      5894       5895       5906       5905       6015       6016       6027       6026  
      5895       5896       5907       5906       6016       6017       6028       6027  
      5897       5898       5909       5908       6018       6019       6030       6029  
      5898       5899       5910       5909       6019       6020       6031       6030  
      5899       5900       5911       5910       6020       6021       6032       6031  
      5900       5901       5912       5911       6021       6022       6033       6032  
      5901       5902       5913       5912       6022       6023       6034       6033  
      5902       5903       5914       5913       6023       6024       6035       6034  
      5903       5904       5915       5914       6024       6025       6036       6035  
      5904       5905       5916       5915       6025       6026       6037       6036  
      5905       5906       5917       5916       6026       6027       6038       6037  
      5906       5907       5918       5917       6027       6028       6039       6038  
      5908       5909       5920       5919       6029       6030       6041       6040  
      5909       5910       5921       5920       6030       6031       6042       6041  
      5910       5911       5922       5921       6031       6032       6043       6042  
      5911       5912       5923       5922       6032       6033       6044       6043  
      5912       5913       5924       5923       6033       6034       6045       6044  
      5913       5914       5925       5924       6034       6035       6046       6045  
      5914       5915       5926       5925       6035       6036       6047       6046  
      5915       5916       5927       5926       6036       6037       6048       6047  
      5916       5917       5928       5927       6037       6038       6049       6048  
      5917       5918       5929       5928       6038       6039       6050       6049  
      5930       5931       5942       5941       6051       6052       6063       6062  
      5931       5932       5943       5942       6052       6053       6064       6063  
      5932       5933       5944       5943       6053       6054       6065       6064  
      5933       5934       5945       5944       6054       6055       6066       6065  
      5934       5935       5946       5945       6055       6056       6067       6066  
      5935       5936       5947       5946       6056       6057       6068       6067  
      5936       5937       5948       5947       6057       6058       6069       6068  
      5937       5938       5949       5948       6058       6059       6070       6069  
      5938       5939       5950       5949       6059       6060       6071       6070  
      5939       5940       5951       5950       6060       6061       6072       6071  
      5941       5942       5953       5952       6062       6063       6074       6073  
      5942       5943       5954       5953       6063       6064       6075       6074  
      5943       5944       5955       5954       6064       6065       6076       6075  
      5944       5945       5956       5955       6065       6066       6077       6076  
      5945       5946       5957       5956       6066       6067       6078       6077  
      5946       5947       5958       5957       6067       6068       6079       6078  
      5947       5948       5959       5958       6068       6069       6080       6079  
      5948       5949       5960       5959       6069       6070       6081       6080  
      5949       5950       5961       5960       6070       6071       6082       6081  
      5950       5951       5962       5961       6071       6072       6083       6082  
      5952       5953       5964       5963       6073       6074       6085       6084  
      5953       5954       5965       5964       6074       6075       6086       6085  
      5954       5955       5966       5965       6075       6076       6087       6086  
      5955       5956       5967       5966       6076       6077       6088       6087  
      5956       5957       5968       5967       6077       6078       6089       6088  
      5957       5958       5969       5968       6078       6079       6090       6089  
      5958       5959       5970       5969       6079       6080       6091       6090  
      5959       5960       5971       5970       6080       6081       6092       6091  
      5960       5961       5972       5971       6081       6082       6093       6092  
      5961       5962       5973       5972       6082       6083       6094       6093  
      5963       5964       5975       5974       6084       6085       6096       6095  
      5964       5965       5976       5975       6085       6086       6097       6096  
      5965       5966       5977       5976       6086       6087       6098       6097  
      5966       5967       5978       5977       6087       6088       6099       6098  
      5967       5968       5979       5978       6088       6089       6100       6099  
      5968       5969       5980       5979       6089       6090       6101       6100  
      5969       5970       5981       5980       6090       6091       6102       6101  
      5970       5971       5982       5981       6091       6092       6103       6102  
      5971       5972       5983       5982       6092       6093       6104       6103  
      5972       5973       5984       5983       6093       6094       6105       6104  
      5974       5975       5986       5985       6095       6096       6107       6106  
      5975       5976       5987       5986       6096       6097       6108       6107  
      5976       5977       5988       5987       6097       6098       6109       6108  
      5977       5978       5989       5988       6098       6099       6110       6109  
      5978       5979       5990       5989       6099       6100       6111       6110  
      5979       5980       5991       5990       6100       6101       6112       6111  
      5980       5981       5992       5991       6101       6102       6113       6112  
      5981       5982       5993       5992       6102       6103       6114       6113  
      5982       5983       5994       5993       6103       6104       6115       6114  
      5983       5984       5995       5994       6104       6105       6116       6115  
      5985       5986       5997       5996       6106       6107       6118       6117  
      5986       5987       5998       5997       6107       6108       6119       6118  
      5987       5988       5999       5998       6108       6109       6120       6119  
      5988       5989       6000       5999       6109       6110       6121       6120  
      5989       5990       6001       6000       6110       6111       6122       6121  
      5990       5991       6002       6001       6111       6112       6123       6122  
      5991       5992       6003       6002       6112       6113       6124       6123  
      5992       5993       6004       6003       6113       6114       6125       6124  
      5993       5994       6005       6004       6114       6115       6126       6125  
      5994       5995       6006       6005       6115       6116       6127       6126  
      5996       5997       6008       6007       6117       6118       6129       6128  
      5997       5998       6009       6008       6118       6119       6130       6129  
      5998       5999       6010       6009       6119       6120       6131       6130  
      5999       6000       6011       6010       6120       6121       6132       6131  
      6000       6001       6012       6011       6121       6122       6133       6132  
      6001       6002       6013       6012       6122       6123       6134       6133  
      6002       6003       6014       6013       6123       6124       6135       6134  
      6003       6004       6015       6014       6124       6125       6136       6135  
      6004       6005       6016       6015       6125       6126       6137       6136  
      6005       6006       6017       6016       6126       6127       6138       6137  
      6007       6008       6019       6018       6128       6129       6140       6139  
      6008       6009       6020       6019       6129       6130       6141       6140  
      6009       6010       6021       6020       6130       6131       6142       6141  
      6010       6011       6022       6021       6131       6132       6143       6142  
      6011       6012       6023       6022       6132       6133       6144       6143  
      6012       6013       6024       6023       6133       6134       6145       6144  
      6013       6014       6025       6024       6134       6135       6146       6145  
      6014       6015       6026       6025       6135       6136       6147       6146  
      6015       6016       6027       6026       6136       6137       6148       6147  
      6016       6017       6028       6027       6137       6138       6149       6148  
      6018       6019       6030       6029       6139       6140       6151       6150  
      6019       6020       6031       6030       6140       6141       6152       6151  
      6020       6021       6032       6031       6141       6142       6153       6152  
      6021       6022       6033       6032       6142       6143       6154       6153  
      6022       6023       6034       6033       6143       6144       6155       6154  
      6023       6024       6035       6034       6144       6145       6156       6155  
      6024       6025       6036       6035       6145       6146       6157       6156  
      6025       6026       6037       6036       6146       6147       6158       6157  
      6026       6027       6038       6037       6147       6148       6159       6158  
      6027       6028       6039       6038       6148       6149       6160       6159  
      6029       6030       6041       6040       6150       6151       6162       6161  
      6030       6031       6042       6041       6151       6152       6163       6162  
      6031       6032       6043       6042       6152       6153       6164       6163  
      6032       6033       6044       6043       6153       6154       6165       6164  
      6033       6034       6045       6044       6154       6155       6166       6165  
      6034       6035       6046       6045       6155       6156       6167       6166  
      6035       6036       6047       6046       6156       6157       6168       6167  
      6036       6037       6048       6047       6157       6158       6169       6168  
      6037       6038       6049       6048       6158       6159       6170       6169  
      6038       6039       6050       6049       6159       6160       6171       6170  
      6051       6052       6063       6062       6172       6173       6184       6183  
      6052       6053       6064       6063       6173       6174       6185       6184  
      6053       6054       6065       6064       6174       6175       6186       6185  
      6054       6055       6066       6065       6175       6176       6187       6186  
      6055       6056       6067       6066       6176       6177       6188       6187  
      6056       6057       6068       6067       6177       6178       6189       6188  
      6057       6058       6069       6068       6178       6179       6190       6189  
      6058       6059       6070       6069       6179       6180       6191       6190  
      6059       6060       6071       6070       6180       6181       6192       6191  
      6060       6061       6072       6071       6181       6182       6193       6192  
      6062       6063       6074       6073       6183       6184       6195       6194  
      6063       6064       6075       6074       6184       6185       6196       6195  
      6064       6065       6076       6075       6185       6186       6197       6196  
      6065       6066       6077       6076       6186       6187       6198       6197  
      6066       6067       6078       6077       6187       6188       6199       6198  
      6067       6068       6079       6078       6188       6189       6200       6199  
      6068       6069       6080       6079       6189       6190       6201       6200  
      6069       6070       6081       6080       6190       6191       6202       6201  
      6070       6071       6082       6081       6191       6192       6203       6202  
      6071       6072       6083       6082       6192       6193       6204       6203  
      6073       6074       6085       6084       6194       6195       6206       6205  
      6074       6075       6086       6085       6195       6196       6207       6206  
      6075       6076       6087       6086       6196       6197       6208       6207  
      6076       6077       6088       6087       6197       6198       6209       6208  
      6077       6078       6089       6088       6198       6199       6210       6209  
      6078       6079       6090       6089       6199       6200       6211       6210  
      6079       6080       6091       6090       6200       6201       6212       6211  
      6080       6081       6092       6091       6201       6202       6213       6212  
      6081       6082       6093       6092       6202       6203       6214       6213  
      6082       6083       6094       6093       6203       6204       6215       6214  
      6084       6085       6096       6095       6205       6206       6217       6216  
      6085       6086       6097       6096       6206       6207       6218       6217  
      6086       6087       6098       6097       6207       6208       6219       6218  
      6087       6088       6099       6098       6208       6209       6220       6219  
      6088       6089       6100       6099       6209       6210       6221       6220  
      6089       6090       6101       6100       6210       6211       6222       6221  
      6090       6091       6102       6101       6211       6212       6223       6222  
      6091       6092       6103       6102       6212       6213       6224       6223  
      6092       6093       6104       6103       6213       6214       6225       6224  
      6093       6094       6105       6104       6214       6215       6226       6225  
      6095       6096       6107       6106       6216       6217       6228       6227  
      6096       6097       6108       6107       6217       6218       6229       6228  
      6097       6098       6109       6108       6218       6219       6230       6229  
      6098       6099       6110       6109       6219       6220       6231       6230  
      6099       6100       6111       6110       6220       6221       6232       6231  
      6100       6101       6112       6111       6221       6222       6233       6232  
      6101       6102       6113       6112       6222       6223       6234       6233  
      6102       6103       6114       6113       6223       6224       6235       6234  
      6103       6104       6115       6114       6224       6225       6236       6235  
      6104       6105       6116       6115       6225       6226       6237       6236  
      6106       6107       6118       6117       6227       6228       6239       6238  
      6107       6108       6119       6118       6228       6229       6240       6239  
      6108       6109       6120       6119       6229       6230       6241       6240  
      6109       6110       6121       6120       6230       6231       6242       6241  
      6110       6111       6122       6121       6231       6232       6243       6242  
      6111       6112       6123       6122       6232       6233       6244       6243  
      6112       6113       6124       6123       6233       6234       6245       6244  
      6113       6114       6125       6124       6234       6235       6246       6245  
      6114       6115       6126       6125       6235       6236       6247       6246  
      6115       6116       6127       6126       6236       6237       6248       6247  
      6117       6118       6129       6128       6238       6239       6250       6249  
      6118       6119       6130       6129       6239       6240       6251       6250  
      6119       6120       6131       6130       6240       6241       6252       6251  
      6120       6121       6132       6131       6241       6242       6253       6252  
      6121       6122       6133       6132       6242       6243       6254       6253  
      6122       6123       6134       6133       6243       6244       6255       6254  
      6123       6124       6135       6134       6244       6245       6256       6255  
      6124       6125       6136       6135       6245       6246       6257       6256  
      6125       6126       6137       6136       6246       6247       6258       6257  
      6126       6127       6138       6137       6247       6248       6259       6258  
      6128       6129       6140       6139       6249       6250       6261       6260  
      6129       6130       6141       6140       6250       6251       6262       6261  
      6130       6131       6142       6141       6251       6252       6263       6262  
      6131       6132       6143       6142       6252       6253       6264       6263  
      6132       6133       6144       6143       6253       6254       6265       6264  
      6133       6134       6145       6144       6254       6255       6266       6265  
      6134       6135       6146       6145       6255       6256       6267       6266  
      6135       6136       6147       6146       6256       6257       6268       6267  
      6136       6137       6148       6147       6257       6258       6269       6268  
      6137       6138       6149       6148       6258       6259       6270       6269  
      6139       6140       6151       6150       6260       6261       6272       6271  
      6140       6141       6152       6151       6261       6262       6273       6272  
      6141       6142       6153       6152       6262       6263       6274       6273  
      6142       6143       6154       6153       6263       6264       6275       6274  
      6143       6144       6155       6154       6264       6265       6276       6275  
      6144       6145       6156       6155       6265       6266       6277       6276  
      6145       6146       6157       6156       6266       6267       6278       6277  
      6146       6147       6158       6157       6267       6268       6279       6278  
      6147       6148       6159       6158       6268       6269       6280       6279  
      6148       6149       6160       6159       6269       6270       6281       6280  
      6150       6151       6162       6161       6271       6272       6283       6282  
      6151       6152       6163       6162       6272       6273       6284       6283  
      6152       6153       6164       6163       6273       6274       6285       6284  
      6153       6154       6165       6164       6274       6275       6286       6285  
      6154       6155       6166       6165       6275       6276       6287       6286  
      6155       6156       6167       6166       6276       6277       6288       6287  
      6156       6157       6168       6167       6277       6278       6289       6288  
      6157       6158       6169       6168       6278       6279       6290       6289  
      6158       6159       6170       6169       6279       6280       6291       6290  
      6159       6160       6171       6170       6280       6281       6292       6291  
      6172       6173       6184       6183       6293       6294       6305       6304  
      6173       6174       6185       6184       6294       6295       6306       6305  
      6174       6175       6186       6185       6295       6296       6307       6306  
      6175       6176       6187       6186       6296       6297       6308       6307  
      6176       6177       6188       6187       6297       6298       6309       6308  
      6177       6178       6189       6188       6298       6299       6310       6309  
      6178       6179       6190       6189       6299       6300       6311       6310  
      6179       6180       6191       6190       6300       6301       6312       6311  
      6180       6181       6192       6191       6301       6302       6313       6312  
      6181       6182       6193       6192       6302       6303       6314       6313  
      6183       6184       6195       6194       6304       6305       6316       6315  
      6184       6185       6196       6195       6305       6306       6317       6316  
      6185       6186       6197       6196       6306       6307       6318       6317  
      6186       6187       6198       6197       6307       6308       6319       6318  
      6187       6188       6199       6198       6308       6309       6320       6319  
      6188       6189       6200       6199       6309       6310       6321       6320  
      6189       6190       6201       6200       6310       6311       6322       6321  
      6190       6191       6202       6201       6311       6312       6323       6322  
      6191       6192       6203       6202       6312       6313       6324       6323  
      6192       6193       6204       6203       6313       6314       6325       6324  
      6194       6195       6206       6205       6315       6316       6327       6326  
      6195       6196       6207       6206       6316       6317       6328       6327  
      6196       6197       6208       6207       6317       6318       6329       6328  
      6197       6198       6209       6208       6318       6319       6330       6329  
      6198       6199       6210       6209       6319       6320       6331       6330  
      6199       6200       6211       6210       6320       6321       6332       6331  
      6200       6201       6212       6211       6321       6322       6333       6332  
      6201       6202       6213       6212       6322       6323       6334       6333  
      6202       6203       6214       6213       6323       6324       6335       6334  
      6203       6204       6215       6214       6324       6325       6336       6335  
      6205       6206       6217       6216       6326       6327       6338       6337  
      6206       6207       6218       6217       6327       6328       6339       6338  
      6207       6208       6219       6218       6328       6329       6340       6339  
      6208       6209       6220       6219       6329       6330       6341       6340  
      6209       6210       6221       6220       6330       6331       6342       6341  
      6210       6211       6222       6221       6331       6332       6343       6342  
      6211       6212       6223       6222       6332       6333       6344       6343  
      6212       6213       6224       6223       6333       6334       6345       6344  
      6213       6214       6225       6224       6334       6335       6346       6345  
      6214       6215       6226       6225       6335       6336       6347       6346  
      6216       6217       6228       6227       6337       6338       6349       6348  
      6217       6218       6229       6228       6338       6339       6350       6349  
      6218       6219       6230       6229       6339       6340       6351       6350  
      6219       6220       6231       6230       6340       6341       6352       6351  
      6220       6221       6232       6231       6341       6342       6353       6352  
      6221       6222       6233       6232       6342       6343       6354       6353  
      6222       6223       6234       6233       6343       6344       6355       6354  
      6223       6224       6235       6234       6344       6345       6356       6355  
      6224       6225       6236       6235       6345       6346       6357       6356  
      6225       6226       6237       6236       6346       6347       6358       6357  
      6227       6228       6239       6238       6348       6349       6360       6359  
      6228       6229       6240       6239       6349       6350       6361       6360  
      6229       6230       6241       6240       6350       6351       6362       6361  
      6230       6231       6242       6241       6351       6352       6363       6362  
      6231       6232       6243       6242       6352       6353       6364       6363  
      6232       6233       6244       6243       6353       6354       6365       6364  
      6233       6234       6245       6244       6354       6355       6366       6365  
      6234       6235       6246       6245       6355       6356       6367       6366  
      6235       6236       6247       6246       6356       6357       6368       6367  
      6236       6237       6248       6247       6357       6358       6369       6368  
      6238       6239       6250       6249       6359       6360       6371       6370  
      6239       6240       6251       6250       6360       6361       6372       6371  
      6240       6241       6252       6251       6361       6362       6373       6372  
      6241       6242       6253       6252       6362       6363       6374       6373  
      6242       6243       6254       6253       6363       6364       6375       6374  
      6243       6244       6255       6254       6364       6365       6376       6375  
      6244       6245       6256       6255       6365       6366       6377       6376  
      6245       6246       6257       6256       6366       6367       6378       6377  
      6246       6247       6258       6257       6367       6368       6379       6378  
      6247       6248       6259       6258       6368       6369       6380       6379  
      6249       6250       6261       6260       6370       6371       6382       6381  
      6250       6251       6262       6261       6371       6372       6383       6382  
      6251       6252       6263       6262       6372       6373       6384       6383  
      6252       6253       6264       6263       6373       6374       6385       6384  
      6253       6254       6265       6264       6374       6375       6386       6385  
      6254       6255       6266       6265       6375       6376       6387       6386  
      6255       6256       6267       6266       6376       6377       6388       6387  
      6256       6257       6268       6267       6377       6378       6389       6388  
      6257       6258       6269       6268       6378       6379       6390       6389  
      6258       6259       6270       6269       6379       6380       6391       6390  
      6260       6261       6272       6271       6381       6382       6393       6392  
      6261       6262       6273       6272       6382       6383       6394       6393  
      6262       6263       6274       6273       6383       6384       6395       6394  
      6263       6264       6275       6274       6384       6385       6396       6395  
      6264       6265       6276       6275       6385       6386       6397       6396  
      6265       6266       6277       6276       6386       6387       6398       6397  
      6266       6267       6278       6277       6387       6388       6399       6398  
      6267       6268       6279       6278       6388       6389       6400       6399  
      6268       6269       6280       6279       6389       6390       6401       6400  
      6269       6270       6281       6280       6390       6391       6402       6401  
      6271       6272       6283       6282       6392       6393       6404       6403  
      6272       6273       6284       6283       6393       6394       6405       6404  
      6273       6274       6285       6284       6394       6395       6406       6405  
      6274       6275       6286       6285       6395       6396       6407       6406  
      6275       6276       6287       6286       6396       6397       6408       6407  
      6276       6277       6288       6287       6397       6398       6409       6408  
      6277       6278       6289       6288       6398       6399       6410       6409  
      6278       6279       6290       6289       6399       6400       6411       6410  
      6279       6280       6291       6290       6400       6401       6412       6411  
      6280       6281       6292       6291       6401       6402       6413       6412  
      6293       6294       6305       6304       6414       6415       6426       6425  
      6294       6295       6306       6305       6415       6416       6427       6426  
      6295       6296       6307       6306       6416       6417       6428       6427  
      6296       6297       6308       6307       6417       6418       6429       6428  
      6297       6298       6309       6308       6418       6419       6430       6429  
      6298       6299       6310       6309       6419       6420       6431       6430  
      6299       6300       6311       6310       6420       6421       6432       6431  
      6300       6301       6312       6311       6421       6422       6433       6432  
      6301       6302       6313       6312       6422       6423       6434       6433  
      6302       6303       6314       6313       6423       6424       6435       6434  
      6304       6305       6316       6315       6425       6426       6437       6436  
      6305       6306       6317       6316       6426       6427       6438       6437  
      6306       6307       6318       6317       6427       6428       6439       6438  
      6307       6308       6319       6318       6428       6429       6440       6439  
      6308       6309       6320       6319       6429       6430       6441       6440  
      6309       6310       6321       6320       6430       6431       6442       6441  
      6310       6311       6322       6321       6431       6432       6443       6442  
      6311       6312       6323       6322       6432       6433       6444       6443  
      6312       6313       6324       6323       6433       6434       6445       6444  
      6313       6314       6325       6324       6434       6435       6446       6445  
      6315       6316       6327       6326       6436       6437       6448       6447  
      6316       6317       6328       6327       6437       6438       6449       6448  
      6317       6318       6329       6328       6438       6439       6450       6449  
      6318       6319       6330       6329       6439       6440       6451       6450  
      6319       6320       6331       6330       6440       6441       6452       6451  
      6320       6321       6332       6331       6441       6442       6453       6452  
      6321       6322       6333       6332       6442       6443       6454       6453  
      6322       6323       6334       6333       6443       6444       6455       6454  
      6323       6324       6335       6334       6444       6445       6456       6455  
      6324       6325       6336       6335       6445       6446       6457       6456  
      6326       6327       6338       6337       6447       6448       6459       6458  
      6327       6328       6339       6338       6448       6449       6460       6459  
      6328       6329       6340       6339       6449       6450       6461       6460  
      6329       6330       6341       6340       6450       6451       6462       6461  
      6330       6331       6342       6341       6451       6452       6463       6462  
      6331       6332       6343       6342       6452       6453       6464       6463  
      6332       6333       6344       6343       6453       6454       6465       6464  
      6333       6334       6345       6344       6454       6455       6466       6465  
      6334       6335       6346       6345       6455       6456       6467       6466  
      6335       6336       6347       6346       6456       6457       6468       6467  
      6337       6338       6349       6348       6458       6459       6470       6469  
      6338       6339       6350       6349       6459       6460       6471       6470  
      6339       6340       6351       6350       6460       6461       6472       6471  
      6340       6341       6352       6351       6461       6462       6473       6472  
      6341       6342       6353       6352       6462       6463       6474       6473  
      6342       6343       6354       6353       6463       6464       6475       6474  
      6343       6344       6355       6354       6464       6465       6476       6475  
      6344       6345       6356       6355       6465       6466       6477       6476  
      6345       6346       6357       6356       6466       6467       6478       6477  
      6346       6347       6358       6357       6467       6468       6479       6478  
      6348       6349       6360       6359       6469       6470       6481       6480  
      6349       6350       6361       6360       6470       6471       6482       6481  
      6350       6351       6362       6361       6471       6472       6483       6482  
      6351       6352       6363       6362       6472       6473       6484       6483  
      6352       6353       6364       6363       6473       6474       6485       6484  
      6353       6354       6365       6364       6474       6475       6486       6485  
      6354       6355       6366       6365       6475       6476       6487       6486  
      6355       6356       6367       6366       6476       6477       6488       6487  
      6356       6357       6368       6367       6477       6478       6489       6488  
      6357       6358       6369       6368       6478       6479       6490       6489  
      6359       6360       6371       6370       6480       6481       6492       6491  
      6360       6361       6372       6371       6481       6482       6493       6492  
      6361       6362       6373       6372       6482       6483       6494       6493  
      6362       6363       6374       6373       6483       6484       6495       6494  
      6363       6364       6375       6374       6484       6485       6496       6495  
      6364       6365       6376       6375       6485       6486       6497       6496  
      6365       6366       6377       6376       6486       6487       6498       6497  
      6366       6367       6378       6377       6487       6488       6499       6498  
      6367       6368       6379       6378       6488       6489       6500       6499  
      6368       6369       6380       6379       6489       6490       6501       6500  
      6370       6371       6382       6381       6491       6492       6503       6502  
      6371       6372       6383       6382       6492       6493       6504       6503  
      6372       6373       6384       6383       6493       6494       6505       6504  
      6373       6374       6385       6384       6494       6495       6506       6505  
      6374       6375       6386       6385       6495       6496       6507       6506  
      6375       6376       6387       6386       6496       6497       6508       6507  
      6376       6377       6388       6387       6497       6498       6509       6508  
      6377       6378       6389       6388       6498       6499       6510       6509  
      6378       6379       6390       6389       6499       6500       6511       6510  
      6379       6380       6391       6390       6500       6501       6512       6511  
      6381       6382       6393       6392       6502       6503       6514       6513  
      6382       6383       6394       6393       6503       6504       6515       6514  
      6383       6384       6395       6394       6504       6505       6516       6515  
      6384       6385       6396       6395       6505       6506       6517       6516  
      6385       6386       6397       6396       6506       6507       6518       6517  
      6386       6387       6398       6397       6507       6508       6519       6518  
      6387       6388       6399       6398       6508       6509       6520       6519  
      6388       6389       6400       6399       6509       6510       6521       6520  
      6389       6390       6401       6400       6510       6511       6522       6521  
      6390       6391       6402       6401       6511       6512       6523       6522  
      6392       6393       6404       6403       6513       6514       6525       6524  
      6393       6394       6405       6404       6514       6515       6526       6525  
      6394       6395       6406       6405       6515       6516       6527       6526  
      6395       6396       6407       6406       6516       6517       6528       6527  
      6396       6397       6408       6407       6517       6518       6529       6528  
      6397       6398       6409       6408       6518       6519       6530       6529  
      6398       6399       6410       6409       6519       6520       6531       6530  
      6399       6400       6411       6410       6520       6521       6532       6531  
      6400       6401       6412       6411       6521       6522       6533       6532  
      6401       6402       6413       6412       6522       6523       6534       6533  
      6414       6415       6426       6425       6535       6536       6547       6546  
      6415       6416       6427       6426       6536       6537       6548       6547  
      6416       6417       6428       6427       6537       6538       6549       6548  
      6417       6418       6429       6428       6538       6539       6550       6549  
      6418       6419       6430       6429       6539       6540       6551       6550  
      6419       6420       6431       6430       6540       6541       6552       6551  
      6420       6421       6432       6431       6541       6542       6553       6552  
      6421       6422       6433       6432       6542       6543       6554       6553  
      6422       6423       6434       6433       6543       6544       6555       6554  
      6423       6424       6435       6434       6544       6545       6556       6555  
      6425       6426       6437       6436       6546       6547       6558       6557  
      6426       6427       6438       6437       6547       6548       6559       6558  
      6427       6428       6439       6438       6548       6549       6560       6559  
      6428       6429       6440       6439       6549       6550       6561       6560  
      6429       6430       6441       6440       6550       6551       6562       6561  
      6430       6431       6442       6441       6551       6552       6563       6562  
      6431       6432       6443       6442       6552       6553       6564       6563  
      6432       6433       6444       6443       6553       6554       6565       6564  
      6433       6434       6445       6444       6554       6555       6566       6565  
      6434       6435       6446       6445       6555       6556       6567       6566  
      6436       6437       6448       6447       6557       6558       6569       6568  
      6437       6438       6449       6448       6558       6559       6570       6569  
      6438       6439       6450       6449       6559       6560       6571       6570  
      6439       6440       6451       6450       6560       6561       6572       6571  
      6440       6441       6452       6451       6561       6562       6573       6572  
      6441       6442       6453       6452       6562       6563       6574       6573  
      6442       6443       6454       6453       6563       6564       6575       6574  
      6443       6444       6455       6454       6564       6565       6576       6575  
      6444       6445       6456       6455       6565       6566       6577       6576  
      6445       6446       6457       6456       6566       6567       6578       6577  
      6447       6448       6459       6458       6568       6569       6580       6579  
      6448       6449       6460       6459       6569       6570       6581       6580  
      6449       6450       6461       6460       6570       6571       6582       6581  
      6450       6451       6462       6461       6571       6572       6583       6582  
      6451       6452       6463       6462       6572       6573       6584       6583  
      6452       6453       6464       6463       6573       6574       6585       6584  
      6453       6454       6465       6464       6574       6575       6586       6585  
      6454       6455       6466       6465       6575       6576       6587       6586  
      6455       6456       6467       6466       6576       6577       6588       6587  
      6456       6457       6468       6467       6577       6578       6589       6588  
      6458       6459       6470       6469       6579       6580       6591       6590  
      6459       6460       6471       6470       6580       6581       6592       6591  
      6460       6461       6472       6471       6581       6582       6593       6592  
      6461       6462       6473       6472       6582       6583       6594       6593  
      6462       6463       6474       6473       6583       6584       6595       6594  
      6463       6464       6475       6474       6584       6585       6596       6595  
      6464       6465       6476       6475       6585       6586       6597       6596  
      6465       6466       6477       6476       6586       6587       6598       6597  
      6466       6467       6478       6477       6587       6588       6599       6598  
      6467       6468       6479       6478       6588       6589       6600       6599  
      6469       6470       6481       6480       6590       6591       6602       6601  
      6470       6471       6482       6481       6591       6592       6603       6602  
      6471       6472       6483       6482       6592       6593       6604       6603  
      6472       6473       6484       6483       6593       6594       6605       6604  
      6473       6474       6485       6484       6594       6595       6606       6605  
      6474       6475       6486       6485       6595       6596       6607       6606  
      6475       6476       6487       6486       6596       6597       6608       6607  
      6476       6477       6488       6487       6597       6598       6609       6608  
      6477       6478       6489       6488       6598       6599       6610       6609  
      6478       6479       6490       6489       6599       6600       6611       6610  
      6480       6481       6492       6491       6601       6602       6613       6612  
      6481       6482       6493       6492       6602       6603       6614       6613  
      6482       6483       6494       6493       6603       6604       6615       6614  
      6483       6484       6495       6494       6604       6605       6616       6615  
      6484       6485       6496       6495       6605       6606       6617       6616  
      6485       6486       6497       6496       6606       6607       6618       6617  
      6486       6487       6498       6497       6607       6608       6619       6618  
      6487       6488       6499       6498       6608       6609       6620       6619  
      6488       6489       6500       6499       6609       6610       6621       6620  
      6489       6490       6501       6500       6610       6611       6622       6621  
      6491       6492       6503       6502       6612       6613       6624       6623  
      6492       6493       6504       6503       6613       6614       6625       6624  
      6493       6494       6505       6504       6614       6615       6626       6625  
      6494       6495       6506       6505       6615       6616       6627       6626  
      6495       6496       6507       6506       6616       6617       6628       6627  
      6496       6497       6508       6507       6617       6618       6629       6628  
      6497       6498       6509       6508       6618       6619       6630       6629  
      6498       6499       6510       6509       6619       6620       6631       6630  
      6499       6500       6511       6510       6620       6621       6632       6631  
      6500       6501       6512       6511       6621       6622       6633       6632  
      6502       6503       6514       6513       6623       6624       6635       6634  
      6503       6504       6515       6514       6624       6625       6636       6635  
      6504       6505       6516       6515       6625       6626       6637       6636  
      6505       6506       6517       6516       6626       6627       6638       6637  
      6506       6507       6518       6517       6627       6628       6639       6638  
      6507       6508       6519       6518       6628       6629       6640       6639  
      6508       6509       6520       6519       6629       6630       6641       6640  
      6509       6510       6521       6520       6630       6631       6642       6641  
      6510       6511       6522       6521       6631       6632       6643       6642  
      6511       6512       6523       6522       6632       6633       6644       6643  
      6513       6514       6525       6524       6634       6635       6646       6645  
      6514       6515       6526       6525       6635       6636       6647       6646  
      6515       6516       6527       6526       6636       6637       6648       6647  
      6516       6517       6528       6527       6637       6638       6649       6648  
      6517       6518       6529       6528       6638       6639       6650       6649  
      6518       6519       6530       6529       6639       6640       6651       6650  
      6519       6520       6531       6530       6640       6641       6652       6651  
      6520       6521       6532       6531       6641       6642       6653       6652  
      6521       6522       6533       6532       6642       6643       6654       6653  
      6522       6523       6534       6533       6643       6644       6655       6654  
      6535       6536       6547       6546       6656       6657       6668       6667  
      6536       6537       6548       6547       6657       6658       6669       6668  
      6537       6538       6549       6548       6658       6659       6670       6669  
      6538       6539       6550       6549       6659       6660       6671       6670  
      6539       6540       6551       6550       6660       6661       6672       6671  
      6540       6541       6552       6551       6661       6662       6673       6672  
      6541       6542       6553       6552       6662       6663       6674       6673  
      6542       6543       6554       6553       6663       6664       6675       6674  
      6543       6544       6555       6554       6664       6665       6676       6675  
      6544       6545       6556       6555       6665       6666       6677       6676  
      6546       6547       6558       6557       6667       6668       6679       6678  
      6547       6548       6559       6558       6668       6669       6680       6679  
      6548       6549       6560       6559       6669       6670       6681       6680  
      6549       6550       6561       6560       6670       6671       6682       6681  
      6550       6551       6562       6561       6671       6672       6683       6682  
      6551       6552       6563       6562       6672       6673       6684       6683  
      6552       6553       6564       6563       6673       6674       6685       6684  
      6553       6554       6565       6564       6674       6675       6686       6685  
      6554       6555       6566       6565       6675       6676       6687       6686  
      6555       6556       6567       6566       6676       6677       6688       6687  
      6557       6558       6569       6568       6678       6679       6690       6689  
      6558       6559       6570       6569       6679       6680       6691       6690  
      6559       6560       6571       6570       6680       6681       6692       6691  
      6560       6561       6572       6571       6681       6682       6693       6692  
      6561       6562       6573       6572       6682       6683       6694       6693  
      6562       6563       6574       6573       6683       6684       6695       6694  
      6563       6564       6575       6574       6684       6685       6696       6695  
      6564       6565       6576       6575       6685       6686       6697       6696  
      6565       6566       6577       6576       6686       6687       6698       6697  
      6566       6567       6578       6577       6687       6688       6699       6698  
      6568       6569       6580       6579       6689       6690       6701       6700  
      6569       6570       6581       6580       6690       6691       6702       6701  
      6570       6571       6582       6581       6691       6692       6703       6702  
      6571       6572       6583       6582       6692       6693       6704       6703  
      6572       6573       6584       6583       6693       6694       6705       6704  
      6573       6574       6585       6584       6694       6695       6706       6705  
      6574       6575       6586       6585       6695       6696       6707       6706  
      6575       6576       6587       6586       6696       6697       6708       6707  
      6576       6577       6588       6587       6697       6698       6709       6708  
      6577       6578       6589       6588       6698       6699       6710       6709  
      6579       6580       6591       6590       6700       6701       6712       6711  
      6580       6581       6592       6591       6701       6702       6713       6712  
      6581       6582       6593       6592       6702       6703       6714       6713  
      6582       6583       6594       6593       6703       6704       6715       6714  
      6583       6584       6595       6594       6704       6705       6716       6715  
      6584       6585       6596       6595       6705       6706       6717       6716  
      6585       6586       6597       6596       6706       6707       6718       6717  
      6586       6587       6598       6597       6707       6708       6719       6718  
      6587       6588       6599       6598       6708       6709       6720       6719  
      6588       6589       6600       6599       6709       6710       6721       6720  
      6590       6591       6602       6601       6711       6712       6723       6722  
      6591       6592       6603       6602       6712       6713       6724       6723  
      6592       6593       6604       6603       6713       6714       6725       6724  
      6593       6594       6605       6604       6714       6715       6726       6725  
      6594       6595       6606       6605       6715       6716       6727       6726  
      6595       6596       6607       6606       6716       6717       6728       6727  
      6596       6597       6608       6607       6717       6718       6729       6728  
      6597       6598       6609       6608       6718       6719       6730       6729  
      6598       6599       6610       6609       6719       6720       6731       6730  
      6599       6600       6611       6610       6720       6721       6732       6731  
      6601       6602       6613       6612       6722       6723       6734       6733  
      6602       6603       6614       6613       6723       6724       6735       6734  
      6603       6604       6615       6614       6724       6725       6736       6735  
      6604       6605       6616       6615       6725       6726       6737       6736  
      6605       6606       6617       6616       6726       6727       6738       6737  
      6606       6607       6618       6617       6727       6728       6739       6738  
      6607       6608       6619       6618       6728       6729       6740       6739  
      6608       6609       6620       6619       6729       6730       6741       6740  
      6609       6610       6621       6620       6730       6731       6742       6741  
      6610       6611       6622       6621       6731       6732       6743       6742  
      6612       6613       6624       6623       6733       6734       6745       6744  
      6613       6614       6625       6624       6734       6735       6746       6745  
      6614       6615       6626       6625       6735       6736       6747       6746  
      6615       6616       6627       6626       6736       6737       6748       6747  
      6616       6617       6628       6627       6737       6738       6749       6748  
      6617       6618       6629       6628       6738       6739       6750       6749  
      6618       6619       6630       6629       6739       6740       6751       6750  
      6619       6620       6631       6630       6740       6741       6752       6751  
      6620       6621       6632       6631       6741       6742       6753       6752  
      6621       6622       6633       6632       6742       6743       6754       6753  
      6623       6624       6635       6634       6744       6745       6756       6755  
      6624       6625       6636       6635       6745       6746       6757       6756  
      6625       6626       6637       6636       6746       6747       6758       6757  
      6626       6627       6638       6637       6747       6748       6759       6758  
      6627       6628       6639       6638       6748       6749       6760       6759  
      6628       6629       6640       6639       6749       6750       6761       6760  
      6629       6630       6641       6640       6750       6751       6762       6761  
      6630       6631       6642       6641       6751       6752       6763       6762  
      6631       6632       6643       6642       6752       6753       6764       6763  
      6632       6633       6644       6643       6753       6754       6765       6764  
      6634       6635       6646       6645       6755       6756       6767       6766  
      6635       6636       6647       6646       6756       6757       6768       6767  
      6636       6637       6648       6647       6757       6758       6769       6768  
      6637       6638       6649       6648       6758       6759       6770       6769  
      6638       6639       6650       6649       6759       6760       6771       6770  
      6639       6640       6651       6650       6760       6761       6772       6771  
      6640       6641       6652       6651       6761       6762       6773       6772  
      6641       6642       6653       6652       6762       6763       6774       6773  
      6642       6643       6654       6653       6763       6764       6775       6774  
      6643       6644       6655       6654       6764       6765       6776       6775  
      6656       6657       6668       6667       6777       6778       6789       6788  
      6657       6658       6669       6668       6778       6779       6790       6789  
      6658       6659       6670       6669       6779       6780       6791       6790  
      6659       6660       6671       6670       6780       6781       6792       6791  
      6660       6661       6672       6671       6781       6782       6793       6792  
      6661       6662       6673       6672       6782       6783       6794       6793  
      6662       6663       6674       6673       6783       6784       6795       6794  
      6663       6664       6675       6674       6784       6785       6796       6795  
      6664       6665       6676       6675       6785       6786       6797       6796  
      6665       6666       6677       6676       6786       6787       6798       6797  
      6667       6668       6679       6678       6788       6789       6800       6799  
      6668       6669       6680       6679       6789       6790       6801       6800  
      6669       6670       6681       6680       6790       6791       6802       6801  
      6670       6671       6682       6681       6791       6792       6803       6802  
      6671       6672       6683       6682       6792       6793       6804       6803  
      6672       6673       6684       6683       6793       6794       6805       6804  
      6673       6674       6685       6684       6794       6795       6806       6805  
      6674       6675       6686       6685       6795       6796       6807       6806  
      6675       6676       6687       6686       6796       6797       6808       6807  
      6676       6677       6688       6687       6797       6798       6809       6808  
      6678       6679       6690       6689       6799       6800       6811       6810  
      6679       6680       6691       6690       6800       6801       6812       6811  
      6680       6681       6692       6691       6801       6802       6813       6812  
      6681       6682       6693       6692       6802       6803       6814       6813  
      6682       6683       6694       6693       6803       6804       6815       6814  
      6683       6684       6695       6694       6804       6805       6816       6815  
      6684       6685       6696       6695       6805       6806       6817       6816  
      6685       6686       6697       6696       6806       6807       6818       6817  
      6686       6687       6698       6697       6807       6808       6819       6818  
      6687       6688       6699       6698       6808       6809       6820       6819  
      6689       6690       6701       6700       6810       6811       6822       6821  
      6690       6691       6702       6701       6811       6812       6823       6822  
      6691       6692       6703       6702       6812       6813       6824       6823  
      6692       6693       6704       6703       6813       6814       6825       6824  
      6693       6694       6705       6704       6814       6815       6826       6825  
      6694       6695       6706       6705       6815       6816       6827       6826  
      6695       6696       6707       6706       6816       6817       6828       6827  
      6696       6697       6708       6707       6817       6818       6829       6828  
      6697       6698       6709       6708       6818       6819       6830       6829  
      6698       6699       6710       6709       6819       6820       6831       6830  
      6700       6701       6712       6711       6821       6822       6833       6832  
      6701       6702       6713       6712       6822       6823       6834       6833  
      6702       6703       6714       6713       6823       6824       6835       6834  
      6703       6704       6715       6714       6824       6825       6836       6835  
      6704       6705       6716       6715       6825       6826       6837       6836  
      6705       6706       6717       6716       6826       6827       6838       6837  
      6706       6707       6718       6717       6827       6828       6839       6838  
      6707       6708       6719       6718       6828       6829       6840       6839  
      6708       6709       6720       6719       6829       6830       6841       6840  
      6709       6710       6721       6720       6830       6831       6842       6841  
      6711       6712       6723       6722       6832       6833       6844       6843  
      6712       6713       6724       6723       6833       6834       6845       6844  
      6713       6714       6725       6724       6834       6835       6846       6845  
      6714       6715       6726       6725       6835       6836       6847       6846  
      6715       6716       6727       6726       6836       6837       6848       6847  
      6716       6717       6728       6727       6837       6838       6849       6848  
      6717       6718       6729       6728       6838       6839       6850       6849  
      6718       6719       6730       6729       6839       6840       6851       6850  
      6719       6720       6731       6730       6840       6841       6852       6851  
      6720       6721       6732       6731       6841       6842       6853       6852  
      6722       6723       6734       6733       6843       6844       6855       6854  
      6723       6724       6735       6734       6844       6845       6856       6855  
      6724       6725       6736       6735       6845       6846       6857       6856  
      6725       6726       6737       6736       6846       6847       6858       6857  
      6726       6727       6738       6737       6847       6848       6859       6858  
      6727       6728       6739       6738       6848       6849       6860       6859  
      6728       6729       6740       6739       6849       6850       6861       6860  
      6729       6730       6741       6740       6850       6851       6862       6861  
      6730       6731       6742       6741       6851       6852       6863       6862  
      6731       6732       6743       6742       6852       6853       6864       6863  
      6733       6734       6745       6744       6854       6855       6866       6865  
      6734       6735       6746       6745       6855       6856       6867       6866  
      6735       6736       6747       6746       6856       6857       6868       6867  
      6736       6737       6748       6747       6857       6858       6869       6868  
      6737       6738       6749       6748       6858       6859       6870       6869  
      6738       6739       6750       6749       6859       6860       6871       6870  
      6739       6740       6751       6750       6860       6861       6872       6871  
      6740       6741       6752       6751       6861       6862       6873       6872  
      6741       6742       6753       6752       6862       6863       6874       6873  
      6742       6743       6754       6753       6863       6864       6875       6874  
      6744       6745       6756       6755       6865       6866       6877       6876  
      6745       6746       6757       6756       6866       6867       6878       6877  
      6746       6747       6758       6757       6867       6868       6879       6878  
      6747       6748       6759       6758       6868       6869       6880       6879  
      6748       6749       6760       6759       6869       6870       6881       6880  
      6749       6750       6761       6760       6870       6871       6882       6881  
      6750       6751       6762       6761       6871       6872       6883       6882  
      6751       6752       6763       6762       6872       6873       6884       6883  
      6752       6753       6764       6763       6873       6874       6885       6884  
      6753       6754       6765       6764       6874       6875       6886       6885  
      6755       6756       6767       6766       6876       6877       6888       6887  
      6756       6757       6768       6767       6877       6878       6889       6888  
      6757       6758       6769       6768       6878       6879       6890       6889  
      6758       6759       6770       6769       6879       6880       6891       6890  
      6759       6760       6771       6770       6880       6881       6892       6891  
      6760       6761       6772       6771       6881       6882       6893       6892  
      6761       6762       6773       6772       6882       6883       6894       6893  
      6762       6763       6774       6773       6883       6884       6895       6894  
      6763       6764       6775       6774       6884       6885       6896       6895  
      6764       6765       6776       6775       6885       6886       6897       6896  
      6777       6778       6789       6788       6898       6899       6910       6909  
      6778       6779       6790       6789       6899       6900       6911       6910  
      6779       6780       6791       6790       6900       6901       6912       6911  
      6780       6781       6792       6791       6901       6902       6913       6912  
      6781       6782       6793       6792       6902       6903       6914       6913  
      6782       6783       6794       6793       6903       6904       6915       6914  
      6783       6784       6795       6794       6904       6905       6916       6915  
      6784       6785       6796       6795       6905       6906       6917       6916  
      6785       6786       6797       6796       6906       6907       6918       6917  
      6786       6787       6798       6797       6907       6908       6919       6918  
      6788       6789       6800       6799       6909       6910       6921       6920  
      6789       6790       6801       6800       6910       6911       6922       6921  
      6790       6791       6802       6801       6911       6912       6923       6922  
      6791       6792       6803       6802       6912       6913       6924       6923  
      6792       6793       6804       6803       6913       6914       6925       6924  
      6793       6794       6805       6804       6914       6915       6926       6925  
      6794       6795       6806       6805       6915       6916       6927       6926  
      6795       6796       6807       6806       6916       6917       6928       6927  
      6796       6797       6808       6807       6917       6918       6929       6928  
      6797       6798       6809       6808       6918       6919       6930       6929  
      6799       6800       6811       6810       6920       6921       6932       6931  
      6800       6801       6812       6811       6921       6922       6933       6932  
      6801       6802       6813       6812       6922       6923       6934       6933  
      6802       6803       6814       6813       6923       6924       6935       6934  
      6803       6804       6815       6814       6924       6925       6936       6935  
      6804       6805       6816       6815       6925       6926       6937       6936  
      6805       6806       6817       6816       6926       6927       6938       6937  
      6806       6807       6818       6817       6927       6928       6939       6938  
      6807       6808       6819       6818       6928       6929       6940       6939  
      6808       6809       6820       6819       6929       6930       6941       6940  
      6810       6811       6822       6821       6931       6932       6943       6942  
      6811       6812       6823       6822       6932       6933       6944       6943  
      6812       6813       6824       6823       6933       6934       6945       6944  
      6813       6814       6825       6824       6934       6935       6946       6945  
      6814       6815       6826       6825       6935       6936       6947       6946  
      6815       6816       6827       6826       6936       6937       6948       6947  
      6816       6817       6828       6827       6937       6938       6949       6948  
      6817       6818       6829       6828       6938       6939       6950       6949  
      6818       6819       6830       6829       6939       6940       6951       6950  
      6819       6820       6831       6830       6940       6941       6952       6951  
      6821       6822       6833       6832       6942       6943       6954       6953  
      6822       6823       6834       6833       6943       6944       6955       6954  
      6823       6824       6835       6834       6944       6945       6956       6955  
      6824       6825       6836       6835       6945       6946       6957       6956  
      6825       6826       6837       6836       6946       6947       6958       6957  
      6826       6827       6838       6837       6947       6948       6959       6958  
      6827       6828       6839       6838       6948       6949       6960       6959  
      6828       6829       6840       6839       6949       6950       6961       6960  
      6829       6830       6841       6840       6950       6951       6962       6961  
      6830       6831       6842       6841       6951       6952       6963       6962  
      6832       6833       6844       6843       6953       6954       6965       6964  
      6833       6834       6845       6844       6954       6955       6966       6965  
      6834       6835       6846       6845       6955       6956       6967       6966  
      6835       6836       6847       6846       6956       6957       6968       6967  
      6836       6837       6848       6847       6957       6958       6969       6968  
      6837       6838       6849       6848       6958       6959       6970       6969  
      6838       6839       6850       6849       6959       6960       6971       6970  
      6839       6840       6851       6850       6960       6961       6972       6971  
      6840       6841       6852       6851       6961       6962       6973       6972  
      6841       6842       6853       6852       6962       6963       6974       6973  
      6843       6844       6855       6854       6964       6965       6976       6975  
      6844       6845       6856       6855       6965       6966       6977       6976  
      6845       6846       6857       6856       6966       6967       6978       6977  
      6846       6847       6858       6857       6967       6968       6979       6978  
      6847       6848       6859       6858       6968       6969       6980       6979  
      6848       6849       6860       6859       6969       6970       6981       6980  
      6849       6850       6861       6860       6970       6971       6982       6981  
      6850       6851       6862       6861       6971       6972       6983       6982  
      6851       6852       6863       6862       6972       6973       6984       6983  
      6852       6853       6864       6863       6973       6974       6985       6984  
      6854       6855       6866       6865       6975       6976       6987       6986  
      6855       6856       6867       6866       6976       6977       6988       6987  
      6856       6857       6868       6867       6977       6978       6989       6988  
      6857       6858       6869       6868       6978       6979       6990       6989  
      6858       6859       6870       6869       6979       6980       6991       6990  
      6859       6860       6871       6870       6980       6981       6992       6991  
      6860       6861       6872       6871       6981       6982       6993       6992  
      6861       6862       6873       6872       6982       6983       6994       6993  
      6862       6863       6874       6873       6983       6984       6995       6994  
      6863       6864       6875       6874       6984       6985       6996       6995  
      6865       6866       6877       6876       6986       6987       6998       6997  
      6866       6867       6878       6877       6987       6988       6999       6998  
      6867       6868       6879       6878       6988       6989       7000       6999  
      6868       6869       6880       6879       6989       6990       7001       7000  
      6869       6870       6881       6880       6990       6991       7002       7001  
      6870       6871       6882       6881       6991       6992       7003       7002  
      6871       6872       6883       6882       6992       6993       7004       7003  
      6872       6873       6884       6883       6993       6994       7005       7004  
      6873       6874       6885       6884       6994       6995       7006       7005  
      6874       6875       6886       6885       6995       6996       7007       7006  
      6876       6877       6888       6887       6997       6998       7009       7008  
      6877       6878       6889       6888       6998       6999       7010       7009  
      6878       6879       6890       6889       6999       7000       7011       7010  
      6879       6880       6891       6890       7000       7001       7012       7011  
      6880       6881       6892       6891       7001       7002       7013       7012  
      6881       6882       6893       6892       7002       7003       7014       7013  
      6882       6883       6894       6893       7003       7004       7015       7014  
      6883       6884       6895       6894       7004       7005       7016       7015  
      6884       6885       6896       6895       7005       7006       7017       7016  
      6885       6886       6897       6896       7006       7007       7018       7017  
      6898       6899       6910       6909       7019       7020       7031       7030  
      6899       6900       6911       6910       7020       7021       7032       7031  
      6900       6901       6912       6911       7021       7022       7033       7032  
      6901       6902       6913       6912       7022       7023       7034       7033  
      6902       6903       6914       6913       7023       7024       7035       7034  
      6903       6904       6915       6914       7024       7025       7036       7035  
      6904       6905       6916       6915       7025       7026       7037       7036  
      6905       6906       6917       6916       7026       7027       7038       7037  
      6906       6907       6918       6917       7027       7028       7039       7038  
      6907       6908       6919       6918       7028       7029       7040       7039  
      6909       6910       6921       6920       7030       7031       7042       7041  
      6910       6911       6922       6921       7031       7032       7043       7042  
      6911       6912       6923       6922       7032       7033       7044       7043  
      6912       6913       6924       6923       7033       7034       7045       7044  
      6913       6914       6925       6924       7034       7035       7046       7045  
      6914       6915       6926       6925       7035       7036       7047       7046  
      6915       6916       6927       6926       7036       7037       7048       7047  
      6916       6917       6928       6927       7037       7038       7049       7048  
      6917       6918       6929       6928       7038       7039       7050       7049  
      6918       6919       6930       6929       7039       7040       7051       7050  
      6920       6921       6932       6931       7041       7042       7053       7052  
      6921       6922       6933       6932       7042       7043       7054       7053  
      6922       6923       6934       6933       7043       7044       7055       7054  
      6923       6924       6935       6934       7044       7045       7056       7055  
      6924       6925       6936       6935       7045       7046       7057       7056  
      6925       6926       6937       6936       7046       7047       7058       7057  
      6926       6927       6938       6937       7047       7048       7059       7058  
      6927       6928       6939       6938       7048       7049       7060       7059  
      6928       6929       6940       6939       7049       7050       7061       7060  
      6929       6930       6941       6940       7050       7051       7062       7061  
      6931       6932       6943       6942       7052       7053       7064       7063  
      6932       6933       6944       6943       7053       7054       7065       7064  
      6933       6934       6945       6944       7054       7055       7066       7065  
      6934       6935       6946       6945       7055       7056       7067       7066  
      6935       6936       6947       6946       7056       7057       7068       7067  
      6936       6937       6948       6947       7057       7058       7069       7068  
      6937       6938       6949       6948       7058       7059       7070       7069  
      6938       6939       6950       6949       7059       7060       7071       7070  
      6939       6940       6951       6950       7060       7061       7072       7071  
      6940       6941       6952       6951       7061       7062       7073       7072  
      6942       6943       6954       6953       7063       7064       7075       7074  
      6943       6944       6955       6954       7064       7065       7076       7075  
      6944       6945       6956       6955       7065       7066       7077       7076  
      6945       6946       6957       6956       7066       7067       7078       7077  
      6946       6947       6958       6957       7067       7068       7079       7078  
      6947       6948       6959       6958       7068       7069       7080       7079  
      6948       6949       6960       6959       7069       7070       7081       7080  
      6949       6950       6961       6960       7070       7071       7082       7081  
      6950       6951       6962       6961       7071       7072       7083       7082  
      6951       6952       6963       6962       7072       7073       7084       7083  
      6953       6954       6965       6964       7074       7075       7086       7085  
      6954       6955       6966       6965       7075       7076       7087       7086  
      6955       6956       6967       6966       7076       7077       7088       7087  
      6956       6957       6968       6967       7077       7078       7089       7088  
      6957       6958       6969       6968       7078       7079       7090       7089  
      6958       6959       6970       6969       7079       7080       7091       7090  
      6959       6960       6971       6970       7080       7081       7092       7091  
      6960       6961       6972       6971       7081       7082       7093       7092  
      6961       6962       6973       6972       7082       7083       7094       7093  
      6962       6963       6974       6973       7083       7084       7095       7094  
      6964       6965       6976       6975       7085       7086       7097       7096  
      6965       6966       6977       6976       7086       7087       7098       7097  
      6966       6967       6978       6977       7087       7088       7099       7098  
      6967       6968       6979       6978       7088       7089       7100       7099  
      6968       6969       6980       6979       7089       7090       7101       7100  
      6969       6970       6981       6980       7090       7091       7102       7101  
      6970       6971       6982       6981       7091       7092       7103       7102  
      6971       6972       6983       6982       7092       7093       7104       7103  
      6972       6973       6984       6983       7093       7094       7105       7104  
      6973       6974       6985       6984       7094       7095       7106       7105  
      6975       6976       6987       6986       7096       7097       7108       7107  
      6976       6977       6988       6987       7097       7098       7109       7108  
      6977       6978       6989       6988       7098       7099       7110       7109  
      6978       6979       6990       6989       7099       7100       7111       7110  
      6979       6980       6991       6990       7100       7101       7112       7111  
      6980       6981       6992       6991       7101       7102       7113       7112  
      6981       6982       6993       6992       7102       7103       7114       7113  
      6982       6983       6994       6993       7103       7104       7115       7114  
      6983       6984       6995       6994       7104       7105       7116       7115  
      6984       6985       6996       6995       7105       7106       7117       7116  
      6986       6987       6998       6997       7107       7108       7119       7118  
      6987       6988       6999       6998       7108       7109       7120       7119  
      6988       6989       7000       6999       7109       7110       7121       7120  
      6989       6990       7001       7000       7110       7111       7122       7121  
      6990       6991       7002       7001       7111       7112       7123       7122  
      6991       6992       7003       7002       7112       7113       7124       7123  
      6992       6993       7004       7003       7113       7114       7125       7124  
      6993       6994       7005       7004       7114       7115       7126       7125  
      6994       6995       7006       7005       7115       7116       7127       7126  
      6995       6996       7007       7006       7116       7117       7128       7127  
      6997       6998       7009       7008       7118       7119       7130       7129  
      6998       6999       7010       7009       7119       7120       7131       7130  
      6999       7000       7011       7010       7120       7121       7132       7131  
      7000       7001       7012       7011       7121       7122       7133       7132  
      7001       7002       7013       7012       7122       7123       7134       7133  
      7002       7003       7014       7013       7123       7124       7135       7134  
      7003       7004       7015       7014       7124       7125       7136       7135  
      7004       7005       7016       7015       7125       7126       7137       7136  
      7005       7006       7017       7016       7126       7127       7138       7137  
      7006       7007       7018       7017       7127       7128       7139       7138  
      7019       7020       7031       7030       7140       7141       7152       7151  
      7020       7021       7032       7031       7141       7142       7153       7152  
      7021       7022       7033       7032       7142       7143       7154       7153  
      7022       7023       7034       7033       7143       7144       7155       7154  
      7023       7024       7035       7034       7144       7145       7156       7155  
      7024       7025       7036       7035       7145       7146       7157       7156  
      7025       7026       7037       7036       7146       7147       7158       7157  
      7026       7027       7038       7037       7147       7148       7159       7158  
      7027       7028       7039       7038       7148       7149       7160       7159  
      7028       7029       7040       7039       7149       7150       7161       7160  
      7030       7031       7042       7041       7151       7152       7163       7162  
      7031       7032       7043       7042       7152       7153       7164       7163  
      7032       7033       7044       7043       7153       7154       7165       7164  
      7033       7034       7045       7044       7154       7155       7166       7165  
      7034       7035       7046       7045       7155       7156       7167       7166  
      7035       7036       7047       7046       7156       7157       7168       7167  
      7036       7037       7048       7047       7157       7158       7169       7168  
      7037       7038       7049       7048       7158       7159       7170       7169  
      7038       7039       7050       7049       7159       7160       7171       7170  
      7039       7040       7051       7050       7160       7161       7172       7171  
      7041       7042       7053       7052       7162       7163       7174       7173  
      7042       7043       7054       7053       7163       7164       7175       7174  
      7043       7044       7055       7054       7164       7165       7176       7175  
      7044       7045       7056       7055       7165       7166       7177       7176  
      7045       7046       7057       7056       7166       7167       7178       7177  
      7046       7047       7058       7057       7167       7168       7179       7178  
      7047       7048       7059       7058       7168       7169       7180       7179  
      7048       7049       7060       7059       7169       7170       7181       7180  
      7049       7050       7061       7060       7170       7171       7182       7181  
      7050       7051       7062       7061       7171       7172       7183       7182  
      7052       7053       7064       7063       7173       7174       7185       7184  
      7053       7054       7065       7064       7174       7175       7186       7185  
      7054       7055       7066       7065       7175       7176       7187       7186  
      7055       7056       7067       7066       7176       7177       7188       7187  
      7056       7057       7068       7067       7177       7178       7189       7188  
      7057       7058       7069       7068       7178       7179       7190       7189  
      7058       7059       7070       7069       7179       7180       7191       7190  
      7059       7060       7071       7070       7180       7181       7192       7191  
      7060       7061       7072       7071       7181       7182       7193       7192  
      7061       7062       7073       7072       7182       7183       7194       7193  
      7063       7064       7075       7074       7184       7185       7196       7195  
      7064       7065       7076       7075       7185       7186       7197       7196  
      7065       7066       7077       7076       7186       7187       7198       7197  
      7066       7067       7078       7077       7187       7188       7199       7198  
      7067       7068       7079       7078       7188       7189       7200       7199  
      7068       7069       7080       7079       7189       7190       7201       7200  
      7069       7070       7081       7080       7190       7191       7202       7201  
      7070       7071       7082       7081       7191       7192       7203       7202  
      7071       7072       7083       7082       7192       7193       7204       7203  
      7072       7073       7084       7083       7193       7194       7205       7204  
      7074       7075       7086       7085       7195       7196       7207       7206  
      7075       7076       7087       7086       7196       7197       7208       7207  
      7076       7077       7088       7087       7197       7198       7209       7208  
      7077       7078       7089       7088       7198       7199       7210       7209  
      7078       7079       7090       7089       7199       7200       7211       7210  
      7079       7080       7091       7090       7200       7201       7212       7211  
      7080       7081       7092       7091       7201       7202       7213       7212  
      7081       7082       7093       7092       7202       7203       7214       7213  
      7082       7083       7094       7093       7203       7204       7215       7214  
      7083       7084       7095       7094       7204       7205       7216       7215  
      7085       7086       7097       7096       7206       7207       7218       7217  
      7086       7087       7098       7097       7207       7208       7219       7218  
      7087       7088       7099       7098       7208       7209       7220       7219  
      7088       7089       7100       7099       7209       7210       7221       7220  
      7089       7090       7101       7100       7210       7211       7222       7221  
      7090       7091       7102       7101       7211       7212       7223       7222  
      7091       7092       7103       7102       7212       7213       7224       7223  
      7092       7093       7104       7103       7213       7214       7225       7224  
      7093       7094       7105       7104       7214       7215       7226       7225  
      7094       7095       7106       7105       7215       7216       7227       7226  
      7096       7097       7108       7107       7217       7218       7229       7228  
      7097       7098       7109       7108       7218       7219       7230       7229  
      7098       7099       7110       7109       7219       7220       7231       7230  
      7099       7100       7111       7110       7220       7221       7232       7231  
      7100       7101       7112       7111       7221       7222       7233       7232  
      7101       7102       7113       7112       7222       7223       7234       7233  
      7102       7103       7114       7113       7223       7224       7235       7234  
      7103       7104       7115       7114       7224       7225       7236       7235  
      7104       7105       7116       7115       7225       7226       7237       7236  
      7105       7106       7117       7116       7226       7227       7238       7237  
      7107       7108       7119       7118       7228       7229       7240       7239  
      7108       7109       7120       7119       7229       7230       7241       7240  
      7109       7110       7121       7120       7230       7231       7242       7241  
      7110       7111       7122       7121       7231       7232       7243       7242  
      7111       7112       7123       7122       7232       7233       7244       7243  
      7112       7113       7124       7123       7233       7234       7245       7244  
      7113       7114       7125       7124       7234       7235       7246       7245  
      7114       7115       7126       7125       7235       7236       7247       7246  
      7115       7116       7127       7126       7236       7237       7248       7247  
      7116       7117       7128       7127       7237       7238       7249       7248  
      7118       7119       7130       7129       7239       7240       7251       7250  
      7119       7120       7131       7130       7240       7241       7252       7251  
      7120       7121       7132       7131       7241       7242       7253       7252  
      7121       7122       7133       7132       7242       7243       7254       7253  
      7122       7123       7134       7133       7243       7244       7255       7254  
      7123       7124       7135       7134       7244       7245       7256       7255  
      7124       7125       7136       7135       7245       7246       7257       7256  
      7125       7126       7137       7136       7246       7247       7258       7257  
      7126       7127       7138       7137       7247       7248       7259       7258  
      7127       7128       7139       7138       7248       7249       7260       7259  
      7140       7141       7152       7151       7261       7262       7273       7272  
      7141       7142       7153       7152       7262       7263       7274       7273  
      7142       7143       7154       7153       7263       7264       7275       7274  
      7143       7144       7155       7154       7264       7265       7276       7275  
      7144       7145       7156       7155       7265       7266       7277       7276  
      7145       7146       7157       7156       7266       7267       7278       7277  
      7146       7147       7158       7157       7267       7268       7279       7278  
      7147       7148       7159       7158       7268       7269       7280       7279  
      7148       7149       7160       7159       7269       7270       7281       7280  
      7149       7150       7161       7160       7270       7271       7282       7281  
      7151       7152       7163       7162       7272       7273       7284       7283  
      7152       7153       7164       7163       7273       7274       7285       7284  
      7153       7154       7165       7164       7274       7275       7286       7285  
      7154       7155       7166       7165       7275       7276       7287       7286  
      7155       7156       7167       7166       7276       7277       7288       7287  
      7156       7157       7168       7167       7277       7278       7289       7288  
      7157       7158       7169       7168       7278       7279       7290       7289  
      7158       7159       7170       7169       7279       7280       7291       7290  
      7159       7160       7171       7170       7280       7281       7292       7291  
      7160       7161       7172       7171       7281       7282       7293       7292  
      7162       7163       7174       7173       7283       7284       7295       7294  
      7163       7164       7175       7174       7284       7285       7296       7295  
      7164       7165       7176       7175       7285       7286       7297       7296  
      7165       7166       7177       7176       7286       7287       7298       7297  
      7166       7167       7178       7177       7287       7288       7299       7298  
      7167       7168       7179       7178       7288       7289       7300       7299  
      7168       7169       7180       7179       7289       7290       7301       7300  
      7169       7170       7181       7180       7290       7291       7302       7301  
      7170       7171       7182       7181       7291       7292       7303       7302  
      7171       7172       7183       7182       7292       7293       7304       7303  
      7173       7174       7185       7184       7294       7295       7306       7305  
      7174       7175       7186       7185       7295       7296       7307       7306  
      7175       7176       7187       7186       7296       7297       7308       7307  
      7176       7177       7188       7187       7297       7298       7309       7308  
      7177       7178       7189       7188       7298       7299       7310       7309  
      7178       7179       7190       7189       7299       7300       7311       7310  
      7179       7180       7191       7190       7300       7301       7312       7311  
      7180       7181       7192       7191       7301       7302       7313       7312  
      7181       7182       7193       7192       7302       7303       7314       7313  
      7182       7183       7194       7193       7303       7304       7315       7314  
      7184       7185       7196       7195       7305       7306       7317       7316  
      7185       7186       7197       7196       7306       7307       7318       7317  
      7186       7187       7198       7197       7307       7308       7319       7318  
      7187       7188       7199       7198       7308       7309       7320       7319  
      7188       7189       7200       7199       7309       7310       7321       7320  
      7189       7190       7201       7200       7310       7311       7322       7321  
      7190       7191       7202       7201       7311       7312       7323       7322  
      7191       7192       7203       7202       7312       7313       7324       7323  
      7192       7193       7204       7203       7313       7314       7325       7324  
      7193       7194       7205       7204       7314       7315       7326       7325  
      7195       7196       7207       7206       7316       7317       7328       7327  
      7196       7197       7208       7207       7317       7318       7329       7328  
      7197       7198       7209       7208       7318       7319       7330       7329  
      7198       7199       7210       7209       7319       7320       7331       7330  
      7199       7200       7211       7210       7320       7321       7332       7331  
      7200       7201       7212       7211       7321       7322       7333       7332  
      7201       7202       7213       7212       7322       7323       7334       7333  
      7202       7203       7214       7213       7323       7324       7335       7334  
      7203       7204       7215       7214       7324       7325       7336       7335  
      7204       7205       7216       7215       7325       7326       7337       7336  
      7206       7207       7218       7217       7327       7328       7339       7338  
      7207       7208       7219       7218       7328       7329       7340       7339  
      7208       7209       7220       7219       7329       7330       7341       7340  
      7209       7210       7221       7220       7330       7331       7342       7341  
      7210       7211       7222       7221       7331       7332       7343       7342  
      7211       7212       7223       7222       7332       7333       7344       7343  
      7212       7213       7224       7223       7333       7334       7345       7344  
      7213       7214       7225       7224       7334       7335       7346       7345  
      7214       7215       7226       7225       7335       7336       7347       7346  
      7215       7216       7227       7226       7336       7337       7348       7347  
      7217       7218       7229       7228       7338       7339       7350       7349  
      7218       7219       7230       7229       7339       7340       7351       7350  
      7219       7220       7231       7230       7340       7341       7352       7351  
      7220       7221       7232       7231       7341       7342       7353       7352  
      7221       7222       7233       7232       7342       7343       7354       7353  
      7222       7223       7234       7233       7343       7344       7355       7354  
      7223       7224       7235       7234       7344       7345       7356       7355  
      7224       7225       7236       7235       7345       7346       7357       7356  
      7225       7226       7237       7236       7346       7347       7358       7357  
      7226       7227       7238       7237       7347       7348       7359       7358  
      7228       7229       7240       7239       7349       7350       7361       7360  
      7229       7230       7241       7240       7350       7351       7362       7361  
      7230       7231       7242       7241       7351       7352       7363       7362  
      7231       7232       7243       7242       7352       7353       7364       7363  
      7232       7233       7244       7243       7353       7354       7365       7364  
      7233       7234       7245       7244       7354       7355       7366       7365  
      7234       7235       7246       7245       7355       7356       7367       7366  
      7235       7236       7247       7246       7356       7357       7368       7367  
      7236       7237       7248       7247       7357       7358       7369       7368  
      7237       7238       7249       7248       7358       7359       7370       7369  
      7239       7240       7251       7250       7360       7361       7372       7371  
      7240       7241       7252       7251       7361       7362       7373       7372  
      7241       7242       7253       7252       7362       7363       7374       7373  
      7242       7243       7254       7253       7363       7364       7375       7374  
      7243       7244       7255       7254       7364       7365       7376       7375  
      7244       7245       7256       7255       7365       7366       7377       7376  
      7245       7246       7257       7256       7366       7367       7378       7377  
      7246       7247       7258       7257       7367       7368       7379       7378  
      7247       7248       7259       7258       7368       7369       7380       7379  
      7248       7249       7260       7259       7369       7370       7381       7380  
      7261       7262       7273       7272       7382       7383       7394       7393  
      7262       7263       7274       7273       7383       7384       7395       7394  
      7263       7264       7275       7274       7384       7385       7396       7395  
      7264       7265       7276       7275       7385       7386       7397       7396  
      7265       7266       7277       7276       7386       7387       7398       7397  
      7266       7267       7278       7277       7387       7388       7399       7398  
      7267       7268       7279       7278       7388       7389       7400       7399  
      7268       7269       7280       7279       7389       7390       7401       7400  
      7269       7270       7281       7280       7390       7391       7402       7401  
      7270       7271       7282       7281       7391       7392       7403       7402  
      7272       7273       7284       7283       7393       7394       7405       7404  
      7273       7274       7285       7284       7394       7395       7406       7405  
      7274       7275       7286       7285       7395       7396       7407       7406  
      7275       7276       7287       7286       7396       7397       7408       7407  
      7276       7277       7288       7287       7397       7398       7409       7408  
      7277       7278       7289       7288       7398       7399       7410       7409  
      7278       7279       7290       7289       7399       7400       7411       7410  
      7279       7280       7291       7290       7400       7401       7412       7411  
      7280       7281       7292       7291       7401       7402       7413       7412  
      7281       7282       7293       7292       7402       7403       7414       7413  
      7283       7284       7295       7294       7404       7405       7416       7415  
      7284       7285       7296       7295       7405       7406       7417       7416  
      7285       7286       7297       7296       7406       7407       7418       7417  
      7286       7287       7298       7297       7407       7408       7419       7418  
      7287       7288       7299       7298       7408       7409       7420       7419  
      7288       7289       7300       7299       7409       7410       7421       7420  
      7289       7290       7301       7300       7410       7411       7422       7421  
      7290       7291       7302       7301       7411       7412       7423       7422  
      7291       7292       7303       7302       7412       7413       7424       7423  
      7292       7293       7304       7303       7413       7414       7425       7424  
      7294       7295       7306       7305       7415       7416       7427       7426  
      7295       7296       7307       7306       7416       7417       7428       7427  
      7296       7297       7308       7307       7417       7418       7429       7428  
      7297       7298       7309       7308       7418       7419       7430       7429  
      7298       7299       7310       7309       7419       7420       7431       7430  
      7299       7300       7311       7310       7420       7421       7432       7431  
      7300       7301       7312       7311       7421       7422       7433       7432  
      7301       7302       7313       7312       7422       7423       7434       7433  
      7302       7303       7314       7313       7423       7424       7435       7434  
      7303       7304       7315       7314       7424       7425       7436       7435  
      7305       7306       7317       7316       7426       7427       7438       7437  
      7306       7307       7318       7317       7427       7428       7439       7438  
      7307       7308       7319       7318       7428       7429       7440       7439  
      7308       7309       7320       7319       7429       7430       7441       7440  
      7309       7310       7321       7320       7430       7431       7442       7441  
      7310       7311       7322       7321       7431       7432       7443       7442  
      7311       7312       7323       7322       7432       7433       7444       7443  
      7312       7313       7324       7323       7433       7434       7445       7444  
      7313       7314       7325       7324       7434       7435       7446       7445  
      7314       7315       7326       7325       7435       7436       7447       7446  
      7316       7317       7328       7327       7437       7438       7449       7448  
      7317       7318       7329       7328       7438       7439       7450       7449  
      7318       7319       7330       7329       7439       7440       7451       7450  
      7319       7320       7331       7330       7440       7441       7452       7451  
      7320       7321       7332       7331       7441       7442       7453       7452  
      7321       7322       7333       7332       7442       7443       7454       7453  
      7322       7323       7334       7333       7443       7444       7455       7454  
      7323       7324       7335       7334       7444       7445       7456       7455  
      7324       7325       7336       7335       7445       7446       7457       7456  
      7325       7326       7337       7336       7446       7447       7458       7457  
      7327       7328       7339       7338       7448       7449       7460       7459  
      7328       7329       7340       7339       7449       7450       7461       7460  
      7329       7330       7341       7340       7450       7451       7462       7461  
      7330       7331       7342       7341       7451       7452       7463       7462  
      7331       7332       7343       7342       7452       7453       7464       7463  
      7332       7333       7344       7343       7453       7454       7465       7464  
      7333       7334       7345       7344       7454       7455       7466       7465  
      7334       7335       7346       7345       7455       7456       7467       7466  
      7335       7336       7347       7346       7456       7457       7468       7467  
      7336       7337       7348       7347       7457       7458       7469       7468  
      7338       7339       7350       7349       7459       7460       7471       7470  
      7339       7340       7351       7350       7460       7461       7472       7471  
      7340       7341       7352       7351       7461       7462       7473       7472  
      7341       7342       7353       7352       7462       7463       7474       7473  
      7342       7343       7354       7353       7463       7464       7475       7474  
      7343       7344       7355       7354       7464       7465       7476       7475  
      7344       7345       7356       7355       7465       7466       7477       7476  
      7345       7346       7357       7356       7466       7467       7478       7477  
      7346       7347       7358       7357       7467       7468       7479       7478  
      7347       7348       7359       7358       7468       7469       7480       7479  
      7349       7350       7361       7360       7470       7471       7482       7481  
      7350       7351       7362       7361       7471       7472       7483       7482  
      7351       7352       7363       7362       7472       7473       7484       7483  
      7352       7353       7364       7363       7473       7474       7485       7484  
      7353       7354       7365       7364       7474       7475       7486       7485  
      7354       7355       7366       7365       7475       7476       7487       7486  
      7355       7356       7367       7366       7476       7477       7488       7487  
      7356       7357       7368       7367       7477       7478       7489       7488  
      7357       7358       7369       7368       7478       7479       7490       7489  
      7358       7359       7370       7369       7479       7480       7491       7490  
      7360       7361       7372       7371       7481       7482       7493       7492  
      7361       7362       7373       7372       7482       7483       7494       7493  
      7362       7363       7374       7373       7483       7484       7495       7494  
      7363       7364       7375       7374       7484       7485       7496       7495  
      7364       7365       7376       7375       7485       7486       7497       7496  
      7365       7366       7377       7376       7486       7487       7498       7497  
      7366       7367       7378       7377       7487       7488       7499       7498  
      7367       7368       7379       7378       7488       7489       7500       7499  
      7368       7369       7380       7379       7489       7490       7501       7500  
      7369       7370       7381       7380       7490       7491       7502       7501  
      7382       7383       7394       7393       7503       7504       7515       7514  
      7383       7384       7395       7394       7504       7505       7516       7515  
      7384       7385       7396       7395       7505       7506       7517       7516  
      7385       7386       7397       7396       7506       7507       7518       7517  
      7386       7387       7398       7397       7507       7508       7519       7518  
      7387       7388       7399       7398       7508       7509       7520       7519  
      7388       7389       7400       7399       7509       7510       7521       7520  
      7389       7390       7401       7400       7510       7511       7522       7521  
      7390       7391       7402       7401       7511       7512       7523       7522  
      7391       7392       7403       7402       7512       7513       7524       7523  
      7393       7394       7405       7404       7514       7515       7526       7525  
      7394       7395       7406       7405       7515       7516       7527       7526  
      7395       7396       7407       7406       7516       7517       7528       7527  
      7396       7397       7408       7407       7517       7518       7529       7528  
      7397       7398       7409       7408       7518       7519       7530       7529  
      7398       7399       7410       7409       7519       7520       7531       7530  
      7399       7400       7411       7410       7520       7521       7532       7531  
      7400       7401       7412       7411       7521       7522       7533       7532  
      7401       7402       7413       7412       7522       7523       7534       7533  
      7402       7403       7414       7413       7523       7524       7535       7534  
      7404       7405       7416       7415       7525       7526       7537       7536  
      7405       7406       7417       7416       7526       7527       7538       7537  
      7406       7407       7418       7417       7527       7528       7539       7538  
      7407       7408       7419       7418       7528       7529       7540       7539  
      7408       7409       7420       7419       7529       7530       7541       7540  
      7409       7410       7421       7420       7530       7531       7542       7541  
      7410       7411       7422       7421       7531       7532       7543       7542  
      7411       7412       7423       7422       7532       7533       7544       7543  
      7412       7413       7424       7423       7533       7534       7545       7544  
      7413       7414       7425       7424       7534       7535       7546       7545  
      7415       7416       7427       7426       7536       7537       7548       7547  
      7416       7417       7428       7427       7537       7538       7549       7548  
      7417       7418       7429       7428       7538       7539       7550       7549  
      7418       7419       7430       7429       7539       7540       7551       7550  
      7419       7420       7431       7430       7540       7541       7552       7551  
      7420       7421       7432       7431       7541       7542       7553       7552  
      7421       7422       7433       7432       7542       7543       7554       7553  
      7422       7423       7434       7433       7543       7544       7555       7554  
      7423       7424       7435       7434       7544       7545       7556       7555  
      7424       7425       7436       7435       7545       7546       7557       7556  
      7426       7427       7438       7437       7547       7548       7559       7558  
      7427       7428       7439       7438       7548       7549       7560       7559  
      7428       7429       7440       7439       7549       7550       7561       7560  
      7429       7430       7441       7440       7550       7551       7562       7561  
      7430       7431       7442       7441       7551       7552       7563       7562  
      7431       7432       7443       7442       7552       7553       7564       7563  
      7432       7433       7444       7443       7553       7554       7565       7564  
      7433       7434       7445       7444       7554       7555       7566       7565  
      7434       7435       7446       7445       7555       7556       7567       7566  
      7435       7436       7447       7446       7556       7557       7568       7567  
      7437       7438       7449       7448       7558       7559       7570       7569  
      7438       7439       7450       7449       7559       7560       7571       7570  
      7439       7440       7451       7450       7560       7561       7572       7571  
      7440       7441       7452       7451       7561       7562       7573       7572  
      7441       7442       7453       7452       7562       7563       7574       7573  
      7442       7443       7454       7453       7563       7564       7575       7574  
      7443       7444       7455       7454       7564       7565       7576       7575  
      7444       7445       7456       7455       7565       7566       7577       7576  
      7445       7446       7457       7456       7566       7567       7578       7577  
      7446       7447       7458       7457       7567       7568       7579       7578  
      7448       7449       7460       7459       7569       7570       7581       7580  
      7449       7450       7461       7460       7570       7571       7582       7581  
      7450       7451       7462       7461       7571       7572       7583       7582  
      7451       7452       7463       7462       7572       7573       7584       7583  
      7452       7453       7464       7463       7573       7574       7585       7584  
      7453       7454       7465       7464       7574       7575       7586       7585  
      7454       7455       7466       7465       7575       7576       7587       7586  
      7455       7456       7467       7466       7576       7577       7588       7587  
      7456       7457       7468       7467       7577       7578       7589       7588  
      7457       7458       7469       7468       7578       7579       7590       7589  
      7459       7460       7471       7470       7580       7581       7592       7591  
      7460       7461       7472       7471       7581       7582       7593       7592  
      7461       7462       7473       7472       7582       7583       7594       7593  
      7462       7463       7474       7473       7583       7584       7595       7594  
      7463       7464       7475       7474       7584       7585       7596       7595  
      7464       7465       7476       7475       7585       7586       7597       7596  
      7465       7466       7477       7476       7586       7587       7598       7597  
      7466       7467       7478       7477       7587       7588       7599       7598  
      7467       7468       7479       7478       7588       7589       7600       7599  
      7468       7469       7480       7479       7589       7590       7601       7600  
      7470       7471       7482       7481       7591       7592       7603       7602  
      7471       7472       7483       7482       7592       7593       7604       7603  
      7472       7473       7484       7483       7593       7594       7605       7604  
      7473       7474       7485       7484       7594       7595       7606       7605  
      7474       7475       7486       7485       7595       7596       7607       7606  
      7475       7476       7487       7486       7596       7597       7608       7607  
      7476       7477       7488       7487       7597       7598       7609       7608  
      7477       7478       7489       7488       7598       7599       7610       7609  
      7478       7479       7490       7489       7599       7600       7611       7610  
      7479       7480       7491       7490       7600       7601       7612       7611  
      7481       7482       7493       7492       7602       7603       7614       7613  
      7482       7483       7494       7493       7603       7604       7615       7614  
      7483       7484       7495       7494       7604       7605       7616       7615  
      7484       7485       7496       7495       7605       7606       7617       7616  
      7485       7486       7497       7496       7606       7607       7618       7617  
      7486       7487       7498       7497       7607       7608       7619       7618  
      7487       7488       7499       7498       7608       7609       7620       7619  
      7488       7489       7500       7499       7609       7610       7621       7620  
      7489       7490       7501       7500       7610       7611       7622       7621  
      7490       7491       7502       7501       7611       7612       7623       7622  
      7503       7504       7515       7514       7624       7625       7636       7635  
      7504       7505       7516       7515       7625       7626       7637       7636  
      7505       7506       7517       7516       7626       7627       7638       7637  
      7506       7507       7518       7517       7627       7628       7639       7638  
      7507       7508       7519       7518       7628       7629       7640       7639  
      7508       7509       7520       7519       7629       7630       7641       7640  
      7509       7510       7521       7520       7630       7631       7642       7641  
      7510       7511       7522       7521       7631       7632       7643       7642  
      7511       7512       7523       7522       7632       7633       7644       7643  
      7512       7513       7524       7523       7633       7634       7645       7644  
      7514       7515       7526       7525       7635       7636       7647       7646  
      7515       7516       7527       7526       7636       7637       7648       7647  
      7516       7517       7528       7527       7637       7638       7649       7648  
      7517       7518       7529       7528       7638       7639       7650       7649  
      7518       7519       7530       7529       7639       7640       7651       7650  
      7519       7520       7531       7530       7640       7641       7652       7651  
      7520       7521       7532       7531       7641       7642       7653       7652  
      7521       7522       7533       7532       7642       7643       7654       7653  
      7522       7523       7534       7533       7643       7644       7655       7654  
      7523       7524       7535       7534       7644       7645       7656       7655  
      7525       7526       7537       7536       7646       7647       7658       7657  
      7526       7527       7538       7537       7647       7648       7659       7658  
      7527       7528       7539       7538       7648       7649       7660       7659  
      7528       7529       7540       7539       7649       7650       7661       7660  
      7529       7530       7541       7540       7650       7651       7662       7661  
      7530       7531       7542       7541       7651       7652       7663       7662  
      7531       7532       7543       7542       7652       7653       7664       7663  
      7532       7533       7544       7543       7653       7654       7665       7664  
      7533       7534       7545       7544       7654       7655       7666       7665  
      7534       7535       7546       7545       7655       7656       7667       7666  
      7536       7537       7548       7547       7657       7658       7669       7668  
      7537       7538       7549       7548       7658       7659       7670       7669  
      7538       7539       7550       7549       7659       7660       7671       7670  
      7539       7540       7551       7550       7660       7661       7672       7671  
      7540       7541       7552       7551       7661       7662       7673       7672  
      7541       7542       7553       7552       7662       7663       7674       7673  
      7542       7543       7554       7553       7663       7664       7675       7674  
      7543       7544       7555       7554       7664       7665       7676       7675  
      7544       7545       7556       7555       7665       7666       7677       7676  
      7545       7546       7557       7556       7666       7667       7678       7677  
      7547       7548       7559       7558       7668       7669       7680       7679  
      7548       7549       7560       7559       7669       7670       7681       7680  
      7549       7550       7561       7560       7670       7671       7682       7681  
      7550       7551       7562       7561       7671       7672       7683       7682  
      7551       7552       7563       7562       7672       7673       7684       7683  
      7552       7553       7564       7563       7673       7674       7685       7684  
      7553       7554       7565       7564       7674       7675       7686       7685  
      7554       7555       7566       7565       7675       7676       7687       7686  
      7555       7556       7567       7566       7676       7677       7688       7687  
      7556       7557       7568       7567       7677       7678       7689       7688  
      7558       7559       7570       7569       7679       7680       7691       7690  
      7559       7560       7571       7570       7680       7681       7692       7691  
      7560       7561       7572       7571       7681       7682       7693       7692  
      7561       7562       7573       7572       7682       7683       7694       7693  
      7562       7563       7574       7573       7683       7684       7695       7694  
      7563       7564       7575       7574       7684       7685       7696       7695  
      7564       7565       7576       7575       7685       7686       7697       7696  
      7565       7566       7577       7576       7686       7687       7698       7697  
      7566       7567       7578       7577       7687       7688       7699       7698  
      7567       7568       7579       7578       7688       7689       7700       7699  
      7569       7570       7581       7580       7690       7691       7702       7701  
      7570       7571       7582       7581       7691       7692       7703       7702  
      7571       7572       7583       7582       7692       7693       7704       7703  
      7572       7573       7584       7583       7693       7694       7705       7704  
      7573       7574       7585       7584       7694       7695       7706       7705  
      7574       7575       7586       7585       7695       7696       7707       7706  
      7575       7576       7587       7586       7696       7697       7708       7707  
      7576       7577       7588       7587       7697       7698       7709       7708  
      7577       7578       7589       7588       7698       7699       7710       7709  
      7578       7579       7590       7589       7699       7700       7711       7710  
      7580       7581       7592       7591       7701       7702       7713       7712  
      7581       7582       7593       7592       7702       7703       7714       7713  
      7582       7583       7594       7593       7703       7704       7715       7714  
      7583       7584       7595       7594       7704       7705       7716       7715  
      7584       7585       7596       7595       7705       7706       7717       7716  
      7585       7586       7597       7596       7706       7707       7718       7717  
      7586       7587       7598       7597       7707       7708       7719       7718  
      7587       7588       7599       7598       7708       7709       7720       7719  
      7588       7589       7600       7599       7709       7710       7721       7720  
      7589       7590       7601       7600       7710       7711       7722       7721  
      7591       7592       7603       7602       7712       7713       7724       7723  
      7592       7593       7604       7603       7713       7714       7725       7724  
      7593       7594       7605       7604       7714       7715       7726       7725  
      7594       7595       7606       7605       7715       7716       7727       7726  
      7595       7596       7607       7606       7716       7717       7728       7727  
      7596       7597       7608       7607       7717       7718       7729       7728  
      7597       7598       7609       7608       7718       7719       7730       7729  
      7598       7599       7610       7609       7719       7720       7731       7730  
      7599       7600       7611       7610       7720       7721       7732       7731  
      7600       7601       7612       7611       7721       7722       7733       7732  
      7602       7603       7614       7613       7723       7724       7735       7734  
      7603       7604       7615       7614       7724       7725       7736       7735  
      7604       7605       7616       7615       7725       7726       7737       7736  
      7605       7606       7617       7616       7726       7727       7738       7737  
      7606       7607       7618       7617       7727       7728       7739       7738  
      7607       7608       7619       7618       7728       7729       7740       7739  
      7608       7609       7620       7619       7729       7730       7741       7740  
      7609       7610       7621       7620       7730       7731       7742       7741  
      7610       7611       7622       7621       7731       7732       7743       7742  
      7611       7612       7623       7622       7732       7733       7744       7743  
      7624       7625       7636       7635       7745       7746       7757       7756  
      7625       7626       7637       7636       7746       7747       7758       7757  
      7626       7627       7638       7637       7747       7748       7759       7758  
      7627       7628       7639       7638       7748       7749       7760       7759  
      7628       7629       7640       7639       7749       7750       7761       7760  
      7629       7630       7641       7640       7750       7751       7762       7761  
      7630       7631       7642       7641       7751       7752       7763       7762  
      7631       7632       7643       7642       7752       7753       7764       7763  
      7632       7633       7644       7643       7753       7754       7765       7764  
      7633       7634       7645       7644       7754       7755       7766       7765  
      7635       7636       7647       7646       7756       7757       7768       7767  
      7636       7637       7648       7647       7757       7758       7769       7768  
      7637       7638       7649       7648       7758       7759       7770       7769  
      7638       7639       7650       7649       7759       7760       7771       7770  
      7639       7640       7651       7650       7760       7761       7772       7771  
      7640       7641       7652       7651       7761       7762       7773       7772  
      7641       7642       7653       7652       7762       7763       7774       7773  
      7642       7643       7654       7653       7763       7764       7775       7774  
      7643       7644       7655       7654       7764       7765       7776       7775  
      7644       7645       7656       7655       7765       7766       7777       7776  
      7646       7647       7658       7657       7767       7768       7779       7778  
      7647       7648       7659       7658       7768       7769       7780       7779  
      7648       7649       7660       7659       7769       7770       7781       7780  
      7649       7650       7661       7660       7770       7771       7782       7781  
      7650       7651       7662       7661       7771       7772       7783       7782  
      7651       7652       7663       7662       7772       7773       7784       7783  
      7652       7653       7664       7663       7773       7774       7785       7784  
      7653       7654       7665       7664       7774       7775       7786       7785  
      7654       7655       7666       7665       7775       7776       7787       7786  
      7655       7656       7667       7666       7776       7777       7788       7787  
      7657       7658       7669       7668       7778       7779       7790       7789  
      7658       7659       7670       7669       7779       7780       7791       7790  
      7659       7660       7671       7670       7780       7781       7792       7791  
      7660       7661       7672       7671       7781       7782       7793       7792  
      7661       7662       7673       7672       7782       7783       7794       7793  
      7662       7663       7674       7673       7783       7784       7795       7794  
      7663       7664       7675       7674       7784       7785       7796       7795  
      7664       7665       7676       7675       7785       7786       7797       7796  
      7665       7666       7677       7676       7786       7787       7798       7797  
      7666       7667       7678       7677       7787       7788       7799       7798  
      7668       7669       7680       7679       7789       7790       7801       7800  
      7669       7670       7681       7680       7790       7791       7802       7801  
      7670       7671       7682       7681       7791       7792       7803       7802  
      7671       7672       7683       7682       7792       7793       7804       7803  
      7672       7673       7684       7683       7793       7794       7805       7804  
      7673       7674       7685       7684       7794       7795       7806       7805  
      7674       7675       7686       7685       7795       7796       7807       7806  
      7675       7676       7687       7686       7796       7797       7808       7807  
      7676       7677       7688       7687       7797       7798       7809       7808  
      7677       7678       7689       7688       7798       7799       7810       7809  
      7679       7680       7691       7690       7800       7801       7812       7811  
      7680       7681       7692       7691       7801       7802       7813       7812  
      7681       7682       7693       7692       7802       7803       7814       7813  
      7682       7683       7694       7693       7803       7804       7815       7814  
      7683       7684       7695       7694       7804       7805       7816       7815  
      7684       7685       7696       7695       7805       7806       7817       7816  
      7685       7686       7697       7696       7806       7807       7818       7817  
      7686       7687       7698       7697       7807       7808       7819       7818  
      7687       7688       7699       7698       7808       7809       7820       7819  
      7688       7689       7700       7699       7809       7810       7821       7820  
      7690       7691       7702       7701       7811       7812       7823       7822  
      7691       7692       7703       7702       7812       7813       7824       7823  
      7692       7693       7704       7703       7813       7814       7825       7824  
      7693       7694       7705       7704       7814       7815       7826       7825  
      7694       7695       7706       7705       7815       7816       7827       7826  
      7695       7696       7707       7706       7816       7817       7828       7827  
      7696       7697       7708       7707       7817       7818       7829       7828  
      7697       7698       7709       7708       7818       7819       7830       7829  
      7698       7699       7710       7709       7819       7820       7831       7830  
      7699       7700       7711       7710       7820       7821       7832       7831  
      7701       7702       7713       7712       7822       7823       7834       7833  
      7702       7703       7714       7713       7823       7824       7835       7834  
      7703       7704       7715       7714       7824       7825       7836       7835  
      7704       7705       7716       7715       7825       7826       7837       7836  
      7705       7706       7717       7716       7826       7827       7838       7837  
      7706       7707       7718       7717       7827       7828       7839       7838  
      7707       7708       7719       7718       7828       7829       7840       7839  
      7708       7709       7720       7719       7829       7830       7841       7840  
      7709       7710       7721       7720       7830       7831       7842       7841  
      7710       7711       7722       7721       7831       7832       7843       7842  
      7712       7713       7724       7723       7833       7834       7845       7844  
      7713       7714       7725       7724       7834       7835       7846       7845  
      7714       7715       7726       7725       7835       7836       7847       7846  
      7715       7716       7727       7726       7836       7837       7848       7847  
      7716       7717       7728       7727       7837       7838       7849       7848  
      7717       7718       7729       7728       7838       7839       7850       7849  
      7718       7719       7730       7729       7839       7840       7851       7850  
      7719       7720       7731       7730       7840       7841       7852       7851  
      7720       7721       7732       7731       7841       7842       7853       7852  
      7721       7722       7733       7732       7842       7843       7854       7853  
      7723       7724       7735       7734       7844       7845       7856       7855  
      7724       7725       7736       7735       7845       7846       7857       7856  
      7725       7726       7737       7736       7846       7847       7858       7857  
      7726       7727       7738       7737       7847       7848       7859       7858  
      7727       7728       7739       7738       7848       7849       7860       7859  
      7728       7729       7740       7739       7849       7850       7861       7860  
      7729       7730       7741       7740       7850       7851       7862       7861  
      7730       7731       7742       7741       7851       7852       7863       7862  
      7731       7732       7743       7742       7852       7853       7864       7863  
      7732       7733       7744       7743       7853       7854       7865       7864  
      7745       7746       7757       7756       7866       7867       7878       7877  
      7746       7747       7758       7757       7867       7868       7879       7878  
      7747       7748       7759       7758       7868       7869       7880       7879  
      7748       7749       7760       7759       7869       7870       7881       7880  
      7749       7750       7761       7760       7870       7871       7882       7881  
      7750       7751       7762       7761       7871       7872       7883       7882  
      7751       7752       7763       7762       7872       7873       7884       7883  
      7752       7753       7764       7763       7873       7874       7885       7884  
      7753       7754       7765       7764       7874       7875       7886       7885  
      7754       7755       7766       7765       7875       7876       7887       7886  
      7756       7757       7768       7767       7877       7878       7889       7888  
      7757       7758       7769       7768       7878       7879       7890       7889  
      7758       7759       7770       7769       7879       7880       7891       7890  
      7759       7760       7771       7770       7880       7881       7892       7891  
      7760       7761       7772       7771       7881       7882       7893       7892  
      7761       7762       7773       7772       7882       7883       7894       7893  
      7762       7763       7774       7773       7883       7884       7895       7894  
      7763       7764       7775       7774       7884       7885       7896       7895  
      7764       7765       7776       7775       7885       7886       7897       7896  
      7765       7766       7777       7776       7886       7887       7898       7897  
      7767       7768       7779       7778       7888       7889       7900       7899  
      7768       7769       7780       7779       7889       7890       7901       7900  
      7769       7770       7781       7780       7890       7891       7902       7901  
      7770       7771       7782       7781       7891       7892       7903       7902  
      7771       7772       7783       7782       7892       7893       7904       7903  
      7772       7773       7784       7783       7893       7894       7905       7904  
      7773       7774       7785       7784       7894       7895       7906       7905  
      7774       7775       7786       7785       7895       7896       7907       7906  
      7775       7776       7787       7786       7896       7897       7908       7907  
      7776       7777       7788       7787       7897       7898       7909       7908  
      7778       7779       7790       7789       7899       7900       7911       7910  
      7779       7780       7791       7790       7900       7901       7912       7911  
      7780       7781       7792       7791       7901       7902       7913       7912  
      7781       7782       7793       7792       7902       7903       7914       7913  
      7782       7783       7794       7793       7903       7904       7915       7914  
      7783       7784       7795       7794       7904       7905       7916       7915  
      7784       7785       7796       7795       7905       7906       7917       7916  
      7785       7786       7797       7796       7906       7907       7918       7917  
      7786       7787       7798       7797       7907       7908       7919       7918  
      7787       7788       7799       7798       7908       7909       7920       7919  
      7789       7790       7801       7800       7910       7911       7922       7921  
      7790       7791       7802       7801       7911       7912       7923       7922  
      7791       7792       7803       7802       7912       7913       7924       7923  
      7792       7793       7804       7803       7913       7914       7925       7924  
      7793       7794       7805       7804       7914       7915       7926       7925  
      7794       7795       7806       7805       7915       7916       7927       7926  
      7795       7796       7807       7806       7916       7917       7928       7927  
      7796       7797       7808       7807       7917       7918       7929       7928  
      7797       7798       7809       7808       7918       7919       7930       7929  
      7798       7799       7810       7809       7919       7920       7931       7930  
      7800       7801       7812       7811       7921       7922       7933       7932  
      7801       7802       7813       7812       7922       7923       7934       7933  
      7802       7803       7814       7813       7923       7924       7935       7934  
      7803       7804       7815       7814       7924       7925       7936       7935  
      7804       7805       7816       7815       7925       7926       7937       7936  
      7805       7806       7817       7816       7926       7927       7938       7937  
      7806       7807       7818       7817       7927       7928       7939       7938  
      7807       7808       7819       7818       7928       7929       7940       7939  
      7808       7809       7820       7819       7929       7930       7941       7940  
      7809       7810       7821       7820       7930       7931       7942       7941  
      7811       7812       7823       7822       7932       7933       7944       7943  
      7812       7813       7824       7823       7933       7934       7945       7944  
      7813       7814       7825       7824       7934       7935       7946       7945  
      7814       7815       7826       7825       7935       7936       7947       7946  
      7815       7816       7827       7826       7936       7937       7948       7947  
      7816       7817       7828       7827       7937       7938       7949       7948  
      7817       7818       7829       7828       7938       7939       7950       7949  
      7818       7819       7830       7829       7939       7940       7951       7950  
      7819       7820       7831       7830       7940       7941       7952       7951  
      7820       7821       7832       7831       7941       7942       7953       7952  
      7822       7823       7834       7833       7943       7944       7955       7954  
      7823       7824       7835       7834       7944       7945       7956       7955  
      7824       7825       7836       7835       7945       7946       7957       7956  
      7825       7826       7837       7836       7946       7947       7958       7957  
      7826       7827       7838       7837       7947       7948       7959       7958  
      7827       7828       7839       7838       7948       7949       7960       7959  
      7828       7829       7840       7839       7949       7950       7961       7960  
      7829       7830       7841       7840       7950       7951       7962       7961  
      7830       7831       7842       7841       7951       7952       7963       7962  
      7831       7832       7843       7842       7952       7953       7964       7963  
      7833       7834       7845       7844       7954       7955       7966       7965  
      7834       7835       7846       7845       7955       7956       7967       7966  
      7835       7836       7847       7846       7956       7957       7968       7967  
      7836       7837       7848       7847       7957       7958       7969       7968  
      7837       7838       7849       7848       7958       7959       7970       7969  
      7838       7839       7850       7849       7959       7960       7971       7970  
      7839       7840       7851       7850       7960       7961       7972       7971  
      7840       7841       7852       7851       7961       7962       7973       7972  
      7841       7842       7853       7852       7962       7963       7974       7973  
      7842       7843       7854       7853       7963       7964       7975       7974  
      7844       7845       7856       7855       7965       7966       7977       7976  
      7845       7846       7857       7856       7966       7967       7978       7977  
      7846       7847       7858       7857       7967       7968       7979       7978  
      7847       7848       7859       7858       7968       7969       7980       7979  
      7848       7849       7860       7859       7969       7970       7981       7980  
      7849       7850       7861       7860       7970       7971       7982       7981  
      7850       7851       7862       7861       7971       7972       7983       7982  
      7851       7852       7863       7862       7972       7973       7984       7983  
      7852       7853       7864       7863       7973       7974       7985       7984  
      7853       7854       7865       7864       7974       7975       7986       7985  
      7866       7867       7878       7877       7987       7988       7999       7998  
      7867       7868       7879       7878       7988       7989       8000       7999  
      7868       7869       7880       7879       7989       7990       8001       8000  
      7869       7870       7881       7880       7990       7991       8002       8001  
      7870       7871       7882       7881       7991       7992       8003       8002  
      7871       7872       7883       7882       7992       7993       8004       8003  
      7872       7873       7884       7883       7993       7994       8005       8004  
      7873       7874       7885       7884       7994       7995       8006       8005  
      7874       7875       7886       7885       7995       7996       8007       8006  
      7875       7876       7887       7886       7996       7997       8008       8007  
      7877       7878       7889       7888       7998       7999       8010       8009  
      7878       7879       7890       7889       7999       8000       8011       8010  
      7879       7880       7891       7890       8000       8001       8012       8011  
      7880       7881       7892       7891       8001       8002       8013       8012  
      7881       7882       7893       7892       8002       8003       8014       8013  
      7882       7883       7894       7893       8003       8004       8015       8014  
      7883       7884       7895       7894       8004       8005       8016       8015  
      7884       7885       7896       7895       8005       8006       8017       8016  
      7885       7886       7897       7896       8006       8007       8018       8017  
      7886       7887       7898       7897       8007       8008       8019       8018  
      7888       7889       7900       7899       8009       8010       8021       8020  
      7889       7890       7901       7900       8010       8011       8022       8021  
      7890       7891       7902       7901       8011       8012       8023       8022  
      7891       7892       7903       7902       8012       8013       8024       8023  
      7892       7893       7904       7903       8013       8014       8025       8024  
      7893       7894       7905       7904       8014       8015       8026       8025  
      7894       7895       7906       7905       8015       8016       8027       8026  
      7895       7896       7907       7906       8016       8017       8028       8027  
      7896       7897       7908       7907       8017       8018       8029       8028  
      7897       7898       7909       7908       8018       8019       8030       8029  
      7899       7900       7911       7910       8020       8021       8032       8031  
      7900       7901       7912       7911       8021       8022       8033       8032  
      7901       7902       7913       7912       8022       8023       8034       8033  
      7902       7903       7914       7913       8023       8024       8035       8034  
      7903       7904       7915       7914       8024       8025       8036       8035  
      7904       7905       7916       7915       8025       8026       8037       8036  
      7905       7906       7917       7916       8026       8027       8038       8037  
      7906       7907       7918       7917       8027       8028       8039       8038  
      7907       7908       7919       7918       8028       8029       8040       8039  
      7908       7909       7920       7919       8029       8030       8041       8040  
      7910       7911       7922       7921       8031       8032       8043       8042  
      7911       7912       7923       7922       8032       8033       8044       8043  
      7912       7913       7924       7923       8033       8034       8045       8044  
      7913       7914       7925       7924       8034       8035       8046       8045  
      7914       7915       7926       7925       8035       8036       8047       8046  
      7915       7916       7927       7926       8036       8037       8048       8047  
      7916       7917       7928       7927       8037       8038       8049       8048  
      7917       7918       7929       7928       8038       8039       8050       8049  
      7918       7919       7930       7929       8039       8040       8051       8050  
      7919       7920       7931       7930       8040       8041       8052       8051  
      7921       7922       7933       7932       8042       8043       8054       8053  
      7922       7923       7934       7933       8043       8044       8055       8054  
      7923       7924       7935       7934       8044       8045       8056       8055  
      7924       7925       7936       7935       8045       8046       8057       8056  
      7925       7926       7937       7936       8046       8047       8058       8057  
      7926       7927       7938       7937       8047       8048       8059       8058  
      7927       7928       7939       7938       8048       8049       8060       8059  
      7928       7929       7940       7939       8049       8050       8061       8060  
      7929       7930       7941       7940       8050       8051       8062       8061  
      7930       7931       7942       7941       8051       8052       8063       8062  
      7932       7933       7944       7943       8053       8054       8065       8064  
      7933       7934       7945       7944       8054       8055       8066       8065  
      7934       7935       7946       7945       8055       8056       8067       8066  
      7935       7936       7947       7946       8056       8057       8068       8067  
      7936       7937       7948       7947       8057       8058       8069       8068  
      7937       7938       7949       7948       8058       8059       8070       8069  
      7938       7939       7950       7949       8059       8060       8071       8070  
      7939       7940       7951       7950       8060       8061       8072       8071  
      7940       7941       7952       7951       8061       8062       8073       8072  
      7941       7942       7953       7952       8062       8063       8074       8073  
      7943       7944       7955       7954       8064       8065       8076       8075  
      7944       7945       7956       7955       8065       8066       8077       8076  
      7945       7946       7957       7956       8066       8067       8078       8077  
      7946       7947       7958       7957       8067       8068       8079       8078  
      7947       7948       7959       7958       8068       8069       8080       8079  
      7948       7949       7960       7959       8069       8070       8081       8080  
      7949       7950       7961       7960       8070       8071       8082       8081  
      7950       7951       7962       7961       8071       8072       8083       8082  
      7951       7952       7963       7962       8072       8073       8084       8083  
      7952       7953       7964       7963       8073       8074       8085       8084  
      7954       7955       7966       7965       8075       8076       8087       8086  
      7955       7956       7967       7966       8076       8077       8088       8087  
      7956       7957       7968       7967       8077       8078       8089       8088  
      7957       7958       7969       7968       8078       8079       8090       8089  
      7958       7959       7970       7969       8079       8080       8091       8090  
      7959       7960       7971       7970       8080       8081       8092       8091  
      7960       7961       7972       7971       8081       8082       8093       8092  
      7961       7962       7973       7972       8082       8083       8094       8093  
      7962       7963       7974       7973       8083       8084       8095       8094  
      7963       7964       7975       7974       8084       8085       8096       8095  
      7965       7966       7977       7976       8086       8087       8098       8097  
      7966       7967       7978       7977       8087       8088       8099       8098  
      7967       7968       7979       7978       8088       8089       8100       8099  
      7968       7969       7980       7979       8089       8090       8101       8100  
      7969       7970       7981       7980       8090       8091       8102       8101  
      7970       7971       7982       7981       8091       8092       8103       8102  
      7971       7972       7983       7982       8092       8093       8104       8103  
      7972       7973       7984       7983       8093       8094       8105       8104  
      7973       7974       7985       7984       8094       8095       8106       8105  
      7974       7975       7986       7985       8095       8096       8107       8106  
      7987       7988       7999       7998       8108       8109       8120       8119  
      7988       7989       8000       7999       8109       8110       8121       8120  
      7989       7990       8001       8000       8110       8111       8122       8121  
      7990       7991       8002       8001       8111       8112       8123       8122  
      7991       7992       8003       8002       8112       8113       8124       8123  
      7992       7993       8004       8003       8113       8114       8125       8124  
      7993       7994       8005       8004       8114       8115       8126       8125  
      7994       7995       8006       8005       8115       8116       8127       8126  
      7995       7996       8007       8006       8116       8117       8128       8127  
      7996       7997       8008       8007       8117       8118       8129       8128  
      7998       7999       8010       8009       8119       8120       8131       8130  
      7999       8000       8011       8010       8120       8121       8132       8131  
      8000       8001       8012       8011       8121       8122       8133       8132  
      8001       8002       8013       8012       8122       8123       8134       8133  
      8002       8003       8014       8013       8123       8124       8135       8134  
      8003       8004       8015       8014       8124       8125       8136       8135  
      8004       8005       8016       8015       8125       8126       8137       8136  
      8005       8006       8017       8016       8126       8127       8138       8137  
      8006       8007       8018       8017       8127       8128       8139       8138  
      8007       8008       8019       8018       8128       8129       8140       8139  
      8009       8010       8021       8020       8130       8131       8142       8141  
      8010       8011       8022       8021       8131       8132       8143       8142  
      8011       8012       8023       8022       8132       8133       8144       8143  
      8012       8013       8024       8023       8133       8134       8145       8144  
      8013       8014       8025       8024       8134       8135       8146       8145  
      8014       8015       8026       8025       8135       8136       8147       8146  
      8015       8016       8027       8026       8136       8137       8148       8147  
      8016       8017       8028       8027       8137       8138       8149       8148  
      8017       8018       8029       8028       8138       8139       8150       8149  
      8018       8019       8030       8029       8139       8140       8151       8150  
      8020       8021       8032       8031       8141       8142       8153       8152  
      8021       8022       8033       8032       8142       8143       8154       8153  
      8022       8023       8034       8033       8143       8144       8155       8154  
      8023       8024       8035       8034       8144       8145       8156       8155  
      8024       8025       8036       8035       8145       8146       8157       8156  
      8025       8026       8037       8036       8146       8147       8158       8157  
      8026       8027       8038       8037       8147       8148       8159       8158  
      8027       8028       8039       8038       8148       8149       8160       8159  
      8028       8029       8040       8039       8149       8150       8161       8160  
      8029       8030       8041       8040       8150       8151       8162       8161  
      8031       8032       8043       8042       8152       8153       8164       8163  
      8032       8033       8044       8043       8153       8154       8165       8164  
      8033       8034       8045       8044       8154       8155       8166       8165  
      8034       8035       8046       8045       8155       8156       8167       8166  
      8035       8036       8047       8046       8156       8157       8168       8167  
      8036       8037       8048       8047       8157       8158       8169       8168  
      8037       8038       8049       8048       8158       8159       8170       8169  
      8038       8039       8050       8049       8159       8160       8171       8170  
      8039       8040       8051       8050       8160       8161       8172       8171  
      8040       8041       8052       8051       8161       8162       8173       8172  
      8042       8043       8054       8053       8163       8164       8175       8174  
      8043       8044       8055       8054       8164       8165       8176       8175  
      8044       8045       8056       8055       8165       8166       8177       8176  
      8045       8046       8057       8056       8166       8167       8178       8177  
      8046       8047       8058       8057       8167       8168       8179       8178  
      8047       8048       8059       8058       8168       8169       8180       8179  
      8048       8049       8060       8059       8169       8170       8181       8180  
      8049       8050       8061       8060       8170       8171       8182       8181  
      8050       8051       8062       8061       8171       8172       8183       8182  
      8051       8052       8063       8062       8172       8173       8184       8183  
      8053       8054       8065       8064       8174       8175       8186       8185  
      8054       8055       8066       8065       8175       8176       8187       8186  
      8055       8056       8067       8066       8176       8177       8188       8187  
      8056       8057       8068       8067       8177       8178       8189       8188  
      8057       8058       8069       8068       8178       8179       8190       8189  
      8058       8059       8070       8069       8179       8180       8191       8190  
      8059       8060       8071       8070       8180       8181       8192       8191  
      8060       8061       8072       8071       8181       8182       8193       8192  
      8061       8062       8073       8072       8182       8183       8194       8193  
      8062       8063       8074       8073       8183       8184       8195       8194  
      8064       8065       8076       8075       8185       8186       8197       8196  
      8065       8066       8077       8076       8186       8187       8198       8197  
      8066       8067       8078       8077       8187       8188       8199       8198  
      8067       8068       8079       8078       8188       8189       8200       8199  
      8068       8069       8080       8079       8189       8190       8201       8200  
      8069       8070       8081       8080       8190       8191       8202       8201  
      8070       8071       8082       8081       8191       8192       8203       8202  
      8071       8072       8083       8082       8192       8193       8204       8203  
      8072       8073       8084       8083       8193       8194       8205       8204  
      8073       8074       8085       8084       8194       8195       8206       8205  
      8075       8076       8087       8086       8196       8197       8208       8207  
      8076       8077       8088       8087       8197       8198       8209       8208  
      8077       8078       8089       8088       8198       8199       8210       8209  
      8078       8079       8090       8089       8199       8200       8211       8210  
      8079       8080       8091       8090       8200       8201       8212       8211  
      8080       8081       8092       8091       8201       8202       8213       8212  
      8081       8082       8093       8092       8202       8203       8214       8213  
      8082       8083       8094       8093       8203       8204       8215       8214  
      8083       8084       8095       8094       8204       8205       8216       8215  
      8084       8085       8096       8095       8205       8206       8217       8216  
      8086       8087       8098       8097       8207       8208       8219       8218  
      8087       8088       8099       8098       8208       8209       8220       8219  
      8088       8089       8100       8099       8209       8210       8221       8220  
      8089       8090       8101       8100       8210       8211       8222       8221  
      8090       8091       8102       8101       8211       8212       8223       8222  
      8091       8092       8103       8102       8212       8213       8224       8223  
      8092       8093       8104       8103       8213       8214       8225       8224  
      8093       8094       8105       8104       8214       8215       8226       8225  
      8094       8095       8106       8105       8215       8216       8227       8226  
      8095       8096       8107       8106       8216       8217       8228       8227  
      8108       8109       8120       8119       8229       8230       8241       8240  
      8109       8110       8121       8120       8230       8231       8242       8241  
      8110       8111       8122       8121       8231       8232       8243       8242  
      8111       8112       8123       8122       8232       8233       8244       8243  
      8112       8113       8124       8123       8233       8234       8245       8244  
      8113       8114       8125       8124       8234       8235       8246       8245  
      8114       8115       8126       8125       8235       8236       8247       8246  
      8115       8116       8127       8126       8236       8237       8248       8247  
      8116       8117       8128       8127       8237       8238       8249       8248  
      8117       8118       8129       8128       8238       8239       8250       8249  
      8119       8120       8131       8130       8240       8241       8252       8251  
      8120       8121       8132       8131       8241       8242       8253       8252  
      8121       8122       8133       8132       8242       8243       8254       8253  
      8122       8123       8134       8133       8243       8244       8255       8254  
      8123       8124       8135       8134       8244       8245       8256       8255  
      8124       8125       8136       8135       8245       8246       8257       8256  
      8125       8126       8137       8136       8246       8247       8258       8257  
      8126       8127       8138       8137       8247       8248       8259       8258  
      8127       8128       8139       8138       8248       8249       8260       8259  
      8128       8129       8140       8139       8249       8250       8261       8260  
      8130       8131       8142       8141       8251       8252       8263       8262  
      8131       8132       8143       8142       8252       8253       8264       8263  
      8132       8133       8144       8143       8253       8254       8265       8264  
      8133       8134       8145       8144       8254       8255       8266       8265  
      8134       8135       8146       8145       8255       8256       8267       8266  
      8135       8136       8147       8146       8256       8257       8268       8267  
      8136       8137       8148       8147       8257       8258       8269       8268  
      8137       8138       8149       8148       8258       8259       8270       8269  
      8138       8139       8150       8149       8259       8260       8271       8270  
      8139       8140       8151       8150       8260       8261       8272       8271  
      8141       8142       8153       8152       8262       8263       8274       8273  
      8142       8143       8154       8153       8263       8264       8275       8274  
      8143       8144       8155       8154       8264       8265       8276       8275  
      8144       8145       8156       8155       8265       8266       8277       8276  
      8145       8146       8157       8156       8266       8267       8278       8277  
      8146       8147       8158       8157       8267       8268       8279       8278  
      8147       8148       8159       8158       8268       8269       8280       8279  
      8148       8149       8160       8159       8269       8270       8281       8280  
      8149       8150       8161       8160       8270       8271       8282       8281  
      8150       8151       8162       8161       8271       8272       8283       8282  
      8152       8153       8164       8163       8273       8274       8285       8284  
      8153       8154       8165       8164       8274       8275       8286       8285  
      8154       8155       8166       8165       8275       8276       8287       8286  
      8155       8156       8167       8166       8276       8277       8288       8287  
      8156       8157       8168       8167       8277       8278       8289       8288  
      8157       8158       8169       8168       8278       8279       8290       8289  
      8158       8159       8170       8169       8279       8280       8291       8290  
      8159       8160       8171       8170       8280       8281       8292       8291  
      8160       8161       8172       8171       8281       8282       8293       8292  
      8161       8162       8173       8172       8282       8283       8294       8293  
      8163       8164       8175       8174       8284       8285       8296       8295  
      8164       8165       8176       8175       8285       8286       8297       8296  
      8165       8166       8177       8176       8286       8287       8298       8297  
      8166       8167       8178       8177       8287       8288       8299       8298  
      8167       8168       8179       8178       8288       8289       8300       8299  
      8168       8169       8180       8179       8289       8290       8301       8300  
      8169       8170       8181       8180       8290       8291       8302       8301  
      8170       8171       8182       8181       8291       8292       8303       8302  
      8171       8172       8183       8182       8292       8293       8304       8303  
      8172       8173       8184       8183       8293       8294       8305       8304  
      8174       8175       8186       8185       8295       8296       8307       8306  
      8175       8176       8187       8186       8296       8297       8308       8307  
      8176       8177       8188       8187       8297       8298       8309       8308  
      8177       8178       8189       8188       8298       8299       8310       8309  
      8178       8179       8190       8189       8299       8300       8311       8310  
      8179       8180       8191       8190       8300       8301       8312       8311  
      8180       8181       8192       8191       8301       8302       8313       8312  
      8181       8182       8193       8192       8302       8303       8314       8313  
      8182       8183       8194       8193       8303       8304       8315       8314  
      8183       8184       8195       8194       8304       8305       8316       8315  
      8185       8186       8197       8196       8306       8307       8318       8317  
      8186       8187       8198       8197       8307       8308       8319       8318  
      8187       8188       8199       8198       8308       8309       8320       8319  
      8188       8189       8200       8199       8309       8310       8321       8320  
      8189       8190       8201       8200       8310       8311       8322       8321  
      8190       8191       8202       8201       8311       8312       8323       8322  
      8191       8192       8203       8202       8312       8313       8324       8323  
      8192       8193       8204       8203       8313       8314       8325       8324  
      8193       8194       8205       8204       8314       8315       8326       8325  
      8194       8195       8206       8205       8315       8316       8327       8326  
      8196       8197       8208       8207       8317       8318       8329       8328  
      8197       8198       8209       8208       8318       8319       8330       8329  
      8198       8199       8210       8209       8319       8320       8331       8330  
      8199       8200       8211       8210       8320       8321       8332       8331  
      8200       8201       8212       8211       8321       8322       8333       8332  
      8201       8202       8213       8212       8322       8323       8334       8333  
      8202       8203       8214       8213       8323       8324       8335       8334  
      8203       8204       8215       8214       8324       8325       8336       8335  
      8204       8205       8216       8215       8325       8326       8337       8336  
      8205       8206       8217       8216       8326       8327       8338       8337  
      8207       8208       8219       8218       8328       8329       8340       8339  
      8208       8209       8220       8219       8329       8330       8341       8340  
      8209       8210       8221       8220       8330       8331       8342       8341  
      8210       8211       8222       8221       8331       8332       8343       8342  
      8211       8212       8223       8222       8332       8333       8344       8343  
      8212       8213       8224       8223       8333       8334       8345       8344  
      8213       8214       8225       8224       8334       8335       8346       8345  
      8214       8215       8226       8225       8335       8336       8347       8346  
      8215       8216       8227       8226       8336       8337       8348       8347  
      8216       8217       8228       8227       8337       8338       8349       8348  
      8229       8230       8241       8240       8350       8351       8362       8361  
      8230       8231       8242       8241       8351       8352       8363       8362  
      8231       8232       8243       8242       8352       8353       8364       8363  
      8232       8233       8244       8243       8353       8354       8365       8364  
      8233       8234       8245       8244       8354       8355       8366       8365  
      8234       8235       8246       8245       8355       8356       8367       8366  
      8235       8236       8247       8246       8356       8357       8368       8367  
      8236       8237       8248       8247       8357       8358       8369       8368  
      8237       8238       8249       8248       8358       8359       8370       8369  
      8238       8239       8250       8249       8359       8360       8371       8370  
      8240       8241       8252       8251       8361       8362       8373       8372  
      8241       8242       8253       8252       8362       8363       8374       8373  
      8242       8243       8254       8253       8363       8364       8375       8374  
      8243       8244       8255       8254       8364       8365       8376       8375  
      8244       8245       8256       8255       8365       8366       8377       8376  
      8245       8246       8257       8256       8366       8367       8378       8377  
      8246       8247       8258       8257       8367       8368       8379       8378  
      8247       8248       8259       8258       8368       8369       8380       8379  
      8248       8249       8260       8259       8369       8370       8381       8380  
      8249       8250       8261       8260       8370       8371       8382       8381  
      8251       8252       8263       8262       8372       8373       8384       8383  
      8252       8253       8264       8263       8373       8374       8385       8384  
      8253       8254       8265       8264       8374       8375       8386       8385  
      8254       8255       8266       8265       8375       8376       8387       8386  
      8255       8256       8267       8266       8376       8377       8388       8387  
      8256       8257       8268       8267       8377       8378       8389       8388  
      8257       8258       8269       8268       8378       8379       8390       8389  
      8258       8259       8270       8269       8379       8380       8391       8390  
      8259       8260       8271       8270       8380       8381       8392       8391  
      8260       8261       8272       8271       8381       8382       8393       8392  
      8262       8263       8274       8273       8383       8384       8395       8394  
      8263       8264       8275       8274       8384       8385       8396       8395  
      8264       8265       8276       8275       8385       8386       8397       8396  
      8265       8266       8277       8276       8386       8387       8398       8397  
      8266       8267       8278       8277       8387       8388       8399       8398  
      8267       8268       8279       8278       8388       8389       8400       8399  
      8268       8269       8280       8279       8389       8390       8401       8400  
      8269       8270       8281       8280       8390       8391       8402       8401  
      8270       8271       8282       8281       8391       8392       8403       8402  
      8271       8272       8283       8282       8392       8393       8404       8403  
      8273       8274       8285       8284       8394       8395       8406       8405  
      8274       8275       8286       8285       8395       8396       8407       8406  
      8275       8276       8287       8286       8396       8397       8408       8407  
      8276       8277       8288       8287       8397       8398       8409       8408  
      8277       8278       8289       8288       8398       8399       8410       8409  
      8278       8279       8290       8289       8399       8400       8411       8410  
      8279       8280       8291       8290       8400       8401       8412       8411  
      8280       8281       8292       8291       8401       8402       8413       8412  
      8281       8282       8293       8292       8402       8403       8414       8413  
      8282       8283       8294       8293       8403       8404       8415       8414  
      8284       8285       8296       8295       8405       8406       8417       8416  
      8285       8286       8297       8296       8406       8407       8418       8417  
      8286       8287       8298       8297       8407       8408       8419       8418  
      8287       8288       8299       8298       8408       8409       8420       8419  
      8288       8289       8300       8299       8409       8410       8421       8420  
      8289       8290       8301       8300       8410       8411       8422       8421  
      8290       8291       8302       8301       8411       8412       8423       8422  
      8291       8292       8303       8302       8412       8413       8424       8423  
      8292       8293       8304       8303       8413       8414       8425       8424  
      8293       8294       8305       8304       8414       8415       8426       8425  
      8295       8296       8307       8306       8416       8417       8428       8427  
      8296       8297       8308       8307       8417       8418       8429       8428  
      8297       8298       8309       8308       8418       8419       8430       8429  
      8298       8299       8310       8309       8419       8420       8431       8430  
      8299       8300       8311       8310       8420       8421       8432       8431  
      8300       8301       8312       8311       8421       8422       8433       8432  
      8301       8302       8313       8312       8422       8423       8434       8433  
      8302       8303       8314       8313       8423       8424       8435       8434  
      8303       8304       8315       8314       8424       8425       8436       8435  
      8304       8305       8316       8315       8425       8426       8437       8436  
      8306       8307       8318       8317       8427       8428       8439       8438  
      8307       8308       8319       8318       8428       8429       8440       8439  
      8308       8309       8320       8319       8429       8430       8441       8440  
      8309       8310       8321       8320       8430       8431       8442       8441  
      8310       8311       8322       8321       8431       8432       8443       8442  
      8311       8312       8323       8322       8432       8433       8444       8443  
      8312       8313       8324       8323       8433       8434       8445       8444  
      8313       8314       8325       8324       8434       8435       8446       8445  
      8314       8315       8326       8325       8435       8436       8447       8446  
      8315       8316       8327       8326       8436       8437       8448       8447  
      8317       8318       8329       8328       8438       8439       8450       8449  
      8318       8319       8330       8329       8439       8440       8451       8450  
      8319       8320       8331       8330       8440       8441       8452       8451  
      8320       8321       8332       8331       8441       8442       8453       8452  
      8321       8322       8333       8332       8442       8443       8454       8453  
      8322       8323       8334       8333       8443       8444       8455       8454  
      8323       8324       8335       8334       8444       8445       8456       8455  
      8324       8325       8336       8335       8445       8446       8457       8456  
      8325       8326       8337       8336       8446       8447       8458       8457  
      8326       8327       8338       8337       8447       8448       8459       8458  
      8328       8329       8340       8339       8449       8450       8461       8460  
      8329       8330       8341       8340       8450       8451       8462       8461  
      8330       8331       8342       8341       8451       8452       8463       8462  
      8331       8332       8343       8342       8452       8453       8464       8463  
      8332       8333       8344       8343       8453       8454       8465       8464  
      8333       8334       8345       8344       8454       8455       8466       8465  
      8334       8335       8346       8345       8455       8456       8467       8466  
      8335       8336       8347       8346       8456       8457       8468       8467  
      8336       8337       8348       8347       8457       8458       8469       8468  
      8337       8338       8349       8348       8458       8459       8470       8469  
      8350       8351       8362       8361       8471       8472       8483       8482  
      8351       8352       8363       8362       8472       8473       8484       8483  
      8352       8353       8364       8363       8473       8474       8485       8484  
      8353       8354       8365       8364       8474       8475       8486       8485  
      8354       8355       8366       8365       8475       8476       8487       8486  
      8355       8356       8367       8366       8476       8477       8488       8487  
      8356       8357       8368       8367       8477       8478       8489       8488  
      8357       8358       8369       8368       8478       8479       8490       8489  
      8358       8359       8370       8369       8479       8480       8491       8490  
      8359       8360       8371       8370       8480       8481       8492       8491  
      8361       8362       8373       8372       8482       8483       8494       8493  
      8362       8363       8374       8373       8483       8484       8495       8494  
      8363       8364       8375       8374       8484       8485       8496       8495  
      8364       8365       8376       8375       8485       8486       8497       8496  
      8365       8366       8377       8376       8486       8487       8498       8497  
      8366       8367       8378       8377       8487       8488       8499       8498  
      8367       8368       8379       8378       8488       8489       8500       8499  
      8368       8369       8380       8379       8489       8490       8501       8500  
      8369       8370       8381       8380       8490       8491       8502       8501  
      8370       8371       8382       8381       8491       8492       8503       8502  
      8372       8373       8384       8383       8493       8494       8505       8504  
      8373       8374       8385       8384       8494       8495       8506       8505  
      8374       8375       8386       8385       8495       8496       8507       8506  
      8375       8376       8387       8386       8496       8497       8508       8507  
      8376       8377       8388       8387       8497       8498       8509       8508  
      8377       8378       8389       8388       8498       8499       8510       8509  
      8378       8379       8390       8389       8499       8500       8511       8510  
      8379       8380       8391       8390       8500       8501       8512       8511  
      8380       8381       8392       8391       8501       8502       8513       8512  
      8381       8382       8393       8392       8502       8503       8514       8513  
      8383       8384       8395       8394       8504       8505       8516       8515  
      8384       8385       8396       8395       8505       8506       8517       8516  
      8385       8386       8397       8396       8506       8507       8518       8517  
      8386       8387       8398       8397       8507       8508       8519       8518  
      8387       8388       8399       8398       8508       8509       8520       8519  
      8388       8389       8400       8399       8509       8510       8521       8520  
      8389       8390       8401       8400       8510       8511       8522       8521  
      8390       8391       8402       8401       8511       8512       8523       8522  
      8391       8392       8403       8402       8512       8513       8524       8523  
      8392       8393       8404       8403       8513       8514       8525       8524  
      8394       8395       8406       8405       8515       8516       8527       8526  
      8395       8396       8407       8406       8516       8517       8528       8527  
      8396       8397       8408       8407       8517       8518       8529       8528  
      8397       8398       8409       8408       8518       8519       8530       8529  
      8398       8399       8410       8409       8519       8520       8531       8530  
      8399       8400       8411       8410       8520       8521       8532       8531  
      8400       8401       8412       8411       8521       8522       8533       8532  
      8401       8402       8413       8412       8522       8523       8534       8533  
      8402       8403       8414       8413       8523       8524       8535       8534  
      8403       8404       8415       8414       8524       8525       8536       8535  
      8405       8406       8417       8416       8526       8527       8538       8537  
      8406       8407       8418       8417       8527       8528       8539       8538  
      8407       8408       8419       8418       8528       8529       8540       8539  
      8408       8409       8420       8419       8529       8530       8541       8540  
      8409       8410       8421       8420       8530       8531       8542       8541  
      8410       8411       8422       8421       8531       8532       8543       8542  
      8411       8412       8423       8422       8532       8533       8544       8543  
      8412       8413       8424       8423       8533       8534       8545       8544  
      8413       8414       8425       8424       8534       8535       8546       8545  
      8414       8415       8426       8425       8535       8536       8547       8546  
      8416       8417       8428       8427       8537       8538       8549       8548  
      8417       8418       8429       8428       8538       8539       8550       8549  
      8418       8419       8430       8429       8539       8540       8551       8550  
      8419       8420       8431       8430       8540       8541       8552       8551  
      8420       8421       8432       8431       8541       8542       8553       8552  
      8421       8422       8433       8432       8542       8543       8554       8553  
      8422       8423       8434       8433       8543       8544       8555       8554  
      8423       8424       8435       8434       8544       8545       8556       8555  
      8424       8425       8436       8435       8545       8546       8557       8556  
      8425       8426       8437       8436       8546       8547       8558       8557  
      8427       8428       8439       8438       8548       8549       8560       8559  
      8428       8429       8440       8439       8549       8550       8561       8560  
      8429       8430       8441       8440       8550       8551       8562       8561  
      8430       8431       8442       8441       8551       8552       8563       8562  
      8431       8432       8443       8442       8552       8553       8564       8563  
      8432       8433       8444       8443       8553       8554       8565       8564  
      8433       8434       8445       8444       8554       8555       8566       8565  
      8434       8435       8446       8445       8555       8556       8567       8566  
      8435       8436       8447       8446       8556       8557       8568       8567  
      8436       8437       8448       8447       8557       8558       8569       8568  
      8438       8439       8450       8449       8559       8560       8571       8570  
      8439       8440       8451       8450       8560       8561       8572       8571  
      8440       8441       8452       8451       8561       8562       8573       8572  
      8441       8442       8453       8452       8562       8563       8574       8573  
      8442       8443       8454       8453       8563       8564       8575       8574  
      8443       8444       8455       8454       8564       8565       8576       8575  
      8444       8445       8456       8455       8565       8566       8577       8576  
      8445       8446       8457       8456       8566       8567       8578       8577  
      8446       8447       8458       8457       8567       8568       8579       8578  
      8447       8448       8459       8458       8568       8569       8580       8579  
      8449       8450       8461       8460       8570       8571       8582       8581  
      8450       8451       8462       8461       8571       8572       8583       8582  
      8451       8452       8463       8462       8572       8573       8584       8583  
      8452       8453       8464       8463       8573       8574       8585       8584  
      8453       8454       8465       8464       8574       8575       8586       8585  
      8454       8455       8466       8465       8575       8576       8587       8586  
      8455       8456       8467       8466       8576       8577       8588       8587  
      8456       8457       8468       8467       8577       8578       8589       8588  
      8457       8458       8469       8468       8578       8579       8590       8589  
      8458       8459       8470       8469       8579       8580       8591       8590  
      8471       8472       8483       8482       8592       8593       8604       8603  
      8472       8473       8484       8483       8593       8594       8605       8604  
      8473       8474       8485       8484       8594       8595       8606       8605  
      8474       8475       8486       8485       8595       8596       8607       8606  
      8475       8476       8487       8486       8596       8597       8608       8607  
      8476       8477       8488       8487       8597       8598       8609       8608  
      8477       8478       8489       8488       8598       8599       8610       8609  
      8478       8479       8490       8489       8599       8600       8611       8610  
      8479       8480       8491       8490       8600       8601       8612       8611  
      8480       8481       8492       8491       8601       8602       8613       8612  
      8482       8483       8494       8493       8603       8604       8615       8614  
      8483       8484       8495       8494       8604       8605       8616       8615  
      8484       8485       8496       8495       8605       8606       8617       8616  
      8485       8486       8497       8496       8606       8607       8618       8617  
      8486       8487       8498       8497       8607       8608       8619       8618  
      8487       8488       8499       8498       8608       8609       8620       8619  
      8488       8489       8500       8499       8609       8610       8621       8620  
      8489       8490       8501       8500       8610       8611       8622       8621  
      8490       8491       8502       8501       8611       8612       8623       8622  
      8491       8492       8503       8502       8612       8613       8624       8623  
      8493       8494       8505       8504       8614       8615       8626       8625  
      8494       8495       8506       8505       8615       8616       8627       8626  
      8495       8496       8507       8506       8616       8617       8628       8627  
      8496       8497       8508       8507       8617       8618       8629       8628  
      8497       8498       8509       8508       8618       8619       8630       8629  
      8498       8499       8510       8509       8619       8620       8631       8630  
      8499       8500       8511       8510       8620       8621       8632       8631  
      8500       8501       8512       8511       8621       8622       8633       8632  
      8501       8502       8513       8512       8622       8623       8634       8633  
      8502       8503       8514       8513       8623       8624       8635       8634  
      8504       8505       8516       8515       8625       8626       8637       8636  
      8505       8506       8517       8516       8626       8627       8638       8637  
      8506       8507       8518       8517       8627       8628       8639       8638  
      8507       8508       8519       8518       8628       8629       8640       8639  
      8508       8509       8520       8519       8629       8630       8641       8640  
      8509       8510       8521       8520       8630       8631       8642       8641  
      8510       8511       8522       8521       8631       8632       8643       8642  
      8511       8512       8523       8522       8632       8633       8644       8643  
      8512       8513       8524       8523       8633       8634       8645       8644  
      8513       8514       8525       8524       8634       8635       8646       8645  
      8515       8516       8527       8526       8636       8637       8648       8647  
      8516       8517       8528       8527       8637       8638       8649       8648  
      8517       8518       8529       8528       8638       8639       8650       8649  
      8518       8519       8530       8529       8639       8640       8651       8650  
      8519       8520       8531       8530       8640       8641       8652       8651  
      8520       8521       8532       8531       8641       8642       8653       8652  
      8521       8522       8533       8532       8642       8643       8654       8653  
      8522       8523       8534       8533       8643       8644       8655       8654  
      8523       8524       8535       8534       8644       8645       8656       8655  
      8524       8525       8536       8535       8645       8646       8657       8656  
      8526       8527       8538       8537       8647       8648       8659       8658  
      8527       8528       8539       8538       8648       8649       8660       8659  
      8528       8529       8540       8539       8649       8650       8661       8660  
      8529       8530       8541       8540       8650       8651       8662       8661  
      8530       8531       8542       8541       8651       8652       8663       8662  
      8531       8532       8543       8542       8652       8653       8664       8663  
      8532       8533       8544       8543       8653       8654       8665       8664  
      8533       8534       8545       8544       8654       8655       8666       8665  
      8534       8535       8546       8545       8655       8656       8667       8666  
      8535       8536       8547       8546       8656       8657       8668       8667  
      8537       8538       8549       8548       8658       8659       8670       8669  
      8538       8539       8550       8549       8659       8660       8671       8670  
      8539       8540       8551       8550       8660       8661       8672       8671  
      8540       8541       8552       8551       8661       8662       8673       8672  
      8541       8542       8553       8552       8662       8663       8674       8673  
      8542       8543       8554       8553       8663       8664       8675       8674  
      8543       8544       8555       8554       8664       8665       8676       8675  
      8544       8545       8556       8555       8665       8666       8677       8676  
      8545       8546       8557       8556       8666       8667       8678       8677  
      8546       8547       8558       8557       8667       8668       8679       8678  
      8548       8549       8560       8559       8669       8670       8681       8680  
      8549       8550       8561       8560       8670       8671       8682       8681  
      8550       8551       8562       8561       8671       8672       8683       8682  
      8551       8552       8563       8562       8672       8673       8684       8683  
      8552       8553       8564       8563       8673       8674       8685       8684  
      8553       8554       8565       8564       8674       8675       8686       8685  
      8554       8555       8566       8565       8675       8676       8687       8686  
      8555       8556       8567       8566       8676       8677       8688       8687  
      8556       8557       8568       8567       8677       8678       8689       8688  
      8557       8558       8569       8568       8678       8679       8690       8689  
      8559       8560       8571       8570       8680       8681       8692       8691  
      8560       8561       8572       8571       8681       8682       8693       8692  
      8561       8562       8573       8572       8682       8683       8694       8693  
      8562       8563       8574       8573       8683       8684       8695       8694  
      8563       8564       8575       8574       8684       8685       8696       8695  
      8564       8565       8576       8575       8685       8686       8697       8696  
      8565       8566       8577       8576       8686       8687       8698       8697  
      8566       8567       8578       8577       8687       8688       8699       8698  
      8567       8568       8579       8578       8688       8689       8700       8699  
      8568       8569       8580       8579       8689       8690       8701       8700  
      8570       8571       8582       8581       8691       8692       8703       8702  
      8571       8572       8583       8582       8692       8693       8704       8703  
      8572       8573       8584       8583       8693       8694       8705       8704  
      8573       8574       8585       8584       8694       8695       8706       8705  
      8574       8575       8586       8585       8695       8696       8707       8706  
      8575       8576       8587       8586       8696       8697       8708       8707  
      8576       8577       8588       8587       8697       8698       8709       8708  
      8577       8578       8589       8588       8698       8699       8710       8709  
      8578       8579       8590       8589       8699       8700       8711       8710  
      8579       8580       8591       8590       8700       8701       8712       8711  
      8592       8593       8604       8603       8713       8714       8725       8724  
      8593       8594       8605       8604       8714       8715       8726       8725  
      8594       8595       8606       8605       8715       8716       8727       8726  
      8595       8596       8607       8606       8716       8717       8728       8727  
      8596       8597       8608       8607       8717       8718       8729       8728  
      8597       8598       8609       8608       8718       8719       8730       8729  
      8598       8599       8610       8609       8719       8720       8731       8730  
      8599       8600       8611       8610       8720       8721       8732       8731  
      8600       8601       8612       8611       8721       8722       8733       8732  
      8601       8602       8613       8612       8722       8723       8734       8733  
      8603       8604       8615       8614       8724       8725       8736       8735  
      8604       8605       8616       8615       8725       8726       8737       8736  
      8605       8606       8617       8616       8726       8727       8738       8737  
      8606       8607       8618       8617       8727       8728       8739       8738  
      8607       8608       8619       8618       8728       8729       8740       8739  
      8608       8609       8620       8619       8729       8730       8741       8740  
      8609       8610       8621       8620       8730       8731       8742       8741  
      8610       8611       8622       8621       8731       8732       8743       8742  
      8611       8612       8623       8622       8732       8733       8744       8743  
      8612       8613       8624       8623       8733       8734       8745       8744  
      8614       8615       8626       8625       8735       8736       8747       8746  
      8615       8616       8627       8626       8736       8737       8748       8747  
      8616       8617       8628       8627       8737       8738       8749       8748  
      8617       8618       8629       8628       8738       8739       8750       8749  
      8618       8619       8630       8629       8739       8740       8751       8750  
      8619       8620       8631       8630       8740       8741       8752       8751  
      8620       8621       8632       8631       8741       8742       8753       8752  
      8621       8622       8633       8632       8742       8743       8754       8753  
      8622       8623       8634       8633       8743       8744       8755       8754  
      8623       8624       8635       8634       8744       8745       8756       8755  
      8625       8626       8637       8636       8746       8747       8758       8757  
      8626       8627       8638       8637       8747       8748       8759       8758  
      8627       8628       8639       8638       8748       8749       8760       8759  
      8628       8629       8640       8639       8749       8750       8761       8760  
      8629       8630       8641       8640       8750       8751       8762       8761  
      8630       8631       8642       8641       8751       8752       8763       8762  
      8631       8632       8643       8642       8752       8753       8764       8763  
      8632       8633       8644       8643       8753       8754       8765       8764  
      8633       8634       8645       8644       8754       8755       8766       8765  
      8634       8635       8646       8645       8755       8756       8767       8766  
      8636       8637       8648       8647       8757       8758       8769       8768  
      8637       8638       8649       8648       8758       8759       8770       8769  
      8638       8639       8650       8649       8759       8760       8771       8770  
      8639       8640       8651       8650       8760       8761       8772       8771  
      8640       8641       8652       8651       8761       8762       8773       8772  
      8641       8642       8653       8652       8762       8763       8774       8773  
      8642       8643       8654       8653       8763       8764       8775       8774  
      8643       8644       8655       8654       8764       8765       8776       8775  
      8644       8645       8656       8655       8765       8766       8777       8776  
      8645       8646       8657       8656       8766       8767       8778       8777  
      8647       8648       8659       8658       8768       8769       8780       8779  
      8648       8649       8660       8659       8769       8770       8781       8780  
      8649       8650       8661       8660       8770       8771       8782       8781  
      8650       8651       8662       8661       8771       8772       8783       8782  
      8651       8652       8663       8662       8772       8773       8784       8783  
      8652       8653       8664       8663       8773       8774       8785       8784  
      8653       8654       8665       8664       8774       8775       8786       8785  
      8654       8655       8666       8665       8775       8776       8787       8786  
      8655       8656       8667       8666       8776       8777       8788       8787  
      8656       8657       8668       8667       8777       8778       8789       8788  
      8658       8659       8670       8669       8779       8780       8791       8790  
      8659       8660       8671       8670       8780       8781       8792       8791  
      8660       8661       8672       8671       8781       8782       8793       8792  
      8661       8662       8673       8672       8782       8783       8794       8793  
      8662       8663       8674       8673       8783       8784       8795       8794  
      8663       8664       8675       8674       8784       8785       8796       8795  
      8664       8665       8676       8675       8785       8786       8797       8796  
      8665       8666       8677       8676       8786       8787       8798       8797  
      8666       8667       8678       8677       8787       8788       8799       8798  
      8667       8668       8679       8678       8788       8789       8800       8799  
      8669       8670       8681       8680       8790       8791       8802       8801  
      8670       8671       8682       8681       8791       8792       8803       8802  
      8671       8672       8683       8682       8792       8793       8804       8803  
      8672       8673       8684       8683       8793       8794       8805       8804  
      8673       8674       8685       8684       8794       8795       8806       8805  
      8674       8675       8686       8685       8795       8796       8807       8806  
      8675       8676       8687       8686       8796       8797       8808       8807  
      8676       8677       8688       8687       8797       8798       8809       8808  
      8677       8678       8689       8688       8798       8799       8810       8809  
      8678       8679       8690       8689       8799       8800       8811       8810  
      8680       8681       8692       8691       8801       8802       8813       8812  
      8681       8682       8693       8692       8802       8803       8814       8813  
      8682       8683       8694       8693       8803       8804       8815       8814  
      8683       8684       8695       8694       8804       8805       8816       8815  
      8684       8685       8696       8695       8805       8806       8817       8816  
      8685       8686       8697       8696       8806       8807       8818       8817  
      8686       8687       8698       8697       8807       8808       8819       8818  
      8687       8688       8699       8698       8808       8809       8820       8819  
      8688       8689       8700       8699       8809       8810       8821       8820  
      8689       8690       8701       8700       8810       8811       8822       8821  
      8691       8692       8703       8702       8812       8813       8824       8823  
      8692       8693       8704       8703       8813       8814       8825       8824  
      8693       8694       8705       8704       8814       8815       8826       8825  
      8694       8695       8706       8705       8815       8816       8827       8826  
      8695       8696       8707       8706       8816       8817       8828       8827  
      8696       8697       8708       8707       8817       8818       8829       8828  
      8697       8698       8709       8708       8818       8819       8830       8829  
      8698       8699       8710       8709       8819       8820       8831       8830  
      8699       8700       8711       8710       8820       8821       8832       8831  
      8700       8701       8712       8711       8821       8822       8833       8832  
      8713       8714       8725       8724       8834       8835       8846       8845  
      8714       8715       8726       8725       8835       8836       8847       8846  
      8715       8716       8727       8726       8836       8837       8848       8847  
      8716       8717       8728       8727       8837       8838       8849       8848  
      8717       8718       8729       8728       8838       8839       8850       8849  
      8718       8719       8730       8729       8839       8840       8851       8850  
      8719       8720       8731       8730       8840       8841       8852       8851  
      8720       8721       8732       8731       8841       8842       8853       8852  
      8721       8722       8733       8732       8842       8843       8854       8853  
      8722       8723       8734       8733       8843       8844       8855       8854  
      8724       8725       8736       8735       8845       8846       8857       8856  
      8725       8726       8737       8736       8846       8847       8858       8857  
      8726       8727       8738       8737       8847       8848       8859       8858  
      8727       8728       8739       8738       8848       8849       8860       8859  
      8728       8729       8740       8739       8849       8850       8861       8860  
      8729       8730       8741       8740       8850       8851       8862       8861  
      8730       8731       8742       8741       8851       8852       8863       8862  
      8731       8732       8743       8742       8852       8853       8864       8863  
      8732       8733       8744       8743       8853       8854       8865       8864  
      8733       8734       8745       8744       8854       8855       8866       8865  
      8735       8736       8747       8746       8856       8857       8868       8867  
      8736       8737       8748       8747       8857       8858       8869       8868  
      8737       8738       8749       8748       8858       8859       8870       8869  
      8738       8739       8750       8749       8859       8860       8871       8870  
      8739       8740       8751       8750       8860       8861       8872       8871  
      8740       8741       8752       8751       8861       8862       8873       8872  
      8741       8742       8753       8752       8862       8863       8874       8873  
      8742       8743       8754       8753       8863       8864       8875       8874  
      8743       8744       8755       8754       8864       8865       8876       8875  
      8744       8745       8756       8755       8865       8866       8877       8876  
      8746       8747       8758       8757       8867       8868       8879       8878  
      8747       8748       8759       8758       8868       8869       8880       8879  
      8748       8749       8760       8759       8869       8870       8881       8880  
      8749       8750       8761       8760       8870       8871       8882       8881  
      8750       8751       8762       8761       8871       8872       8883       8882  
      8751       8752       8763       8762       8872       8873       8884       8883  
      8752       8753       8764       8763       8873       8874       8885       8884  
      8753       8754       8765       8764       8874       8875       8886       8885  
      8754       8755       8766       8765       8875       8876       8887       8886  
      8755       8756       8767       8766       8876       8877       8888       8887  
      8757       8758       8769       8768       8878       8879       8890       8889  
      8758       8759       8770       8769       8879       8880       8891       8890  
      8759       8760       8771       8770       8880       8881       8892       8891  
      8760       8761       8772       8771       8881       8882       8893       8892  
      8761       8762       8773       8772       8882       8883       8894       8893  
      8762       8763       8774       8773       8883       8884       8895       8894  
      8763       8764       8775       8774       8884       8885       8896       8895  
      8764       8765       8776       8775       8885       8886       8897       8896  
      8765       8766       8777       8776       8886       8887       8898       8897  
      8766       8767       8778       8777       8887       8888       8899       8898  
      8768       8769       8780       8779       8889       8890       8901       8900  
      8769       8770       8781       8780       8890       8891       8902       8901  
      8770       8771       8782       8781       8891       8892       8903       8902  
      8771       8772       8783       8782       8892       8893       8904       8903  
      8772       8773       8784       8783       8893       8894       8905       8904  
      8773       8774       8785       8784       8894       8895       8906       8905  
      8774       8775       8786       8785       8895       8896       8907       8906  
      8775       8776       8787       8786       8896       8897       8908       8907  
      8776       8777       8788       8787       8897       8898       8909       8908  
      8777       8778       8789       8788       8898       8899       8910       8909  
      8779       8780       8791       8790       8900       8901       8912       8911  
      8780       8781       8792       8791       8901       8902       8913       8912  
      8781       8782       8793       8792       8902       8903       8914       8913  
      8782       8783       8794       8793       8903       8904       8915       8914  
      8783       8784       8795       8794       8904       8905       8916       8915  
      8784       8785       8796       8795       8905       8906       8917       8916  
      8785       8786       8797       8796       8906       8907       8918       8917  
      8786       8787       8798       8797       8907       8908       8919       8918  
      8787       8788       8799       8798       8908       8909       8920       8919  
      8788       8789       8800       8799       8909       8910       8921       8920  
      8790       8791       8802       8801       8911       8912       8923       8922  
      8791       8792       8803       8802       8912       8913       8924       8923  
      8792       8793       8804       8803       8913       8914       8925       8924  
      8793       8794       8805       8804       8914       8915       8926       8925  
      8794       8795       8806       8805       8915       8916       8927       8926  
      8795       8796       8807       8806       8916       8917       8928       8927  
      8796       8797       8808       8807       8917       8918       8929       8928  
      8797       8798       8809       8808       8918       8919       8930       8929  
      8798       8799       8810       8809       8919       8920       8931       8930  
      8799       8800       8811       8810       8920       8921       8932       8931  
      8801       8802       8813       8812       8922       8923       8934       8933  
      8802       8803       8814       8813       8923       8924       8935       8934  
      8803       8804       8815       8814       8924       8925       8936       8935  
      8804       8805       8816       8815       8925       8926       8937       8936  
      8805       8806       8817       8816       8926       8927       8938       8937  
      8806       8807       8818       8817       8927       8928       8939       8938  
      8807       8808       8819       8818       8928       8929       8940       8939  
      8808       8809       8820       8819       8929       8930       8941       8940  
      8809       8810       8821       8820       8930       8931       8942       8941  
      8810       8811       8822       8821       8931       8932       8943       8942  
      8812       8813       8824       8823       8933       8934       8945       8944  
      8813       8814       8825       8824       8934       8935       8946       8945  
      8814       8815       8826       8825       8935       8936       8947       8946  
      8815       8816       8827       8826       8936       8937       8948       8947  
      8816       8817       8828       8827       8937       8938       8949       8948  
      8817       8818       8829       8828       8938       8939       8950       8949  
      8818       8819       8830       8829       8939       8940       8951       8950  
      8819       8820       8831       8830       8940       8941       8952       8951  
      8820       8821       8832       8831       8941       8942       8953       8952  
      8821       8822       8833       8832       8942       8943       8954       8953  
      8834       8835       8846       8845       8955       8956       8967       8966  
      8835       8836       8847       8846       8956       8957       8968       8967  
      8836       8837       8848       8847       8957       8958       8969       8968  
      8837       8838       8849       8848       8958       8959       8970       8969  
      8838       8839       8850       8849       8959       8960       8971       8970  
      8839       8840       8851       8850       8960       8961       8972       8971  
      8840       8841       8852       8851       8961       8962       8973       8972  
      8841       8842       8853       8852       8962       8963       8974       8973  
      8842       8843       8854       8853       8963       8964       8975       8974  
      8843       8844       8855       8854       8964       8965       8976       8975  
      8845       8846       8857       8856       8966       8967       8978       8977  
      8846       8847       8858       8857       8967       8968       8979       8978  
      8847       8848       8859       8858       8968       8969       8980       8979  
      8848       8849       8860       8859       8969       8970       8981       8980  
      8849       8850       8861       8860       8970       8971       8982       8981  
      8850       8851       8862       8861       8971       8972       8983       8982  
      8851       8852       8863       8862       8972       8973       8984       8983  
      8852       8853       8864       8863       8973       8974       8985       8984  
      8853       8854       8865       8864       8974       8975       8986       8985  
      8854       8855       8866       8865       8975       8976       8987       8986  
      8856       8857       8868       8867       8977       8978       8989       8988  
      8857       8858       8869       8868       8978       8979       8990       8989  
      8858       8859       8870       8869       8979       8980       8991       8990  
      8859       8860       8871       8870       8980       8981       8992       8991  
      8860       8861       8872       8871       8981       8982       8993       8992  
      8861       8862       8873       8872       8982       8983       8994       8993  
      8862       8863       8874       8873       8983       8984       8995       8994  
      8863       8864       8875       8874       8984       8985       8996       8995  
      8864       8865       8876       8875       8985       8986       8997       8996  
      8865       8866       8877       8876       8986       8987       8998       8997  
      8867       8868       8879       8878       8988       8989       9000       8999  
      8868       8869       8880       8879       8989       8990       9001       9000  
      8869       8870       8881       8880       8990       8991       9002       9001  
      8870       8871       8882       8881       8991       8992       9003       9002  
      8871       8872       8883       8882       8992       8993       9004       9003  
      8872       8873       8884       8883       8993       8994       9005       9004  
      8873       8874       8885       8884       8994       8995       9006       9005  
      8874       8875       8886       8885       8995       8996       9007       9006  
      8875       8876       8887       8886       8996       8997       9008       9007  
      8876       8877       8888       8887       8997       8998       9009       9008  
      8878       8879       8890       8889       8999       9000       9011       9010  
      8879       8880       8891       8890       9000       9001       9012       9011  
      8880       8881       8892       8891       9001       9002       9013       9012  
      8881       8882       8893       8892       9002       9003       9014       9013  
      8882       8883       8894       8893       9003       9004       9015       9014  
      8883       8884       8895       8894       9004       9005       9016       9015  
      8884       8885       8896       8895       9005       9006       9017       9016  
      8885       8886       8897       8896       9006       9007       9018       9017  
      8886       8887       8898       8897       9007       9008       9019       9018  
      8887       8888       8899       8898       9008       9009       9020       9019  
      8889       8890       8901       8900       9010       9011       9022       9021  
      8890       8891       8902       8901       9011       9012       9023       9022  
      8891       8892       8903       8902       9012       9013       9024       9023  
      8892       8893       8904       8903       9013       9014       9025       9024  
      8893       8894       8905       8904       9014       9015       9026       9025  
      8894       8895       8906       8905       9015       9016       9027       9026  
      8895       8896       8907       8906       9016       9017       9028       9027  
      8896       8897       8908       8907       9017       9018       9029       9028  
      8897       8898       8909       8908       9018       9019       9030       9029  
      8898       8899       8910       8909       9019       9020       9031       9030  
      8900       8901       8912       8911       9021       9022       9033       9032  
      8901       8902       8913       8912       9022       9023       9034       9033  
      8902       8903       8914       8913       9023       9024       9035       9034  
      8903       8904       8915       8914       9024       9025       9036       9035  
      8904       8905       8916       8915       9025       9026       9037       9036  
      8905       8906       8917       8916       9026       9027       9038       9037  
      8906       8907       8918       8917       9027       9028       9039       9038  
      8907       8908       8919       8918       9028       9029       9040       9039  
      8908       8909       8920       8919       9029       9030       9041       9040  
      8909       8910       8921       8920       9030       9031       9042       9041  
      8911       8912       8923       8922       9032       9033       9044       9043  
      8912       8913       8924       8923       9033       9034       9045       9044  
      8913       8914       8925       8924       9034       9035       9046       9045  
      8914       8915       8926       8925       9035       9036       9047       9046  
      8915       8916       8927       8926       9036       9037       9048       9047  
      8916       8917       8928       8927       9037       9038       9049       9048  
      8917       8918       8929       8928       9038       9039       9050       9049  
      8918       8919       8930       8929       9039       9040       9051       9050  
      8919       8920       8931       8930       9040       9041       9052       9051  
      8920       8921       8932       8931       9041       9042       9053       9052  
      8922       8923       8934       8933       9043       9044       9055       9054  
      8923       8924       8935       8934       9044       9045       9056       9055  
      8924       8925       8936       8935       9045       9046       9057       9056  
      8925       8926       8937       8936       9046       9047       9058       9057  
      8926       8927       8938       8937       9047       9048       9059       9058  
      8927       8928       8939       8938       9048       9049       9060       9059  
      8928       8929       8940       8939       9049       9050       9061       9060  
      8929       8930       8941       8940       9050       9051       9062       9061  
      8930       8931       8942       8941       9051       9052       9063       9062  
      8931       8932       8943       8942       9052       9053       9064       9063  
      8933       8934       8945       8944       9054       9055       9066       9065  
      8934       8935       8946       8945       9055       9056       9067       9066  
      8935       8936       8947       8946       9056       9057       9068       9067  
      8936       8937       8948       8947       9057       9058       9069       9068  
      8937       8938       8949       8948       9058       9059       9070       9069  
      8938       8939       8950       8949       9059       9060       9071       9070  
      8939       8940       8951       8950       9060       9061       9072       9071  
      8940       8941       8952       8951       9061       9062       9073       9072  
      8941       8942       8953       8952       9062       9063       9074       9073  
      8942       8943       8954       8953       9063       9064       9075       9074  
      8955       8956       8967       8966       9076       9077       9088       9087  
      8956       8957       8968       8967       9077       9078       9089       9088  
      8957       8958       8969       8968       9078       9079       9090       9089  
      8958       8959       8970       8969       9079       9080       9091       9090  
      8959       8960       8971       8970       9080       9081       9092       9091  
      8960       8961       8972       8971       9081       9082       9093       9092  
      8961       8962       8973       8972       9082       9083       9094       9093  
      8962       8963       8974       8973       9083       9084       9095       9094  
      8963       8964       8975       8974       9084       9085       9096       9095  
      8964       8965       8976       8975       9085       9086       9097       9096  
      8966       8967       8978       8977       9087       9088       9099       9098  
      8967       8968       8979       8978       9088       9089       9100       9099  
      8968       8969       8980       8979       9089       9090       9101       9100  
      8969       8970       8981       8980       9090       9091       9102       9101  
      8970       8971       8982       8981       9091       9092       9103       9102  
      8971       8972       8983       8982       9092       9093       9104       9103  
      8972       8973       8984       8983       9093       9094       9105       9104  
      8973       8974       8985       8984       9094       9095       9106       9105  
      8974       8975       8986       8985       9095       9096       9107       9106  
      8975       8976       8987       8986       9096       9097       9108       9107  
      8977       8978       8989       8988       9098       9099       9110       9109  
      8978       8979       8990       8989       9099       9100       9111       9110  
      8979       8980       8991       8990       9100       9101       9112       9111  
      8980       8981       8992       8991       9101       9102       9113       9112  
      8981       8982       8993       8992       9102       9103       9114       9113  
      8982       8983       8994       8993       9103       9104       9115       9114  
      8983       8984       8995       8994       9104       9105       9116       9115  
      8984       8985       8996       8995       9105       9106       9117       9116  
      8985       8986       8997       8996       9106       9107       9118       9117  
      8986       8987       8998       8997       9107       9108       9119       9118  
      8988       8989       9000       8999       9109       9110       9121       9120  
      8989       8990       9001       9000       9110       9111       9122       9121  
      8990       8991       9002       9001       9111       9112       9123       9122  
      8991       8992       9003       9002       9112       9113       9124       9123  
      8992       8993       9004       9003       9113       9114       9125       9124  
      8993       8994       9005       9004       9114       9115       9126       9125  
      8994       8995       9006       9005       9115       9116       9127       9126  
      8995       8996       9007       9006       9116       9117       9128       9127  
      8996       8997       9008       9007       9117       9118       9129       9128  
      8997       8998       9009       9008       9118       9119       9130       9129  
      8999       9000       9011       9010       9120       9121       9132       9131  
      9000       9001       9012       9011       9121       9122       9133       9132  
      9001       9002       9013       9012       9122       9123       9134       9133  
      9002       9003       9014       9013       9123       9124       9135       9134  
      9003       9004       9015       9014       9124       9125       9136       9135  
      9004       9005       9016       9015       9125       9126       9137       9136  
      9005       9006       9017       9016       9126       9127       9138       9137  
      9006       9007       9018       9017       9127       9128       9139       9138  
      9007       9008       9019       9018       9128       9129       9140       9139  
      9008       9009       9020       9019       9129       9130       9141       9140  
      9010       9011       9022       9021       9131       9132       9143       9142  
      9011       9012       9023       9022       9132       9133       9144       9143  
      9012       9013       9024       9023       9133       9134       9145       9144  
      9013       9014       9025       9024       9134       9135       9146       9145  
      9014       9015       9026       9025       9135       9136       9147       9146  
      9015       9016       9027       9026       9136       9137       9148       9147  
      9016       9017       9028       9027       9137       9138       9149       9148  
      9017       9018       9029       9028       9138       9139       9150       9149  
      9018       9019       9030       9029       9139       9140       9151       9150  
      9019       9020       9031       9030       9140       9141       9152       9151  
      9021       9022       9033       9032       9142       9143       9154       9153  
      9022       9023       9034       9033       9143       9144       9155       9154  
      9023       9024       9035       9034       9144       9145       9156       9155  
      9024       9025       9036       9035       9145       9146       9157       9156  
      9025       9026       9037       9036       9146       9147       9158       9157  
      9026       9027       9038       9037       9147       9148       9159       9158  
      9027       9028       9039       9038       9148       9149       9160       9159  
      9028       9029       9040       9039       9149       9150       9161       9160  
      9029       9030       9041       9040       9150       9151       9162       9161  
      9030       9031       9042       9041       9151       9152       9163       9162  
      9032       9033       9044       9043       9153       9154       9165       9164  
      9033       9034       9045       9044       9154       9155       9166       9165  
      9034       9035       9046       9045       9155       9156       9167       9166  
      9035       9036       9047       9046       9156       9157       9168       9167  
      9036       9037       9048       9047       9157       9158       9169       9168  
      9037       9038       9049       9048       9158       9159       9170       9169  
      9038       9039       9050       9049       9159       9160       9171       9170  
      9039       9040       9051       9050       9160       9161       9172       9171  
      9040       9041       9052       9051       9161       9162       9173       9172  
      9041       9042       9053       9052       9162       9163       9174       9173  
      9043       9044       9055       9054       9164       9165       9176       9175  
      9044       9045       9056       9055       9165       9166       9177       9176  
      9045       9046       9057       9056       9166       9167       9178       9177  
      9046       9047       9058       9057       9167       9168       9179       9178  
      9047       9048       9059       9058       9168       9169       9180       9179  
      9048       9049       9060       9059       9169       9170       9181       9180  
      9049       9050       9061       9060       9170       9171       9182       9181  
      9050       9051       9062       9061       9171       9172       9183       9182  
      9051       9052       9063       9062       9172       9173       9184       9183  
      9052       9053       9064       9063       9173       9174       9185       9184  
      9054       9055       9066       9065       9175       9176       9187       9186  
      9055       9056       9067       9066       9176       9177       9188       9187  
      9056       9057       9068       9067       9177       9178       9189       9188  
      9057       9058       9069       9068       9178       9179       9190       9189  
      9058       9059       9070       9069       9179       9180       9191       9190  
      9059       9060       9071       9070       9180       9181       9192       9191  
      9060       9061       9072       9071       9181       9182       9193       9192  
      9061       9062       9073       9072       9182       9183       9194       9193  
      9062       9063       9074       9073       9183       9184       9195       9194  
      9063       9064       9075       9074       9184       9185       9196       9195  
      9076       9077       9088       9087       9197       9198       9209       9208  
      9077       9078       9089       9088       9198       9199       9210       9209  
      9078       9079       9090       9089       9199       9200       9211       9210  
      9079       9080       9091       9090       9200       9201       9212       9211  
      9080       9081       9092       9091       9201       9202       9213       9212  
      9081       9082       9093       9092       9202       9203       9214       9213  
      9082       9083       9094       9093       9203       9204       9215       9214  
      9083       9084       9095       9094       9204       9205       9216       9215  
      9084       9085       9096       9095       9205       9206       9217       9216  
      9085       9086       9097       9096       9206       9207       9218       9217  
      9087       9088       9099       9098       9208       9209       9220       9219  
      9088       9089       9100       9099       9209       9210       9221       9220  
      9089       9090       9101       9100       9210       9211       9222       9221  
      9090       9091       9102       9101       9211       9212       9223       9222  
      9091       9092       9103       9102       9212       9213       9224       9223  
      9092       9093       9104       9103       9213       9214       9225       9224  
      9093       9094       9105       9104       9214       9215       9226       9225  
      9094       9095       9106       9105       9215       9216       9227       9226  
      9095       9096       9107       9106       9216       9217       9228       9227  
      9096       9097       9108       9107       9217       9218       9229       9228  
      9098       9099       9110       9109       9219       9220       9231       9230  
      9099       9100       9111       9110       9220       9221       9232       9231  
      9100       9101       9112       9111       9221       9222       9233       9232  
      9101       9102       9113       9112       9222       9223       9234       9233  
      9102       9103       9114       9113       9223       9224       9235       9234  
      9103       9104       9115       9114       9224       9225       9236       9235  
      9104       9105       9116       9115       9225       9226       9237       9236  
      9105       9106       9117       9116       9226       9227       9238       9237  
      9106       9107       9118       9117       9227       9228       9239       9238  
      9107       9108       9119       9118       9228       9229       9240       9239  
      9109       9110       9121       9120       9230       9231       9242       9241  
      9110       9111       9122       9121       9231       9232       9243       9242  
      9111       9112       9123       9122       9232       9233       9244       9243  
      9112       9113       9124       9123       9233       9234       9245       9244  
      9113       9114       9125       9124       9234       9235       9246       9245  
      9114       9115       9126       9125       9235       9236       9247       9246  
      9115       9116       9127       9126       9236       9237       9248       9247  
      9116       9117       9128       9127       9237       9238       9249       9248  
      9117       9118       9129       9128       9238       9239       9250       9249  
      9118       9119       9130       9129       9239       9240       9251       9250  
      9120       9121       9132       9131       9241       9242       9253       9252  
      9121       9122       9133       9132       9242       9243       9254       9253  
      9122       9123       9134       9133       9243       9244       9255       9254  
      9123       9124       9135       9134       9244       9245       9256       9255  
      9124       9125       9136       9135       9245       9246       9257       9256  
      9125       9126       9137       9136       9246       9247       9258       9257  
      9126       9127       9138       9137       9247       9248       9259       9258  
      9127       9128       9139       9138       9248       9249       9260       9259  
      9128       9129       9140       9139       9249       9250       9261       9260  
      9129       9130       9141       9140       9250       9251       9262       9261  
      9131       9132       9143       9142       9252       9253       9264       9263  
      9132       9133       9144       9143       9253       9254       9265       9264  
      9133       9134       9145       9144       9254       9255       9266       9265  
      9134       9135       9146       9145       9255       9256       9267       9266  
      9135       9136       9147       9146       9256       9257       9268       9267  
      9136       9137       9148       9147       9257       9258       9269       9268  
      9137       9138       9149       9148       9258       9259       9270       9269  
      9138       9139       9150       9149       9259       9260       9271       9270  
      9139       9140       9151       9150       9260       9261       9272       9271  
      9140       9141       9152       9151       9261       9262       9273       9272  
      9142       9143       9154       9153       9263       9264       9275       9274  
      9143       9144       9155       9154       9264       9265       9276       9275  
      9144       9145       9156       9155       9265       9266       9277       9276  
      9145       9146       9157       9156       9266       9267       9278       9277  
      9146       9147       9158       9157       9267       9268       9279       9278  
      9147       9148       9159       9158       9268       9269       9280       9279  
      9148       9149       9160       9159       9269       9270       9281       9280  
      9149       9150       9161       9160       9270       9271       9282       9281  
      9150       9151       9162       9161       9271       9272       9283       9282  
      9151       9152       9163       9162       9272       9273       9284       9283  
      9153       9154       9165       9164       9274       9275       9286       9285  
      9154       9155       9166       9165       9275       9276       9287       9286  
      9155       9156       9167       9166       9276       9277       9288       9287  
      9156       9157       9168       9167       9277       9278       9289       9288  
      9157       9158       9169       9168       9278       9279       9290       9289  
      9158       9159       9170       9169       9279       9280       9291       9290  
      9159       9160       9171       9170       9280       9281       9292       9291  
      9160       9161       9172       9171       9281       9282       9293       9292  
      9161       9162       9173       9172       9282       9283       9294       9293  
      9162       9163       9174       9173       9283       9284       9295       9294  
      9164       9165       9176       9175       9285       9286       9297       9296  
      9165       9166       9177       9176       9286       9287       9298       9297  
      9166       9167       9178       9177       9287       9288       9299       9298  
      9167       9168       9179       9178       9288       9289       9300       9299  
      9168       9169       9180       9179       9289       9290       9301       9300  
      9169       9170       9181       9180       9290       9291       9302       9301  
      9170       9171       9182       9181       9291       9292       9303       9302  
      9171       9172       9183       9182       9292       9293       9304       9303  
      9172       9173       9184       9183       9293       9294       9305       9304  
      9173       9174       9185       9184       9294       9295       9306       9305  
      9175       9176       9187       9186       9296       9297       9308       9307  
      9176       9177       9188       9187       9297       9298       9309       9308  
      9177       9178       9189       9188       9298       9299       9310       9309  
      9178       9179       9190       9189       9299       9300       9311       9310  
      9179       9180       9191       9190       9300       9301       9312       9311  
      9180       9181       9192       9191       9301       9302       9313       9312  
      9181       9182       9193       9192       9302       9303       9314       9313  
      9182       9183       9194       9193       9303       9304       9315       9314  
      9183       9184       9195       9194       9304       9305       9316       9315  
      9184       9185       9196       9195       9305       9306       9317       9316  
      9197       9198       9209       9208       9318       9319       9330       9329  
      9198       9199       9210       9209       9319       9320       9331       9330  
      9199       9200       9211       9210       9320       9321       9332       9331  
      9200       9201       9212       9211       9321       9322       9333       9332  
      9201       9202       9213       9212       9322       9323       9334       9333  
      9202       9203       9214       9213       9323       9324       9335       9334  
      9203       9204       9215       9214       9324       9325       9336       9335  
      9204       9205       9216       9215       9325       9326       9337       9336  
      9205       9206       9217       9216       9326       9327       9338       9337  
      9206       9207       9218       9217       9327       9328       9339       9338  
      9208       9209       9220       9219       9329       9330       9341       9340  
      9209       9210       9221       9220       9330       9331       9342       9341  
      9210       9211       9222       9221       9331       9332       9343       9342  
      9211       9212       9223       9222       9332       9333       9344       9343  
      9212       9213       9224       9223       9333       9334       9345       9344  
      9213       9214       9225       9224       9334       9335       9346       9345  
      9214       9215       9226       9225       9335       9336       9347       9346  
      9215       9216       9227       9226       9336       9337       9348       9347  
      9216       9217       9228       9227       9337       9338       9349       9348  
      9217       9218       9229       9228       9338       9339       9350       9349  
      9219       9220       9231       9230       9340       9341       9352       9351  
      9220       9221       9232       9231       9341       9342       9353       9352  
      9221       9222       9233       9232       9342       9343       9354       9353  
      9222       9223       9234       9233       9343       9344       9355       9354  
      9223       9224       9235       9234       9344       9345       9356       9355  
      9224       9225       9236       9235       9345       9346       9357       9356  
      9225       9226       9237       9236       9346       9347       9358       9357  
      9226       9227       9238       9237       9347       9348       9359       9358  
      9227       9228       9239       9238       9348       9349       9360       9359  
      9228       9229       9240       9239       9349       9350       9361       9360  
      9230       9231       9242       9241       9351       9352       9363       9362  
      9231       9232       9243       9242       9352       9353       9364       9363  
      9232       9233       9244       9243       9353       9354       9365       9364  
      9233       9234       9245       9244       9354       9355       9366       9365  
      9234       9235       9246       9245       9355       9356       9367       9366  
      9235       9236       9247       9246       9356       9357       9368       9367  
      9236       9237       9248       9247       9357       9358       9369       9368  
      9237       9238       9249       9248       9358       9359       9370       9369  
      9238       9239       9250       9249       9359       9360       9371       9370  
      9239       9240       9251       9250       9360       9361       9372       9371  
      9241       9242       9253       9252       9362       9363       9374       9373  
      9242       9243       9254       9253       9363       9364       9375       9374  
      9243       9244       9255       9254       9364       9365       9376       9375  
      9244       9245       9256       9255       9365       9366       9377       9376  
      9245       9246       9257       9256       9366       9367       9378       9377  
      9246       9247       9258       9257       9367       9368       9379       9378  
      9247       9248       9259       9258       9368       9369       9380       9379  
      9248       9249       9260       9259       9369       9370       9381       9380  
      9249       9250       9261       9260       9370       9371       9382       9381  
      9250       9251       9262       9261       9371       9372       9383       9382  
      9252       9253       9264       9263       9373       9374       9385       9384  
      9253       9254       9265       9264       9374       9375       9386       9385  
      9254       9255       9266       9265       9375       9376       9387       9386  
      9255       9256       9267       9266       9376       9377       9388       9387  
      9256       9257       9268       9267       9377       9378       9389       9388  
      9257       9258       9269       9268       9378       9379       9390       9389  
      9258       9259       9270       9269       9379       9380       9391       9390  
      9259       9260       9271       9270       9380       9381       9392       9391  
      9260       9261       9272       9271       9381       9382       9393       9392  
      9261       9262       9273       9272       9382       9383       9394       9393  
      9263       9264       9275       9274       9384       9385       9396       9395  
      9264       9265       9276       9275       9385       9386       9397       9396  
      9265       9266       9277       9276       9386       9387       9398       9397  
      9266       9267       9278       9277       9387       9388       9399       9398  
      9267       9268       9279       9278       9388       9389       9400       9399  
      9268       9269       9280       9279       9389       9390       9401       9400  
      9269       9270       9281       9280       9390       9391       9402       9401  
      9270       9271       9282       9281       9391       9392       9403       9402  
      9271       9272       9283       9282       9392       9393       9404       9403  
      9272       9273       9284       9283       9393       9394       9405       9404  
      9274       9275       9286       9285       9395       9396       9407       9406  
      9275       9276       9287       9286       9396       9397       9408       9407  
      9276       9277       9288       9287       9397       9398       9409       9408  
      9277       9278       9289       9288       9398       9399       9410       9409  
      9278       9279       9290       9289       9399       9400       9411       9410  
      9279       9280       9291       9290       9400       9401       9412       9411  
      9280       9281       9292       9291       9401       9402       9413       9412  
      9281       9282       9293       9292       9402       9403       9414       9413  
      9282       9283       9294       9293       9403       9404       9415       9414  
      9283       9284       9295       9294       9404       9405       9416       9415  
      9285       9286       9297       9296       9406       9407       9418       9417  
      9286       9287       9298       9297       9407       9408       9419       9418  
      9287       9288       9299       9298       9408       9409       9420       9419  
      9288       9289       9300       9299       9409       9410       9421       9420  
      9289       9290       9301       9300       9410       9411       9422       9421  
      9290       9291       9302       9301       9411       9412       9423       9422  
      9291       9292       9303       9302       9412       9413       9424       9423  
      9292       9293       9304       9303       9413       9414       9425       9424  
      9293       9294       9305       9304       9414       9415       9426       9425  
      9294       9295       9306       9305       9415       9416       9427       9426  
      9296       9297       9308       9307       9417       9418       9429       9428  
      9297       9298       9309       9308       9418       9419       9430       9429  
      9298       9299       9310       9309       9419       9420       9431       9430  
      9299       9300       9311       9310       9420       9421       9432       9431  
      9300       9301       9312       9311       9421       9422       9433       9432  
      9301       9302       9313       9312       9422       9423       9434       9433  
      9302       9303       9314       9313       9423       9424       9435       9434  
      9303       9304       9315       9314       9424       9425       9436       9435  
      9304       9305       9316       9315       9425       9426       9437       9436  
      9305       9306       9317       9316       9426       9427       9438       9437  
      9318       9319       9330       9329       9439       9440       9451       9450  
      9319       9320       9331       9330       9440       9441       9452       9451  
      9320       9321       9332       9331       9441       9442       9453       9452  
      9321       9322       9333       9332       9442       9443       9454       9453  
      9322       9323       9334       9333       9443       9444       9455       9454  
      9323       9324       9335       9334       9444       9445       9456       9455  
      9324       9325       9336       9335       9445       9446       9457       9456  
      9325       9326       9337       9336       9446       9447       9458       9457  
      9326       9327       9338       9337       9447       9448       9459       9458  
      9327       9328       9339       9338       9448       9449       9460       9459  
      9329       9330       9341       9340       9450       9451       9462       9461  
      9330       9331       9342       9341       9451       9452       9463       9462  
      9331       9332       9343       9342       9452       9453       9464       9463  
      9332       9333       9344       9343       9453       9454       9465       9464  
      9333       9334       9345       9344       9454       9455       9466       9465  
      9334       9335       9346       9345       9455       9456       9467       9466  
      9335       9336       9347       9346       9456       9457       9468       9467  
      9336       9337       9348       9347       9457       9458       9469       9468  
      9337       9338       9349       9348       9458       9459       9470       9469  
      9338       9339       9350       9349       9459       9460       9471       9470  
      9340       9341       9352       9351       9461       9462       9473       9472  
      9341       9342       9353       9352       9462       9463       9474       9473  
      9342       9343       9354       9353       9463       9464       9475       9474  
      9343       9344       9355       9354       9464       9465       9476       9475  
      9344       9345       9356       9355       9465       9466       9477       9476  
      9345       9346       9357       9356       9466       9467       9478       9477  
      9346       9347       9358       9357       9467       9468       9479       9478  
      9347       9348       9359       9358       9468       9469       9480       9479  
      9348       9349       9360       9359       9469       9470       9481       9480  
      9349       9350       9361       9360       9470       9471       9482       9481  
      9351       9352       9363       9362       9472       9473       9484       9483  
      9352       9353       9364       9363       9473       9474       9485       9484  
      9353       9354       9365       9364       9474       9475       9486       9485  
      9354       9355       9366       9365       9475       9476       9487       9486  
      9355       9356       9367       9366       9476       9477       9488       9487  
      9356       9357       9368       9367       9477       9478       9489       9488  
      9357       9358       9369       9368       9478       9479       9490       9489  
      9358       9359       9370       9369       9479       9480       9491       9490  
      9359       9360       9371       9370       9480       9481       9492       9491  
      9360       9361       9372       9371       9481       9482       9493       9492  
      9362       9363       9374       9373       9483       9484       9495       9494  
      9363       9364       9375       9374       9484       9485       9496       9495  
      9364       9365       9376       9375       9485       9486       9497       9496  
      9365       9366       9377       9376       9486       9487       9498       9497  
      9366       9367       9378       9377       9487       9488       9499       9498  
      9367       9368       9379       9378       9488       9489       9500       9499  
      9368       9369       9380       9379       9489       9490       9501       9500  
      9369       9370       9381       9380       9490       9491       9502       9501  
      9370       9371       9382       9381       9491       9492       9503       9502  
      9371       9372       9383       9382       9492       9493       9504       9503  
      9373       9374       9385       9384       9494       9495       9506       9505  
      9374       9375       9386       9385       9495       9496       9507       9506  
      9375       9376       9387       9386       9496       9497       9508       9507  
      9376       9377       9388       9387       9497       9498       9509       9508  
      9377       9378       9389       9388       9498       9499       9510       9509  
      9378       9379       9390       9389       9499       9500       9511       9510  
      9379       9380       9391       9390       9500       9501       9512       9511  
      9380       9381       9392       9391       9501       9502       9513       9512  
      9381       9382       9393       9392       9502       9503       9514       9513  
      9382       9383       9394       9393       9503       9504       9515       9514  
      9384       9385       9396       9395       9505       9506       9517       9516  
      9385       9386       9397       9396       9506       9507       9518       9517  
      9386       9387       9398       9397       9507       9508       9519       9518  
      9387       9388       9399       9398       9508       9509       9520       9519  
      9388       9389       9400       9399       9509       9510       9521       9520  
      9389       9390       9401       9400       9510       9511       9522       9521  
      9390       9391       9402       9401       9511       9512       9523       9522  
      9391       9392       9403       9402       9512       9513       9524       9523  
      9392       9393       9404       9403       9513       9514       9525       9524  
      9393       9394       9405       9404       9514       9515       9526       9525  
      9395       9396       9407       9406       9516       9517       9528       9527  
      9396       9397       9408       9407       9517       9518       9529       9528  
      9397       9398       9409       9408       9518       9519       9530       9529  
      9398       9399       9410       9409       9519       9520       9531       9530  
      9399       9400       9411       9410       9520       9521       9532       9531  
      9400       9401       9412       9411       9521       9522       9533       9532  
      9401       9402       9413       9412       9522       9523       9534       9533  
      9402       9403       9414       9413       9523       9524       9535       9534  
      9403       9404       9415       9414       9524       9525       9536       9535  
      9404       9405       9416       9415       9525       9526       9537       9536  
      9406       9407       9418       9417       9527       9528       9539       9538  
      9407       9408       9419       9418       9528       9529       9540       9539  
      9408       9409       9420       9419       9529       9530       9541       9540  
      9409       9410       9421       9420       9530       9531       9542       9541  
      9410       9411       9422       9421       9531       9532       9543       9542  
      9411       9412       9423       9422       9532       9533       9544       9543  
      9412       9413       9424       9423       9533       9534       9545       9544  
      9413       9414       9425       9424       9534       9535       9546       9545  
      9414       9415       9426       9425       9535       9536       9547       9546  
      9415       9416       9427       9426       9536       9537       9548       9547  
      9417       9418       9429       9428       9538       9539       9550       9549  
      9418       9419       9430       9429       9539       9540       9551       9550  
      9419       9420       9431       9430       9540       9541       9552       9551  
      9420       9421       9432       9431       9541       9542       9553       9552  
      9421       9422       9433       9432       9542       9543       9554       9553  
      9422       9423       9434       9433       9543       9544       9555       9554  
      9423       9424       9435       9434       9544       9545       9556       9555  
      9424       9425       9436       9435       9545       9546       9557       9556  
      9425       9426       9437       9436       9546       9547       9558       9557  
      9426       9427       9438       9437       9547       9548       9559       9558  
      9439       9440       9451       9450       9560       9561       9572       9571  
      9440       9441       9452       9451       9561       9562       9573       9572  
      9441       9442       9453       9452       9562       9563       9574       9573  
      9442       9443       9454       9453       9563       9564       9575       9574  
      9443       9444       9455       9454       9564       9565       9576       9575  
      9444       9445       9456       9455       9565       9566       9577       9576  
      9445       9446       9457       9456       9566       9567       9578       9577  
      9446       9447       9458       9457       9567       9568       9579       9578  
      9447       9448       9459       9458       9568       9569       9580       9579  
      9448       9449       9460       9459       9569       9570       9581       9580  
      9450       9451       9462       9461       9571       9572       9583       9582  
      9451       9452       9463       9462       9572       9573       9584       9583  
      9452       9453       9464       9463       9573       9574       9585       9584  
      9453       9454       9465       9464       9574       9575       9586       9585  
      9454       9455       9466       9465       9575       9576       9587       9586  
      9455       9456       9467       9466       9576       9577       9588       9587  
      9456       9457       9468       9467       9577       9578       9589       9588  
      9457       9458       9469       9468       9578       9579       9590       9589  
      9458       9459       9470       9469       9579       9580       9591       9590  
      9459       9460       9471       9470       9580       9581       9592       9591  
      9461       9462       9473       9472       9582       9583       9594       9593  
      9462       9463       9474       9473       9583       9584       9595       9594  
      9463       9464       9475       9474       9584       9585       9596       9595  
      9464       9465       9476       9475       9585       9586       9597       9596  
      9465       9466       9477       9476       9586       9587       9598       9597  
      9466       9467       9478       9477       9587       9588       9599       9598  
      9467       9468       9479       9478       9588       9589       9600       9599  
      9468       9469       9480       9479       9589       9590       9601       9600  
      9469       9470       9481       9480       9590       9591       9602       9601  
      9470       9471       9482       9481       9591       9592       9603       9602  
      9472       9473       9484       9483       9593       9594       9605       9604  
      9473       9474       9485       9484       9594       9595       9606       9605  
      9474       9475       9486       9485       9595       9596       9607       9606  
      9475       9476       9487       9486       9596       9597       9608       9607  
      9476       9477       9488       9487       9597       9598       9609       9608  
      9477       9478       9489       9488       9598       9599       9610       9609  
      9478       9479       9490       9489       9599       9600       9611       9610  
      9479       9480       9491       9490       9600       9601       9612       9611  
      9480       9481       9492       9491       9601       9602       9613       9612  
      9481       9482       9493       9492       9602       9603       9614       9613  
      9483       9484       9495       9494       9604       9605       9616       9615  
      9484       9485       9496       9495       9605       9606       9617       9616  
      9485       9486       9497       9496       9606       9607       9618       9617  
      9486       9487       9498       9497       9607       9608       9619       9618  
      9487       9488       9499       9498       9608       9609       9620       9619  
      9488       9489       9500       9499       9609       9610       9621       9620  
      9489       9490       9501       9500       9610       9611       9622       9621  
      9490       9491       9502       9501       9611       9612       9623       9622  
      9491       9492       9503       9502       9612       9613       9624       9623  
      9492       9493       9504       9503       9613       9614       9625       9624  
      9494       9495       9506       9505       9615       9616       9627       9626  
      9495       9496       9507       9506       9616       9617       9628       9627  
      9496       9497       9508       9507       9617       9618       9629       9628  
      9497       9498       9509       9508       9618       9619       9630       9629  
      9498       9499       9510       9509       9619       9620       9631       9630  
      9499       9500       9511       9510       9620       9621       9632       9631  
      9500       9501       9512       9511       9621       9622       9633       9632  
      9501       9502       9513       9512       9622       9623       9634       9633  
      9502       9503       9514       9513       9623       9624       9635       9634  
      9503       9504       9515       9514       9624       9625       9636       9635  
      9505       9506       9517       9516       9626       9627       9638       9637  
      9506       9507       9518       9517       9627       9628       9639       9638  
      9507       9508       9519       9518       9628       9629       9640       9639  
      9508       9509       9520       9519       9629       9630       9641       9640  
      9509       9510       9521       9520       9630       9631       9642       9641  
      9510       9511       9522       9521       9631       9632       9643       9642  
      9511       9512       9523       9522       9632       9633       9644       9643  
      9512       9513       9524       9523       9633       9634       9645       9644  
      9513       9514       9525       9524       9634       9635       9646       9645  
      9514       9515       9526       9525       9635       9636       9647       9646  
      9516       9517       9528       9527       9637       9638       9649       9648  
      9517       9518       9529       9528       9638       9639       9650       9649  
      9518       9519       9530       9529       9639       9640       9651       9650  
      9519       9520       9531       9530       9640       9641       9652       9651  
      9520       9521       9532       9531       9641       9642       9653       9652  
      9521       9522       9533       9532       9642       9643       9654       9653  
      9522       9523       9534       9533       9643       9644       9655       9654  
      9523       9524       9535       9534       9644       9645       9656       9655  
      9524       9525       9536       9535       9645       9646       9657       9656  
      9525       9526       9537       9536       9646       9647       9658       9657  
      9527       9528       9539       9538       9648       9649       9660       9659  
      9528       9529       9540       9539       9649       9650       9661       9660  
      9529       9530       9541       9540       9650       9651       9662       9661  
      9530       9531       9542       9541       9651       9652       9663       9662  
      9531       9532       9543       9542       9652       9653       9664       9663  
      9532       9533       9544       9543       9653       9654       9665       9664  
      9533       9534       9545       9544       9654       9655       9666       9665  
      9534       9535       9546       9545       9655       9656       9667       9666  
      9535       9536       9547       9546       9656       9657       9668       9667  
      9536       9537       9548       9547       9657       9658       9669       9668  
      9538       9539       9550       9549       9659       9660       9671       9670  
      9539       9540       9551       9550       9660       9661       9672       9671  
      9540       9541       9552       9551       9661       9662       9673       9672  
      9541       9542       9553       9552       9662       9663       9674       9673  
      9542       9543       9554       9553       9663       9664       9675       9674  
      9543       9544       9555       9554       9664       9665       9676       9675  
      9544       9545       9556       9555       9665       9666       9677       9676  
      9545       9546       9557       9556       9666       9667       9678       9677  
      9546       9547       9558       9557       9667       9668       9679       9678  
      9547       9548       9559       9558       9668       9669       9680       9679  
      9560       9561       9572       9571       9681       9682       9693       9692  
      9561       9562       9573       9572       9682       9683       9694       9693  
      9562       9563       9574       9573       9683       9684       9695       9694  
      9563       9564       9575       9574       9684       9685       9696       9695  
      9564       9565       9576       9575       9685       9686       9697       9696  
      9565       9566       9577       9576       9686       9687       9698       9697  
      9566       9567       9578       9577       9687       9688       9699       9698  
      9567       9568       9579       9578       9688       9689       9700       9699  
      9568       9569       9580       9579       9689       9690       9701       9700  
      9569       9570       9581       9580       9690       9691       9702       9701  
      9571       9572       9583       9582       9692       9693       9704       9703  
      9572       9573       9584       9583       9693       9694       9705       9704  
      9573       9574       9585       9584       9694       9695       9706       9705  
      9574       9575       9586       9585       9695       9696       9707       9706  
      9575       9576       9587       9586       9696       9697       9708       9707  
      9576       9577       9588       9587       9697       9698       9709       9708  
      9577       9578       9589       9588       9698       9699       9710       9709  
      9578       9579       9590       9589       9699       9700       9711       9710  
      9579       9580       9591       9590       9700       9701       9712       9711  
      9580       9581       9592       9591       9701       9702       9713       9712  
      9582       9583       9594       9593       9703       9704       9715       9714  
      9583       9584       9595       9594       9704       9705       9716       9715  
      9584       9585       9596       9595       9705       9706       9717       9716  
      9585       9586       9597       9596       9706       9707       9718       9717  
      9586       9587       9598       9597       9707       9708       9719       9718  
      9587       9588       9599       9598       9708       9709       9720       9719  
      9588       9589       9600       9599       9709       9710       9721       9720  
      9589       9590       9601       9600       9710       9711       9722       9721  
      9590       9591       9602       9601       9711       9712       9723       9722  
      9591       9592       9603       9602       9712       9713       9724       9723  
      9593       9594       9605       9604       9714       9715       9726       9725  
      9594       9595       9606       9605       9715       9716       9727       9726  
      9595       9596       9607       9606       9716       9717       9728       9727  
      9596       9597       9608       9607       9717       9718       9729       9728  
      9597       9598       9609       9608       9718       9719       9730       9729  
      9598       9599       9610       9609       9719       9720       9731       9730  
      9599       9600       9611       9610       9720       9721       9732       9731  
      9600       9601       9612       9611       9721       9722       9733       9732  
      9601       9602       9613       9612       9722       9723       9734       9733  
      9602       9603       9614       9613       9723       9724       9735       9734  
      9604       9605       9616       9615       9725       9726       9737       9736  
      9605       9606       9617       9616       9726       9727       9738       9737  
      9606       9607       9618       9617       9727       9728       9739       9738  
      9607       9608       9619       9618       9728       9729       9740       9739  
      9608       9609       9620       9619       9729       9730       9741       9740  
      9609       9610       9621       9620       9730       9731       9742       9741  
      9610       9611       9622       9621       9731       9732       9743       9742  
      9611       9612       9623       9622       9732       9733       9744       9743  
      9612       9613       9624       9623       9733       9734       9745       9744  
      9613       9614       9625       9624       9734       9735       9746       9745  
      9615       9616       9627       9626       9736       9737       9748       9747  
      9616       9617       9628       9627       9737       9738       9749       9748  
      9617       9618       9629       9628       9738       9739       9750       9749  
      9618       9619       9630       9629       9739       9740       9751       9750  
      9619       9620       9631       9630       9740       9741       9752       9751  
      9620       9621       9632       9631       9741       9742       9753       9752  
      9621       9622       9633       9632       9742       9743       9754       9753  
      9622       9623       9634       9633       9743       9744       9755       9754  
      9623       9624       9635       9634       9744       9745       9756       9755  
      9624       9625       9636       9635       9745       9746       9757       9756  
      9626       9627       9638       9637       9747       9748       9759       9758  
      9627       9628       9639       9638       9748       9749       9760       9759  
      9628       9629       9640       9639       9749       9750       9761       9760  
      9629       9630       9641       9640       9750       9751       9762       9761  
      9630       9631       9642       9641       9751       9752       9763       9762  
      9631       9632       9643       9642       9752       9753       9764       9763  
      9632       9633       9644       9643       9753       9754       9765       9764  
      9633       9634       9645       9644       9754       9755       9766       9765  
      9634       9635       9646       9645       9755       9756       9767       9766  
      9635       9636       9647       9646       9756       9757       9768       9767  
      9637       9638       9649       9648       9758       9759       9770       9769  
      9638       9639       9650       9649       9759       9760       9771       9770  
      9639       9640       9651       9650       9760       9761       9772       9771  
      9640       9641       9652       9651       9761       9762       9773       9772  
      9641       9642       9653       9652       9762       9763       9774       9773  
      9642       9643       9654       9653       9763       9764       9775       9774  
      9643       9644       9655       9654       9764       9765       9776       9775  
      9644       9645       9656       9655       9765       9766       9777       9776  
      9645       9646       9657       9656       9766       9767       9778       9777  
      9646       9647       9658       9657       9767       9768       9779       9778  
      9648       9649       9660       9659       9769       9770       9781       9780  
      9649       9650       9661       9660       9770       9771       9782       9781  
      9650       9651       9662       9661       9771       9772       9783       9782  
      9651       9652       9663       9662       9772       9773       9784       9783  
      9652       9653       9664       9663       9773       9774       9785       9784  
      9653       9654       9665       9664       9774       9775       9786       9785  
      9654       9655       9666       9665       9775       9776       9787       9786  
      9655       9656       9667       9666       9776       9777       9788       9787  
      9656       9657       9668       9667       9777       9778       9789       9788  
      9657       9658       9669       9668       9778       9779       9790       9789  
      9659       9660       9671       9670       9780       9781       9792       9791  
      9660       9661       9672       9671       9781       9782       9793       9792  
      9661       9662       9673       9672       9782       9783       9794       9793  
      9662       9663       9674       9673       9783       9784       9795       9794  
      9663       9664       9675       9674       9784       9785       9796       9795  
      9664       9665       9676       9675       9785       9786       9797       9796  
      9665       9666       9677       9676       9786       9787       9798       9797  
      9666       9667       9678       9677       9787       9788       9799       9798  
      9667       9668       9679       9678       9788       9789       9800       9799  
      9668       9669       9680       9679       9789       9790       9801       9800  
      9681       9682       9693       9692       9802       9803       9814       9813  
      9682       9683       9694       9693       9803       9804       9815       9814  
      9683       9684       9695       9694       9804       9805       9816       9815  
      9684       9685       9696       9695       9805       9806       9817       9816  
      9685       9686       9697       9696       9806       9807       9818       9817  
      9686       9687       9698       9697       9807       9808       9819       9818  
      9687       9688       9699       9698       9808       9809       9820       9819  
      9688       9689       9700       9699       9809       9810       9821       9820  
      9689       9690       9701       9700       9810       9811       9822       9821  
      9690       9691       9702       9701       9811       9812       9823       9822  
      9692       9693       9704       9703       9813       9814       9825       9824  
      9693       9694       9705       9704       9814       9815       9826       9825  
      9694       9695       9706       9705       9815       9816       9827       9826  
      9695       9696       9707       9706       9816       9817       9828       9827  
      9696       9697       9708       9707       9817       9818       9829       9828  
      9697       9698       9709       9708       9818       9819       9830       9829  
      9698       9699       9710       9709       9819       9820       9831       9830  
      9699       9700       9711       9710       9820       9821       9832       9831  
      9700       9701       9712       9711       9821       9822       9833       9832  
      9701       9702       9713       9712       9822       9823       9834       9833  
      9703       9704       9715       9714       9824       9825       9836       9835  
      9704       9705       9716       9715       9825       9826       9837       9836  
      9705       9706       9717       9716       9826       9827       9838       9837  
      9706       9707       9718       9717       9827       9828       9839       9838  
      9707       9708       9719       9718       9828       9829       9840       9839  
      9708       9709       9720       9719       9829       9830       9841       9840  
      9709       9710       9721       9720       9830       9831       9842       9841  
      9710       9711       9722       9721       9831       9832       9843       9842  
      9711       9712       9723       9722       9832       9833       9844       9843  
      9712       9713       9724       9723       9833       9834       9845       9844  
      9714       9715       9726       9725       9835       9836       9847       9846  
      9715       9716       9727       9726       9836       9837       9848       9847  
      9716       9717       9728       9727       9837       9838       9849       9848  
      9717       9718       9729       9728       9838       9839       9850       9849  
      9718       9719       9730       9729       9839       9840       9851       9850  
      9719       9720       9731       9730       9840       9841       9852       9851  
      9720       9721       9732       9731       9841       9842       9853       9852  
      9721       9722       9733       9732       9842       9843       9854       9853  
      9722       9723       9734       9733       9843       9844       9855       9854  
      9723       9724       9735       9734       9844       9845       9856       9855  
      9725       9726       9737       9736       9846       9847       9858       9857  
      9726       9727       9738       9737       9847       9848       9859       9858  
      9727       9728       9739       9738       9848       9849       9860       9859  
      9728       9729       9740       9739       9849       9850       9861       9860  
      9729       9730       9741       9740       9850       9851       9862       9861  
      9730       9731       9742       9741       9851       9852       9863       9862  
      9731       9732       9743       9742       9852       9853       9864       9863  
      9732       9733       9744       9743       9853       9854       9865       9864  
      9733       9734       9745       9744       9854       9855       9866       9865  
      9734       9735       9746       9745       9855       9856       9867       9866  
      9736       9737       9748       9747       9857       9858       9869       9868  
      9737       9738       9749       9748       9858       9859       9870       9869  
      9738       9739       9750       9749       9859       9860       9871       9870  
      9739       9740       9751       9750       9860       9861       9872       9871  
      9740       9741       9752       9751       9861       9862       9873       9872  
      9741       9742       9753       9752       9862       9863       9874       9873  
      9742       9743       9754       9753       9863       9864       9875       9874  
      9743       9744       9755       9754       9864       9865       9876       9875  
      9744       9745       9756       9755       9865       9866       9877       9876  
      9745       9746       9757       9756       9866       9867       9878       9877  
      9747       9748       9759       9758       9868       9869       9880       9879  
      9748       9749       9760       9759       9869       9870       9881       9880  
      9749       9750       9761       9760       9870       9871       9882       9881  
      9750       9751       9762       9761       9871       9872       9883       9882  
      9751       9752       9763       9762       9872       9873       9884       9883  
      9752       9753       9764       9763       9873       9874       9885       9884  
      9753       9754       9765       9764       9874       9875       9886       9885  
      9754       9755       9766       9765       9875       9876       9887       9886  
      9755       9756       9767       9766       9876       9877       9888       9887  
      9756       9757       9768       9767       9877       9878       9889       9888  
      9758       9759       9770       9769       9879       9880       9891       9890  
      9759       9760       9771       9770       9880       9881       9892       9891  
      9760       9761       9772       9771       9881       9882       9893       9892  
      9761       9762       9773       9772       9882       9883       9894       9893  
      9762       9763       9774       9773       9883       9884       9895       9894  
      9763       9764       9775       9774       9884       9885       9896       9895  
      9764       9765       9776       9775       9885       9886       9897       9896  
      9765       9766       9777       9776       9886       9887       9898       9897  
      9766       9767       9778       9777       9887       9888       9899       9898  
      9767       9768       9779       9778       9888       9889       9900       9899  
      9769       9770       9781       9780       9890       9891       9902       9901  
      9770       9771       9782       9781       9891       9892       9903       9902  
      9771       9772       9783       9782       9892       9893       9904       9903  
      9772       9773       9784       9783       9893       9894       9905       9904  
      9773       9774       9785       9784       9894       9895       9906       9905  
      9774       9775       9786       9785       9895       9896       9907       9906  
      9775       9776       9787       9786       9896       9897       9908       9907  
      9776       9777       9788       9787       9897       9898       9909       9908  
      9777       9778       9789       9788       9898       9899       9910       9909  
      9778       9779       9790       9789       9899       9900       9911       9910  
      9780       9781       9792       9791       9901       9902       9913       9912  
      9781       9782       9793       9792       9902       9903       9914       9913  
      9782       9783       9794       9793       9903       9904       9915       9914  
      9783       9784       9795       9794       9904       9905       9916       9915  
      9784       9785       9796       9795       9905       9906       9917       9916  
      9785       9786       9797       9796       9906       9907       9918       9917  
      9786       9787       9798       9797       9907       9908       9919       9918  
      9787       9788       9799       9798       9908       9909       9920       9919  
      9788       9789       9800       9799       9909       9910       9921       9920  
      9789       9790       9801       9800       9910       9911       9922       9921  
      9802       9803       9814       9813       9923       9924       9935       9934  
      9803       9804       9815       9814       9924       9925       9936       9935  
      9804       9805       9816       9815       9925       9926       9937       9936  
      9805       9806       9817       9816       9926       9927       9938       9937  
      9806       9807       9818       9817       9927       9928       9939       9938  
      9807       9808       9819       9818       9928       9929       9940       9939  
      9808       9809       9820       9819       9929       9930       9941       9940  
      9809       9810       9821       9820       9930       9931       9942       9941  
      9810       9811       9822       9821       9931       9932       9943       9942  
      9811       9812       9823       9822       9932       9933       9944       9943  
      9813       9814       9825       9824       9934       9935       9946       9945  
      9814       9815       9826       9825       9935       9936       9947       9946  
      9815       9816       9827       9826       9936       9937       9948       9947  
      9816       9817       9828       9827       9937       9938       9949       9948  
      9817       9818       9829       9828       9938       9939       9950       9949  
      9818       9819       9830       9829       9939       9940       9951       9950  
      9819       9820       9831       9830       9940       9941       9952       9951  
      9820       9821       9832       9831       9941       9942       9953       9952  
      9821       9822       9833       9832       9942       9943       9954       9953  
      9822       9823       9834       9833       9943       9944       9955       9954  
      9824       9825       9836       9835       9945       9946       9957       9956  
      9825       9826       9837       9836       9946       9947       9958       9957  
      9826       9827       9838       9837       9947       9948       9959       9958  
      9827       9828       9839       9838       9948       9949       9960       9959  
      9828       9829       9840       9839       9949       9950       9961       9960  
      9829       9830       9841       9840       9950       9951       9962       9961  
      9830       9831       9842       9841       9951       9952       9963       9962  
      9831       9832       9843       9842       9952       9953       9964       9963  
      9832       9833       9844       9843       9953       9954       9965       9964  
      9833       9834       9845       9844       9954       9955       9966       9965  
      9835       9836       9847       9846       9956       9957       9968       9967  
      9836       9837       9848       9847       9957       9958       9969       9968  
      9837       9838       9849       9848       9958       9959       9970       9969  
      9838       9839       9850       9849       9959       9960       9971       9970  
      9839       9840       9851       9850       9960       9961       9972       9971  
      9840       9841       9852       9851       9961       9962       9973       9972  
      9841       9842       9853       9852       9962       9963       9974       9973  
      9842       9843       9854       9853       9963       9964       9975       9974  
      9843       9844       9855       9854       9964       9965       9976       9975  
      9844       9845       9856       9855       9965       9966       9977       9976  
      9846       9847       9858       9857       9967       9968       9979       9978  
      9847       9848       9859       9858       9968       9969       9980       9979  
      9848       9849       9860       9859       9969       9970       9981       9980  
      9849       9850       9861       9860       9970       9971       9982       9981  
      9850       9851       9862       9861       9971       9972       9983       9982  
      9851       9852       9863       9862       9972       9973       9984       9983  
      9852       9853       9864       9863       9973       9974       9985       9984  
      9853       9854       9865       9864       9974       9975       9986       9985  
      9854       9855       9866       9865       9975       9976       9987       9986  
      9855       9856       9867       9866       9976       9977       9988       9987  
      9857       9858       9869       9868       9978       9979       9990       9989  
      9858       9859       9870       9869       9979       9980       9991       9990  
      9859       9860       9871       9870       9980       9981       9992       9991  
      9860       9861       9872       9871       9981       9982       9993       9992  
      9861       9862       9873       9872       9982       9983       9994       9993  
      9862       9863       9874       9873       9983       9984       9995       9994  
      9863       9864       9875       9874       9984       9985       9996       9995  
      9864       9865       9876       9875       9985       9986       9997       9996  
      9865       9866       9877       9876       9986       9987       9998       9997  
      9866       9867       9878       9877       9987       9988       9999       9998  
      9868       9869       9880       9879       9989       9990      10001      10000  
      9869       9870       9881       9880       9990       9991      10002      10001  
      9870       9871       9882       9881       9991       9992      10003      10002  
      9871       9872       9883       9882       9992       9993      10004      10003  
      9872       9873       9884       9883       9993       9994      10005      10004  
      9873       9874       9885       9884       9994       9995      10006      10005  
      9874       9875       9886       9885       9995       9996      10007      10006  
      9875       9876       9887       9886       9996       9997      10008      10007  
      9876       9877       9888       9887       9997       9998      10009      10008  
      9877       9878       9889       9888       9998       9999      10010      10009  
      9879       9880       9891       9890      10000      10001      10012      10011  
      9880       9881       9892       9891      10001      10002      10013      10012  
      9881       9882       9893       9892      10002      10003      10014      10013  
      9882       9883       9894       9893      10003      10004      10015      10014  
      9883       9884       9895       9894      10004      10005      10016      10015  
      9884       9885       9896       9895      10005      10006      10017      10016  
      9885       9886       9897       9896      10006      10007      10018      10017  
      9886       9887       9898       9897      10007      10008      10019      10018  
      9887       9888       9899       9898      10008      10009      10020      10019  
      9888       9889       9900       9899      10009      10010      10021      10020  
      9890       9891       9902       9901      10011      10012      10023      10022  
      9891       9892       9903       9902      10012      10013      10024      10023  
      9892       9893       9904       9903      10013      10014      10025      10024  
      9893       9894       9905       9904      10014      10015      10026      10025  
      9894       9895       9906       9905      10015      10016      10027      10026  
      9895       9896       9907       9906      10016      10017      10028      10027  
      9896       9897       9908       9907      10017      10018      10029      10028  
      9897       9898       9909       9908      10018      10019      10030      10029  
      9898       9899       9910       9909      10019      10020      10031      10030  
      9899       9900       9911       9910      10020      10021      10032      10031  
      9901       9902       9913       9912      10022      10023      10034      10033  
      9902       9903       9914       9913      10023      10024      10035      10034  
      9903       9904       9915       9914      10024      10025      10036      10035  
      9904       9905       9916       9915      10025      10026      10037      10036  
      9905       9906       9917       9916      10026      10027      10038      10037  
      9906       9907       9918       9917      10027      10028      10039      10038  
      9907       9908       9919       9918      10028      10029      10040      10039  
      9908       9909       9920       9919      10029      10030      10041      10040  
      9909       9910       9921       9920      10030      10031      10042      10041  
      9910       9911       9922       9921      10031      10032      10043      10042  
      9923       9924       9935       9934      10044      10045      10056      10055  
      9924       9925       9936       9935      10045      10046      10057      10056  
      9925       9926       9937       9936      10046      10047      10058      10057  
      9926       9927       9938       9937      10047      10048      10059      10058  
      9927       9928       9939       9938      10048      10049      10060      10059  
      9928       9929       9940       9939      10049      10050      10061      10060  
      9929       9930       9941       9940      10050      10051      10062      10061  
      9930       9931       9942       9941      10051      10052      10063      10062  
      9931       9932       9943       9942      10052      10053      10064      10063  
      9932       9933       9944       9943      10053      10054      10065      10064  
      9934       9935       9946       9945      10055      10056      10067      10066  
      9935       9936       9947       9946      10056      10057      10068      10067  
      9936       9937       9948       9947      10057      10058      10069      10068  
      9937       9938       9949       9948      10058      10059      10070      10069  
      9938       9939       9950       9949      10059      10060      10071      10070  
      9939       9940       9951       9950      10060      10061      10072      10071  
      9940       9941       9952       9951      10061      10062      10073      10072  
      9941       9942       9953       9952      10062      10063      10074      10073  
      9942       9943       9954       9953      10063      10064      10075      10074  
      9943       9944       9955       9954      10064      10065      10076      10075  
      9945       9946       9957       9956      10066      10067      10078      10077  
      9946       9947       9958       9957      10067      10068      10079      10078  
      9947       9948       9959       9958      10068      10069      10080      10079  
      9948       9949       9960       9959      10069      10070      10081      10080  
      9949       9950       9961       9960      10070      10071      10082      10081  
      9950       9951       9962       9961      10071      10072      10083      10082  
      9951       9952       9963       9962      10072      10073      10084      10083  
      9952       9953       9964       9963      10073      10074      10085      10084  
      9953       9954       9965       9964      10074      10075      10086      10085  
      9954       9955       9966       9965      10075      10076      10087      10086  
      9956       9957       9968       9967      10077      10078      10089      10088  
      9957       9958       9969       9968      10078      10079      10090      10089  
      9958       9959       9970       9969      10079      10080      10091      10090  
      9959       9960       9971       9970      10080      10081      10092      10091  
      9960       9961       9972       9971      10081      10082      10093      10092  
      9961       9962       9973       9972      10082      10083      10094      10093  
      9962       9963       9974       9973      10083      10084      10095      10094  
      9963       9964       9975       9974      10084      10085      10096      10095  
      9964       9965       9976       9975      10085      10086      10097      10096  
      9965       9966       9977       9976      10086      10087      10098      10097  
      9967       9968       9979       9978      10088      10089      10100      10099  
      9968       9969       9980       9979      10089      10090      10101      10100  
      9969       9970       9981       9980      10090      10091      10102      10101  
      9970       9971       9982       9981      10091      10092      10103      10102  
      9971       9972       9983       9982      10092      10093      10104      10103  
      9972       9973       9984       9983      10093      10094      10105      10104  
      9973       9974       9985       9984      10094      10095      10106      10105  
      9974       9975       9986       9985      10095      10096      10107      10106  
      9975       9976       9987       9986      10096      10097      10108      10107  
      9976       9977       9988       9987      10097      10098      10109      10108  
      9978       9979       9990       9989      10099      10100      10111      10110  
      9979       9980       9991       9990      10100      10101      10112      10111  
      9980       9981       9992       9991      10101      10102      10113      10112  
      9981       9982       9993       9992      10102      10103      10114      10113  
      9982       9983       9994       9993      10103      10104      10115      10114  
      9983       9984       9995       9994      10104      10105      10116      10115  
      9984       9985       9996       9995      10105      10106      10117      10116  
      9985       9986       9997       9996      10106      10107      10118      10117  
      9986       9987       9998       9997      10107      10108      10119      10118  
      9987       9988       9999       9998      10108      10109      10120      10119  
      9989       9990      10001      10000      10110      10111      10122      10121  
      9990       9991      10002      10001      10111      10112      10123      10122  
      9991       9992      10003      10002      10112      10113      10124      10123  
      9992       9993      10004      10003      10113      10114      10125      10124  
      9993       9994      10005      10004      10114      10115      10126      10125  
      9994       9995      10006      10005      10115      10116      10127      10126  
      9995       9996      10007      10006      10116      10117      10128      10127  
      9996       9997      10008      10007      10117      10118      10129      10128  
      9997       9998      10009      10008      10118      10119      10130      10129  
      9998       9999      10010      10009      10119      10120      10131      10130  
     10000      10001      10012      10011      10121      10122      10133      10132  
     10001      10002      10013      10012      10122      10123      10134      10133  
     10002      10003      10014      10013      10123      10124      10135      10134  
     10003      10004      10015      10014      10124      10125      10136      10135  
     10004      10005      10016      10015      10125      10126      10137      10136  
     10005      10006      10017      10016      10126      10127      10138      10137  
     10006      10007      10018      10017      10127      10128      10139      10138  
     10007      10008      10019      10018      10128      10129      10140      10139  
     10008      10009      10020      10019      10129      10130      10141      10140  
     10009      10010      10021      10020      10130      10131      10142      10141  
     10011      10012      10023      10022      10132      10133      10144      10143  
     10012      10013      10024      10023      10133      10134      10145      10144  
     10013      10014      10025      10024      10134      10135      10146      10145  
     10014      10015      10026      10025      10135      10136      10147      10146  
     10015      10016      10027      10026      10136      10137      10148      10147  
     10016      10017      10028      10027      10137      10138      10149      10148  
     10017      10018      10029      10028      10138      10139      10150      10149  
     10018      10019      10030      10029      10139      10140      10151      10150  
     10019      10020      10031      10030      10140      10141      10152      10151  
     10020      10021      10032      10031      10141      10142      10153      10152  
     10022      10023      10034      10033      10143      10144      10155      10154  
     10023      10024      10035      10034      10144      10145      10156      10155  
     10024      10025      10036      10035      10145      10146      10157      10156  
     10025      10026      10037      10036      10146      10147      10158      10157  
     10026      10027      10038      10037      10147      10148      10159      10158  
     10027      10028      10039      10038      10148      10149      10160      10159  
     10028      10029      10040      10039      10149      10150      10161      10160  
     10029      10030      10041      10040      10150      10151      10162      10161  
     10030      10031      10042      10041      10151      10152      10163      10162  
     10031      10032      10043      10042      10152      10153      10164      10163  
     10044      10045      10056      10055      10165      10166      10177      10176  
     10045      10046      10057      10056      10166      10167      10178      10177  
     10046      10047      10058      10057      10167      10168      10179      10178  
     10047      10048      10059      10058      10168      10169      10180      10179  
     10048      10049      10060      10059      10169      10170      10181      10180  
     10049      10050      10061      10060      10170      10171      10182      10181  
     10050      10051      10062      10061      10171      10172      10183      10182  
     10051      10052      10063      10062      10172      10173      10184      10183  
     10052      10053      10064      10063      10173      10174      10185      10184  
     10053      10054      10065      10064      10174      10175      10186      10185  
     10055      10056      10067      10066      10176      10177      10188      10187  
     10056      10057      10068      10067      10177      10178      10189      10188  
     10057      10058      10069      10068      10178      10179      10190      10189  
     10058      10059      10070      10069      10179      10180      10191      10190  
     10059      10060      10071      10070      10180      10181      10192      10191  
     10060      10061      10072      10071      10181      10182      10193      10192  
     10061      10062      10073      10072      10182      10183      10194      10193  
     10062      10063      10074      10073      10183      10184      10195      10194  
     10063      10064      10075      10074      10184      10185      10196      10195  
     10064      10065      10076      10075      10185      10186      10197      10196  
     10066      10067      10078      10077      10187      10188      10199      10198  
     10067      10068      10079      10078      10188      10189      10200      10199  
     10068      10069      10080      10079      10189      10190      10201      10200  
     10069      10070      10081      10080      10190      10191      10202      10201  
     10070      10071      10082      10081      10191      10192      10203      10202  
     10071      10072      10083      10082      10192      10193      10204      10203  
     10072      10073      10084      10083      10193      10194      10205      10204  
     10073      10074      10085      10084      10194      10195      10206      10205  
     10074      10075      10086      10085      10195      10196      10207      10206  
     10075      10076      10087      10086      10196      10197      10208      10207  
     10077      10078      10089      10088      10198      10199      10210      10209  
     10078      10079      10090      10089      10199      10200      10211      10210  
     10079      10080      10091      10090      10200      10201      10212      10211  
     10080      10081      10092      10091      10201      10202      10213      10212  
     10081      10082      10093      10092      10202      10203      10214      10213  
     10082      10083      10094      10093      10203      10204      10215      10214  
     10083      10084      10095      10094      10204      10205      10216      10215  
     10084      10085      10096      10095      10205      10206      10217      10216  
     10085      10086      10097      10096      10206      10207      10218      10217  
     10086      10087      10098      10097      10207      10208      10219      10218  
     10088      10089      10100      10099      10209      10210      10221      10220  
     10089      10090      10101      10100      10210      10211      10222      10221  
     10090      10091      10102      10101      10211      10212      10223      10222  
     10091      10092      10103      10102      10212      10213      10224      10223  
     10092      10093      10104      10103      10213      10214      10225      10224  
     10093      10094      10105      10104      10214      10215      10226      10225  
     10094      10095      10106      10105      10215      10216      10227      10226  
     10095      10096      10107      10106      10216      10217      10228      10227  
     10096      10097      10108      10107      10217      10218      10229      10228  
     10097      10098      10109      10108      10218      10219      10230      10229  
     10099      10100      10111      10110      10220      10221      10232      10231  
     10100      10101      10112      10111      10221      10222      10233      10232  
     10101      10102      10113      10112      10222      10223      10234      10233  
     10102      10103      10114      10113      10223      10224      10235      10234  
     10103      10104      10115      10114      10224      10225      10236      10235  
     10104      10105      10116      10115      10225      10226      10237      10236  
     10105      10106      10117      10116      10226      10227      10238      10237  
     10106      10107      10118      10117      10227      10228      10239      10238  
     10107      10108      10119      10118      10228      10229      10240      10239  
     10108      10109      10120      10119      10229      10230      10241      10240  
     10110      10111      10122      10121      10231      10232      10243      10242  
     10111      10112      10123      10122      10232      10233      10244      10243  
     10112      10113      10124      10123      10233      10234      10245      10244  
     10113      10114      10125      10124      10234      10235      10246      10245  
     10114      10115      10126      10125      10235      10236      10247      10246  
     10115      10116      10127      10126      10236      10237      10248      10247  
     10116      10117      10128      10127      10237      10238      10249      10248  
     10117      10118      10129      10128      10238      10239      10250      10249  
     10118      10119      10130      10129      10239      10240      10251      10250  
     10119      10120      10131      10130      10240      10241      10252      10251  
     10121      10122      10133      10132      10242      10243      10254      10253  
     10122      10123      10134      10133      10243      10244      10255      10254  
     10123      10124      10135      10134      10244      10245      10256      10255  
     10124      10125      10136      10135      10245      10246      10257      10256  
     10125      10126      10137      10136      10246      10247      10258      10257  
     10126      10127      10138      10137      10247      10248      10259      10258  
     10127      10128      10139      10138      10248      10249      10260      10259  
     10128      10129      10140      10139      10249      10250      10261      10260  
     10129      10130      10141      10140      10250      10251      10262      10261  
     10130      10131      10142      10141      10251      10252      10263      10262  
     10132      10133      10144      10143      10253      10254      10265      10264  
     10133      10134      10145      10144      10254      10255      10266      10265  
     10134      10135      10146      10145      10255      10256      10267      10266  
     10135      10136      10147      10146      10256      10257      10268      10267  
     10136      10137      10148      10147      10257      10258      10269      10268  
     10137      10138      10149      10148      10258      10259      10270      10269  
     10138      10139      10150      10149      10259      10260      10271      10270  
     10139      10140      10151      10150      10260      10261      10272      10271  
     10140      10141      10152      10151      10261      10262      10273      10272  
     10141      10142      10153      10152      10262      10263      10274      10273  
     10143      10144      10155      10154      10264      10265      10276      10275  
     10144      10145      10156      10155      10265      10266      10277      10276  
     10145      10146      10157      10156      10266      10267      10278      10277  
     10146      10147      10158      10157      10267      10268      10279      10278  
     10147      10148      10159      10158      10268      10269      10280      10279  
     10148      10149      10160      10159      10269      10270      10281      10280  
     10149      10150      10161      10160      10270      10271      10282      10281  
     10150      10151      10162      10161      10271      10272      10283      10282  
     10151      10152      10163      10162      10272      10273      10284      10283  
     10152      10153      10164      10163      10273      10274      10285      10284  
     10165      10166      10177      10176      10286      10287      10298      10297  
     10166      10167      10178      10177      10287      10288      10299      10298  
     10167      10168      10179      10178      10288      10289      10300      10299  
     10168      10169      10180      10179      10289      10290      10301      10300  
     10169      10170      10181      10180      10290      10291      10302      10301  
     10170      10171      10182      10181      10291      10292      10303      10302  
     10171      10172      10183      10182      10292      10293      10304      10303  
     10172      10173      10184      10183      10293      10294      10305      10304  
     10173      10174      10185      10184      10294      10295      10306      10305  
     10174      10175      10186      10185      10295      10296      10307      10306  
     10176      10177      10188      10187      10297      10298      10309      10308  
     10177      10178      10189      10188      10298      10299      10310      10309  
     10178      10179      10190      10189      10299      10300      10311      10310  
     10179      10180      10191      10190      10300      10301      10312      10311  
     10180      10181      10192      10191      10301      10302      10313      10312  
     10181      10182      10193      10192      10302      10303      10314      10313  
     10182      10183      10194      10193      10303      10304      10315      10314  
     10183      10184      10195      10194      10304      10305      10316      10315  
     10184      10185      10196      10195      10305      10306      10317      10316  
     10185      10186      10197      10196      10306      10307      10318      10317  
     10187      10188      10199      10198      10308      10309      10320      10319  
     10188      10189      10200      10199      10309      10310      10321      10320  
     10189      10190      10201      10200      10310      10311      10322      10321  
     10190      10191      10202      10201      10311      10312      10323      10322  
     10191      10192      10203      10202      10312      10313      10324      10323  
     10192      10193      10204      10203      10313      10314      10325      10324  
     10193      10194      10205      10204      10314      10315      10326      10325  
     10194      10195      10206      10205      10315      10316      10327      10326  
     10195      10196      10207      10206      10316      10317      10328      10327  
     10196      10197      10208      10207      10317      10318      10329      10328  
     10198      10199      10210      10209      10319      10320      10331      10330  
     10199      10200      10211      10210      10320      10321      10332      10331  
     10200      10201      10212      10211      10321      10322      10333      10332  
     10201      10202      10213      10212      10322      10323      10334      10333  
     10202      10203      10214      10213      10323      10324      10335      10334  
     10203      10204      10215      10214      10324      10325      10336      10335  
     10204      10205      10216      10215      10325      10326      10337      10336  
     10205      10206      10217      10216      10326      10327      10338      10337  
     10206      10207      10218      10217      10327      10328      10339      10338  
     10207      10208      10219      10218      10328      10329      10340      10339  
     10209      10210      10221      10220      10330      10331      10342      10341  
     10210      10211      10222      10221      10331      10332      10343      10342  
     10211      10212      10223      10222      10332      10333      10344      10343  
     10212      10213      10224      10223      10333      10334      10345      10344  
     10213      10214      10225      10224      10334      10335      10346      10345  
     10214      10215      10226      10225      10335      10336      10347      10346  
     10215      10216      10227      10226      10336      10337      10348      10347  
     10216      10217      10228      10227      10337      10338      10349      10348  
     10217      10218      10229      10228      10338      10339      10350      10349  
     10218      10219      10230      10229      10339      10340      10351      10350  
     10220      10221      10232      10231      10341      10342      10353      10352  
     10221      10222      10233      10232      10342      10343      10354      10353  
     10222      10223      10234      10233      10343      10344      10355      10354  
     10223      10224      10235      10234      10344      10345      10356      10355  
     10224      10225      10236      10235      10345      10346      10357      10356  
     10225      10226      10237      10236      10346      10347      10358      10357  
     10226      10227      10238      10237      10347      10348      10359      10358  
     10227      10228      10239      10238      10348      10349      10360      10359  
     10228      10229      10240      10239      10349      10350      10361      10360  
     10229      10230      10241      10240      10350      10351      10362      10361  
     10231      10232      10243      10242      10352      10353      10364      10363  
     10232      10233      10244      10243      10353      10354      10365      10364  
     10233      10234      10245      10244      10354      10355      10366      10365  
     10234      10235      10246      10245      10355      10356      10367      10366  
     10235      10236      10247      10246      10356      10357      10368      10367  
     10236      10237      10248      10247      10357      10358      10369      10368  
     10237      10238      10249      10248      10358      10359      10370      10369  
     10238      10239      10250      10249      10359      10360      10371      10370  
     10239      10240      10251      10250      10360      10361      10372      10371  
     10240      10241      10252      10251      10361      10362      10373      10372  
     10242      10243      10254      10253      10363      10364      10375      10374  
     10243      10244      10255      10254      10364      10365      10376      10375  
     10244      10245      10256      10255      10365      10366      10377      10376  
     10245      10246      10257      10256      10366      10367      10378      10377  
     10246      10247      10258      10257      10367      10368      10379      10378  
     10247      10248      10259      10258      10368      10369      10380      10379  
     10248      10249      10260      10259      10369      10370      10381      10380  
     10249      10250      10261      10260      10370      10371      10382      10381  
     10250      10251      10262      10261      10371      10372      10383      10382  
     10251      10252      10263      10262      10372      10373      10384      10383  
     10253      10254      10265      10264      10374      10375      10386      10385  
     10254      10255      10266      10265      10375      10376      10387      10386  
     10255      10256      10267      10266      10376      10377      10388      10387  
     10256      10257      10268      10267      10377      10378      10389      10388  
     10257      10258      10269      10268      10378      10379      10390      10389  
     10258      10259      10270      10269      10379      10380      10391      10390  
     10259      10260      10271      10270      10380      10381      10392      10391  
     10260      10261      10272      10271      10381      10382      10393      10392  
     10261      10262      10273      10272      10382      10383      10394      10393  
     10262      10263      10274      10273      10383      10384      10395      10394  
     10264      10265      10276      10275      10385      10386      10397      10396  
     10265      10266      10277      10276      10386      10387      10398      10397  
     10266      10267      10278      10277      10387      10388      10399      10398  
     10267      10268      10279      10278      10388      10389      10400      10399  
     10268      10269      10280      10279      10389      10390      10401      10400  
     10269      10270      10281      10280      10390      10391      10402      10401  
     10270      10271      10282      10281      10391      10392      10403      10402  
     10271      10272      10283      10282      10392      10393      10404      10403  
     10272      10273      10284      10283      10393      10394      10405      10404  
     10273      10274      10285      10284      10394      10395      10406      10405  
     10286      10287      10298      10297      10407      10408      10419      10418  
     10287      10288      10299      10298      10408      10409      10420      10419  
     10288      10289      10300      10299      10409      10410      10421      10420  
     10289      10290      10301      10300      10410      10411      10422      10421  
     10290      10291      10302      10301      10411      10412      10423      10422  
     10291      10292      10303      10302      10412      10413      10424      10423  
     10292      10293      10304      10303      10413      10414      10425      10424  
     10293      10294      10305      10304      10414      10415      10426      10425  
     10294      10295      10306      10305      10415      10416      10427      10426  
     10295      10296      10307      10306      10416      10417      10428      10427  
     10297      10298      10309      10308      10418      10419      10430      10429  
     10298      10299      10310      10309      10419      10420      10431      10430  
     10299      10300      10311      10310      10420      10421      10432      10431  
     10300      10301      10312      10311      10421      10422      10433      10432  
     10301      10302      10313      10312      10422      10423      10434      10433  
     10302      10303      10314      10313      10423      10424      10435      10434  
     10303      10304      10315      10314      10424      10425      10436      10435  
     10304      10305      10316      10315      10425      10426      10437      10436  
     10305      10306      10317      10316      10426      10427      10438      10437  
     10306      10307      10318      10317      10427      10428      10439      10438  
     10308      10309      10320      10319      10429      10430      10441      10440  
     10309      10310      10321      10320      10430      10431      10442      10441  
     10310      10311      10322      10321      10431      10432      10443      10442  
     10311      10312      10323      10322      10432      10433      10444      10443  
     10312      10313      10324      10323      10433      10434      10445      10444  
     10313      10314      10325      10324      10434      10435      10446      10445  
     10314      10315      10326      10325      10435      10436      10447      10446  
     10315      10316      10327      10326      10436      10437      10448      10447  
     10316      10317      10328      10327      10437      10438      10449      10448  
     10317      10318      10329      10328      10438      10439      10450      10449  
     10319      10320      10331      10330      10440      10441      10452      10451  
     10320      10321      10332      10331      10441      10442      10453      10452  
     10321      10322      10333      10332      10442      10443      10454      10453  
     10322      10323      10334      10333      10443      10444      10455      10454  
     10323      10324      10335      10334      10444      10445      10456      10455  
     10324      10325      10336      10335      10445      10446      10457      10456  
     10325      10326      10337      10336      10446      10447      10458      10457  
     10326      10327      10338      10337      10447      10448      10459      10458  
     10327      10328      10339      10338      10448      10449      10460      10459  
     10328      10329      10340      10339      10449      10450      10461      10460  
     10330      10331      10342      10341      10451      10452      10463      10462  
     10331      10332      10343      10342      10452      10453      10464      10463  
     10332      10333      10344      10343      10453      10454      10465      10464  
     10333      10334      10345      10344      10454      10455      10466      10465  
     10334      10335      10346      10345      10455      10456      10467      10466  
     10335      10336      10347      10346      10456      10457      10468      10467  
     10336      10337      10348      10347      10457      10458      10469      10468  
     10337      10338      10349      10348      10458      10459      10470      10469  
     10338      10339      10350      10349      10459      10460      10471      10470  
     10339      10340      10351      10350      10460      10461      10472      10471  
     10341      10342      10353      10352      10462      10463      10474      10473  
     10342      10343      10354      10353      10463      10464      10475      10474  
     10343      10344      10355      10354      10464      10465      10476      10475  
     10344      10345      10356      10355      10465      10466      10477      10476  
     10345      10346      10357      10356      10466      10467      10478      10477  
     10346      10347      10358      10357      10467      10468      10479      10478  
     10347      10348      10359      10358      10468      10469      10480      10479  
     10348      10349      10360      10359      10469      10470      10481      10480  
     10349      10350      10361      10360      10470      10471      10482      10481  
     10350      10351      10362      10361      10471      10472      10483      10482  
     10352      10353      10364      10363      10473      10474      10485      10484  
     10353      10354      10365      10364      10474      10475      10486      10485  
     10354      10355      10366      10365      10475      10476      10487      10486  
     10355      10356      10367      10366      10476      10477      10488      10487  
     10356      10357      10368      10367      10477      10478      10489      10488  
     10357      10358      10369      10368      10478      10479      10490      10489  
     10358      10359      10370      10369      10479      10480      10491      10490  
     10359      10360      10371      10370      10480      10481      10492      10491  
     10360      10361      10372      10371      10481      10482      10493      10492  
     10361      10362      10373      10372      10482      10483      10494      10493  
     10363      10364      10375      10374      10484      10485      10496      10495  
     10364      10365      10376      10375      10485      10486      10497      10496  
     10365      10366      10377      10376      10486      10487      10498      10497  
     10366      10367      10378      10377      10487      10488      10499      10498  
     10367      10368      10379      10378      10488      10489      10500      10499  
     10368      10369      10380      10379      10489      10490      10501      10500  
     10369      10370      10381      10380      10490      10491      10502      10501  
     10370      10371      10382      10381      10491      10492      10503      10502  
     10371      10372      10383      10382      10492      10493      10504      10503  
     10372      10373      10384      10383      10493      10494      10505      10504  
     10374      10375      10386      10385      10495      10496      10507      10506  
     10375      10376      10387      10386      10496      10497      10508      10507  
     10376      10377      10388      10387      10497      10498      10509      10508  
     10377      10378      10389      10388      10498      10499      10510      10509  
     10378      10379      10390      10389      10499      10500      10511      10510  
     10379      10380      10391      10390      10500      10501      10512      10511  
     10380      10381      10392      10391      10501      10502      10513      10512  
     10381      10382      10393      10392      10502      10503      10514      10513  
     10382      10383      10394      10393      10503      10504      10515      10514  
     10383      10384      10395      10394      10504      10505      10516      10515  
     10385      10386      10397      10396      10506      10507      10518      10517  
     10386      10387      10398      10397      10507      10508      10519      10518  
     10387      10388      10399      10398      10508      10509      10520      10519  
     10388      10389      10400      10399      10509      10510      10521      10520  
     10389      10390      10401      10400      10510      10511      10522      10521  
     10390      10391      10402      10401      10511      10512      10523      10522  
     10391      10392      10403      10402      10512      10513      10524      10523  
     10392      10393      10404      10403      10513      10514      10525      10524  
     10393      10394      10405      10404      10514      10515      10526      10525  
     10394      10395      10406      10405      10515      10516      10527      10526  
     10407      10408      10419      10418      10528      10529      10540      10539  
     10408      10409      10420      10419      10529      10530      10541      10540  
     10409      10410      10421      10420      10530      10531      10542      10541  
     10410      10411      10422      10421      10531      10532      10543      10542  
     10411      10412      10423      10422      10532      10533      10544      10543  
     10412      10413      10424      10423      10533      10534      10545      10544  
     10413      10414      10425      10424      10534      10535      10546      10545  
     10414      10415      10426      10425      10535      10536      10547      10546  
     10415      10416      10427      10426      10536      10537      10548      10547  
     10416      10417      10428      10427      10537      10538      10549      10548  
     10418      10419      10430      10429      10539      10540      10551      10550  
     10419      10420      10431      10430      10540      10541      10552      10551  
     10420      10421      10432      10431      10541      10542      10553      10552  
     10421      10422      10433      10432      10542      10543      10554      10553  
     10422      10423      10434      10433      10543      10544      10555      10554  
     10423      10424      10435      10434      10544      10545      10556      10555  
     10424      10425      10436      10435      10545      10546      10557      10556  
     10425      10426      10437      10436      10546      10547      10558      10557  
     10426      10427      10438      10437      10547      10548      10559      10558  
     10427      10428      10439      10438      10548      10549      10560      10559  
     10429      10430      10441      10440      10550      10551      10562      10561  
     10430      10431      10442      10441      10551      10552      10563      10562  
     10431      10432      10443      10442      10552      10553      10564      10563  
     10432      10433      10444      10443      10553      10554      10565      10564  
     10433      10434      10445      10444      10554      10555      10566      10565  
     10434      10435      10446      10445      10555      10556      10567      10566  
     10435      10436      10447      10446      10556      10557      10568      10567  
     10436      10437      10448      10447      10557      10558      10569      10568  
     10437      10438      10449      10448      10558      10559      10570      10569  
     10438      10439      10450      10449      10559      10560      10571      10570  
     10440      10441      10452      10451      10561      10562      10573      10572  
     10441      10442      10453      10452      10562      10563      10574      10573  
     10442      10443      10454      10453      10563      10564      10575      10574  
     10443      10444      10455      10454      10564      10565      10576      10575  
     10444      10445      10456      10455      10565      10566      10577      10576  
     10445      10446      10457      10456      10566      10567      10578      10577  
     10446      10447      10458      10457      10567      10568      10579      10578  
     10447      10448      10459      10458      10568      10569      10580      10579  
     10448      10449      10460      10459      10569      10570      10581      10580  
     10449      10450      10461      10460      10570      10571      10582      10581  
     10451      10452      10463      10462      10572      10573      10584      10583  
     10452      10453      10464      10463      10573      10574      10585      10584  
     10453      10454      10465      10464      10574      10575      10586      10585  
     10454      10455      10466      10465      10575      10576      10587      10586  
     10455      10456      10467      10466      10576      10577      10588      10587  
     10456      10457      10468      10467      10577      10578      10589      10588  
     10457      10458      10469      10468      10578      10579      10590      10589  
     10458      10459      10470      10469      10579      10580      10591      10590  
     10459      10460      10471      10470      10580      10581      10592      10591  
     10460      10461      10472      10471      10581      10582      10593      10592  
     10462      10463      10474      10473      10583      10584      10595      10594  
     10463      10464      10475      10474      10584      10585      10596      10595  
     10464      10465      10476      10475      10585      10586      10597      10596  
     10465      10466      10477      10476      10586      10587      10598      10597  
     10466      10467      10478      10477      10587      10588      10599      10598  
     10467      10468      10479      10478      10588      10589      10600      10599  
     10468      10469      10480      10479      10589      10590      10601      10600  
     10469      10470      10481      10480      10590      10591      10602      10601  
     10470      10471      10482      10481      10591      10592      10603      10602  
     10471      10472      10483      10482      10592      10593      10604      10603  
     10473      10474      10485      10484      10594      10595      10606      10605  
     10474      10475      10486      10485      10595      10596      10607      10606  
     10475      10476      10487      10486      10596      10597      10608      10607  
     10476      10477      10488      10487      10597      10598      10609      10608  
     10477      10478      10489      10488      10598      10599      10610      10609  
     10478      10479      10490      10489      10599      10600      10611      10610  
     10479      10480      10491      10490      10600      10601      10612      10611  
     10480      10481      10492      10491      10601      10602      10613      10612  
     10481      10482      10493      10492      10602      10603      10614      10613  
     10482      10483      10494      10493      10603      10604      10615      10614  
     10484      10485      10496      10495      10605      10606      10617      10616  
     10485      10486      10497      10496      10606      10607      10618      10617  
     10486      10487      10498      10497      10607      10608      10619      10618  
     10487      10488      10499      10498      10608      10609      10620      10619  
     10488      10489      10500      10499      10609      10610      10621      10620  
     10489      10490      10501      10500      10610      10611      10622      10621  
     10490      10491      10502      10501      10611      10612      10623      10622  
     10491      10492      10503      10502      10612      10613      10624      10623  
     10492      10493      10504      10503      10613      10614      10625      10624  
     10493      10494      10505      10504      10614      10615      10626      10625  
     10495      10496      10507      10506      10616      10617      10628      10627  
     10496      10497      10508      10507      10617      10618      10629      10628  
     10497      10498      10509      10508      10618      10619      10630      10629  
     10498      10499      10510      10509      10619      10620      10631      10630  
     10499      10500      10511      10510      10620      10621      10632      10631  
     10500      10501      10512      10511      10621      10622      10633      10632  
     10501      10502      10513      10512      10622      10623      10634      10633  
     10502      10503      10514      10513      10623      10624      10635      10634  
     10503      10504      10515      10514      10624      10625      10636      10635  
     10504      10505      10516      10515      10625      10626      10637      10636  
     10506      10507      10518      10517      10627      10628      10639      10638  
     10507      10508      10519      10518      10628      10629      10640      10639  
     10508      10509      10520      10519      10629      10630      10641      10640  
     10509      10510      10521      10520      10630      10631      10642      10641  
     10510      10511      10522      10521      10631      10632      10643      10642  
     10511      10512      10523      10522      10632      10633      10644      10643  
     10512      10513      10524      10523      10633      10634      10645      10644  
     10513      10514      10525      10524      10634      10635      10646      10645  
     10514      10515      10526      10525      10635      10636      10647      10646  
     10515      10516      10527      10526      10636      10637      10648      10647  
     10528      10529      10540      10539      10649      10650      10661      10660  
     10529      10530      10541      10540      10650      10651      10662      10661  
     10530      10531      10542      10541      10651      10652      10663      10662  
     10531      10532      10543      10542      10652      10653      10664      10663  
     10532      10533      10544      10543      10653      10654      10665      10664  
     10533      10534      10545      10544      10654      10655      10666      10665  
     10534      10535      10546      10545      10655      10656      10667      10666  
     10535      10536      10547      10546      10656      10657      10668      10667  
     10536      10537      10548      10547      10657      10658      10669      10668  
     10537      10538      10549      10548      10658      10659      10670      10669  
     10539      10540      10551      10550      10660      10661      10672      10671  
     10540      10541      10552      10551      10661      10662      10673      10672  
     10541      10542      10553      10552      10662      10663      10674      10673  
     10542      10543      10554      10553      10663      10664      10675      10674  
     10543      10544      10555      10554      10664      10665      10676      10675  
     10544      10545      10556      10555      10665      10666      10677      10676  
     10545      10546      10557      10556      10666      10667      10678      10677  
     10546      10547      10558      10557      10667      10668      10679      10678  
     10547      10548      10559      10558      10668      10669      10680      10679  
     10548      10549      10560      10559      10669      10670      10681      10680  
     10550      10551      10562      10561      10671      10672      10683      10682  
     10551      10552      10563      10562      10672      10673      10684      10683  
     10552      10553      10564      10563      10673      10674      10685      10684  
     10553      10554      10565      10564      10674      10675      10686      10685  
     10554      10555      10566      10565      10675      10676      10687      10686  
     10555      10556      10567      10566      10676      10677      10688      10687  
     10556      10557      10568      10567      10677      10678      10689      10688  
     10557      10558      10569      10568      10678      10679      10690      10689  
     10558      10559      10570      10569      10679      10680      10691      10690  
     10559      10560      10571      10570      10680      10681      10692      10691  
     10561      10562      10573      10572      10682      10683      10694      10693  
     10562      10563      10574      10573      10683      10684      10695      10694  
     10563      10564      10575      10574      10684      10685      10696      10695  
     10564      10565      10576      10575      10685      10686      10697      10696  
     10565      10566      10577      10576      10686      10687      10698      10697  
     10566      10567      10578      10577      10687      10688      10699      10698  
     10567      10568      10579      10578      10688      10689      10700      10699  
     10568      10569      10580      10579      10689      10690      10701      10700  
     10569      10570      10581      10580      10690      10691      10702      10701  
     10570      10571      10582      10581      10691      10692      10703      10702  
     10572      10573      10584      10583      10693      10694      10705      10704  
     10573      10574      10585      10584      10694      10695      10706      10705  
     10574      10575      10586      10585      10695      10696      10707      10706  
     10575      10576      10587      10586      10696      10697      10708      10707  
     10576      10577      10588      10587      10697      10698      10709      10708  
     10577      10578      10589      10588      10698      10699      10710      10709  
     10578      10579      10590      10589      10699      10700      10711      10710  
     10579      10580      10591      10590      10700      10701      10712      10711  
     10580      10581      10592      10591      10701      10702      10713      10712  
     10581      10582      10593      10592      10702      10703      10714      10713  
     10583      10584      10595      10594      10704      10705      10716      10715  
     10584      10585      10596      10595      10705      10706      10717      10716  
     10585      10586      10597      10596      10706      10707      10718      10717  
     10586      10587      10598      10597      10707      10708      10719      10718  
     10587      10588      10599      10598      10708      10709      10720      10719  
     10588      10589      10600      10599      10709      10710      10721      10720  
     10589      10590      10601      10600      10710      10711      10722      10721  
     10590      10591      10602      10601      10711      10712      10723      10722  
     10591      10592      10603      10602      10712      10713      10724      10723  
     10592      10593      10604      10603      10713      10714      10725      10724  
     10594      10595      10606      10605      10715      10716      10727      10726  
     10595      10596      10607      10606      10716      10717      10728      10727  
     10596      10597      10608      10607      10717      10718      10729      10728  
     10597      10598      10609      10608      10718      10719      10730      10729  
     10598      10599      10610      10609      10719      10720      10731      10730  
     10599      10600      10611      10610      10720      10721      10732      10731  
     10600      10601      10612      10611      10721      10722      10733      10732  
     10601      10602      10613      10612      10722      10723      10734      10733  
     10602      10603      10614      10613      10723      10724      10735      10734  
     10603      10604      10615      10614      10724      10725      10736      10735  
     10605      10606      10617      10616      10726      10727      10738      10737  
     10606      10607      10618      10617      10727      10728      10739      10738  
     10607      10608      10619      10618      10728      10729      10740      10739  
     10608      10609      10620      10619      10729      10730      10741      10740  
     10609      10610      10621      10620      10730      10731      10742      10741  
     10610      10611      10622      10621      10731      10732      10743      10742  
     10611      10612      10623      10622      10732      10733      10744      10743  
     10612      10613      10624      10623      10733      10734      10745      10744  
     10613      10614      10625      10624      10734      10735      10746      10745  
     10614      10615      10626      10625      10735      10736      10747      10746  
     10616      10617      10628      10627      10737      10738      10749      10748  
     10617      10618      10629      10628      10738      10739      10750      10749  
     10618      10619      10630      10629      10739      10740      10751      10750  
     10619      10620      10631      10630      10740      10741      10752      10751  
     10620      10621      10632      10631      10741      10742      10753      10752  
     10621      10622      10633      10632      10742      10743      10754      10753  
     10622      10623      10634      10633      10743      10744      10755      10754  
     10623      10624      10635      10634      10744      10745      10756      10755  
     10624      10625      10636      10635      10745      10746      10757      10756  
     10625      10626      10637      10636      10746      10747      10758      10757  
     10627      10628      10639      10638      10748      10749      10760      10759  
     10628      10629      10640      10639      10749      10750      10761      10760  
     10629      10630      10641      10640      10750      10751      10762      10761  
     10630      10631      10642      10641      10751      10752      10763      10762  
     10631      10632      10643      10642      10752      10753      10764      10763  
     10632      10633      10644      10643      10753      10754      10765      10764  
     10633      10634      10645      10644      10754      10755      10766      10765  
     10634      10635      10646      10645      10755      10756      10767      10766  
     10635      10636      10647      10646      10756      10757      10768      10767  
     10636      10637      10648      10647      10757      10758      10769      10768  
     10649      10650      10661      10660      10770      10771      10782      10781  
     10650      10651      10662      10661      10771      10772      10783      10782  
     10651      10652      10663      10662      10772      10773      10784      10783  
     10652      10653      10664      10663      10773      10774      10785      10784  
     10653      10654      10665      10664      10774      10775      10786      10785  
     10654      10655      10666      10665      10775      10776      10787      10786  
     10655      10656      10667      10666      10776      10777      10788      10787  
     10656      10657      10668      10667      10777      10778      10789      10788  
     10657      10658      10669      10668      10778      10779      10790      10789  
     10658      10659      10670      10669      10779      10780      10791      10790  
     10660      10661      10672      10671      10781      10782      10793      10792  
     10661      10662      10673      10672      10782      10783      10794      10793  
     10662      10663      10674      10673      10783      10784      10795      10794  
     10663      10664      10675      10674      10784      10785      10796      10795  
     10664      10665      10676      10675      10785      10786      10797      10796  
     10665      10666      10677      10676      10786      10787      10798      10797  
     10666      10667      10678      10677      10787      10788      10799      10798  
     10667      10668      10679      10678      10788      10789      10800      10799  
     10668      10669      10680      10679      10789      10790      10801      10800  
     10669      10670      10681      10680      10790      10791      10802      10801  
     10671      10672      10683      10682      10792      10793      10804      10803  
     10672      10673      10684      10683      10793      10794      10805      10804  
     10673      10674      10685      10684      10794      10795      10806      10805  
     10674      10675      10686      10685      10795      10796      10807      10806  
     10675      10676      10687      10686      10796      10797      10808      10807  
     10676      10677      10688      10687      10797      10798      10809      10808  
     10677      10678      10689      10688      10798      10799      10810      10809  
     10678      10679      10690      10689      10799      10800      10811      10810  
     10679      10680      10691      10690      10800      10801      10812      10811  
     10680      10681      10692      10691      10801      10802      10813      10812  
     10682      10683      10694      10693      10803      10804      10815      10814  
     10683      10684      10695      10694      10804      10805      10816      10815  
     10684      10685      10696      10695      10805      10806      10817      10816  
     10685      10686      10697      10696      10806      10807      10818      10817  
     10686      10687      10698      10697      10807      10808      10819      10818  
     10687      10688      10699      10698      10808      10809      10820      10819  
     10688      10689      10700      10699      10809      10810      10821      10820  
     10689      10690      10701      10700      10810      10811      10822      10821  
     10690      10691      10702      10701      10811      10812      10823      10822  
     10691      10692      10703      10702      10812      10813      10824      10823  
     10693      10694      10705      10704      10814      10815      10826      10825  
     10694      10695      10706      10705      10815      10816      10827      10826  
     10695      10696      10707      10706      10816      10817      10828      10827  
     10696      10697      10708      10707      10817      10818      10829      10828  
     10697      10698      10709      10708      10818      10819      10830      10829  
     10698      10699      10710      10709      10819      10820      10831      10830  
     10699      10700      10711      10710      10820      10821      10832      10831  
     10700      10701      10712      10711      10821      10822      10833      10832  
     10701      10702      10713      10712      10822      10823      10834      10833  
     10702      10703      10714      10713      10823      10824      10835      10834  
     10704      10705      10716      10715      10825      10826      10837      10836  
     10705      10706      10717      10716      10826      10827      10838      10837  
     10706      10707      10718      10717      10827      10828      10839      10838  
     10707      10708      10719      10718      10828      10829      10840      10839  
     10708      10709      10720      10719      10829      10830      10841      10840  
     10709      10710      10721      10720      10830      10831      10842      10841  
     10710      10711      10722      10721      10831      10832      10843      10842  
     10711      10712      10723      10722      10832      10833      10844      10843  
     10712      10713      10724      10723      10833      10834      10845      10844  
     10713      10714      10725      10724      10834      10835      10846      10845  
     10715      10716      10727      10726      10836      10837      10848      10847  
     10716      10717      10728      10727      10837      10838      10849      10848  
     10717      10718      10729      10728      10838      10839      10850      10849  
     10718      10719      10730      10729      10839      10840      10851      10850  
     10719      10720      10731      10730      10840      10841      10852      10851  
     10720      10721      10732      10731      10841      10842      10853      10852  
     10721      10722      10733      10732      10842      10843      10854      10853  
     10722      10723      10734      10733      10843      10844      10855      10854  
     10723      10724      10735      10734      10844      10845      10856      10855  
     10724      10725      10736      10735      10845      10846      10857      10856  
     10726      10727      10738      10737      10847      10848      10859      10858  
     10727      10728      10739      10738      10848      10849      10860      10859  
     10728      10729      10740      10739      10849      10850      10861      10860  
     10729      10730      10741      10740      10850      10851      10862      10861  
     10730      10731      10742      10741      10851      10852      10863      10862  
     10731      10732      10743      10742      10852      10853      10864      10863  
     10732      10733      10744      10743      10853      10854      10865      10864  
     10733      10734      10745      10744      10854      10855      10866      10865  
     10734      10735      10746      10745      10855      10856      10867      10866  
     10735      10736      10747      10746      10856      10857      10868      10867  
     10737      10738      10749      10748      10858      10859      10870      10869  
     10738      10739      10750      10749      10859      10860      10871      10870  
     10739      10740      10751      10750      10860      10861      10872      10871  
     10740      10741      10752      10751      10861      10862      10873      10872  
     10741      10742      10753      10752      10862      10863      10874      10873  
     10742      10743      10754      10753      10863      10864      10875      10874  
     10743      10744      10755      10754      10864      10865      10876      10875  
     10744      10745      10756      10755      10865      10866      10877      10876  
     10745      10746      10757      10756      10866      10867      10878      10877  
     10746      10747      10758      10757      10867      10868      10879      10878  
     10748      10749      10760      10759      10869      10870      10881      10880  
     10749      10750      10761      10760      10870      10871      10882      10881  
     10750      10751      10762      10761      10871      10872      10883      10882  
     10751      10752      10763      10762      10872      10873      10884      10883  
     10752      10753      10764      10763      10873      10874      10885      10884  
     10753      10754      10765      10764      10874      10875      10886      10885  
     10754      10755      10766      10765      10875      10876      10887      10886  
     10755      10756      10767      10766      10876      10877      10888      10887  
     10756      10757      10768      10767      10877      10878      10889      10888  
     10757      10758      10769      10768      10878      10879      10890      10889  
     10770      10771      10782      10781      10891      10892      10903      10902  
     10771      10772      10783      10782      10892      10893      10904      10903  
     10772      10773      10784      10783      10893      10894      10905      10904  
     10773      10774      10785      10784      10894      10895      10906      10905  
     10774      10775      10786      10785      10895      10896      10907      10906  
     10775      10776      10787      10786      10896      10897      10908      10907  
     10776      10777      10788      10787      10897      10898      10909      10908  
     10777      10778      10789      10788      10898      10899      10910      10909  
     10778      10779      10790      10789      10899      10900      10911      10910  
     10779      10780      10791      10790      10900      10901      10912      10911  
     10781      10782      10793      10792      10902      10903      10914      10913  
     10782      10783      10794      10793      10903      10904      10915      10914  
     10783      10784      10795      10794      10904      10905      10916      10915  
     10784      10785      10796      10795      10905      10906      10917      10916  
     10785      10786      10797      10796      10906      10907      10918      10917  
     10786      10787      10798      10797      10907      10908      10919      10918  
     10787      10788      10799      10798      10908      10909      10920      10919  
     10788      10789      10800      10799      10909      10910      10921      10920  
     10789      10790      10801      10800      10910      10911      10922      10921  
     10790      10791      10802      10801      10911      10912      10923      10922  
     10792      10793      10804      10803      10913      10914      10925      10924  
     10793      10794      10805      10804      10914      10915      10926      10925  
     10794      10795      10806      10805      10915      10916      10927      10926  
     10795      10796      10807      10806      10916      10917      10928      10927  
     10796      10797      10808      10807      10917      10918      10929      10928  
     10797      10798      10809      10808      10918      10919      10930      10929  
     10798      10799      10810      10809      10919      10920      10931      10930  
     10799      10800      10811      10810      10920      10921      10932      10931  
     10800      10801      10812      10811      10921      10922      10933      10932  
     10801      10802      10813      10812      10922      10923      10934      10933  
     10803      10804      10815      10814      10924      10925      10936      10935  
     10804      10805      10816      10815      10925      10926      10937      10936  
     10805      10806      10817      10816      10926      10927      10938      10937  
     10806      10807      10818      10817      10927      10928      10939      10938  
     10807      10808      10819      10818      10928      10929      10940      10939  
     10808      10809      10820      10819      10929      10930      10941      10940  
     10809      10810      10821      10820      10930      10931      10942      10941  
     10810      10811      10822      10821      10931      10932      10943      10942  
     10811      10812      10823      10822      10932      10933      10944      10943  
     10812      10813      10824      10823      10933      10934      10945      10944  
     10814      10815      10826      10825      10935      10936      10947      10946  
     10815      10816      10827      10826      10936      10937      10948      10947  
     10816      10817      10828      10827      10937      10938      10949      10948  
     10817      10818      10829      10828      10938      10939      10950      10949  
     10818      10819      10830      10829      10939      10940      10951      10950  
     10819      10820      10831      10830      10940      10941      10952      10951  
     10820      10821      10832      10831      10941      10942      10953      10952  
     10821      10822      10833      10832      10942      10943      10954      10953  
     10822      10823      10834      10833      10943      10944      10955      10954  
     10823      10824      10835      10834      10944      10945      10956      10955  
     10825      10826      10837      10836      10946      10947      10958      10957  
     10826      10827      10838      10837      10947      10948      10959      10958  
     10827      10828      10839      10838      10948      10949      10960      10959  
     10828      10829      10840      10839      10949      10950      10961      10960  
     10829      10830      10841      10840      10950      10951      10962      10961  
     10830      10831      10842      10841      10951      10952      10963      10962  
     10831      10832      10843      10842      10952      10953      10964      10963  
     10832      10833      10844      10843      10953      10954      10965      10964  
     10833      10834      10845      10844      10954      10955      10966      10965  
     10834      10835      10846      10845      10955      10956      10967      10966  
     10836      10837      10848      10847      10957      10958      10969      10968  
     10837      10838      10849      10848      10958      10959      10970      10969  
     10838      10839      10850      10849      10959      10960      10971      10970  
     10839      10840      10851      10850      10960      10961      10972      10971  
     10840      10841      10852      10851      10961      10962      10973      10972  
     10841      10842      10853      10852      10962      10963      10974      10973  
     10842      10843      10854      10853      10963      10964      10975      10974  
     10843      10844      10855      10854      10964      10965      10976      10975  
     10844      10845      10856      10855      10965      10966      10977      10976  
     10845      10846      10857      10856      10966      10967      10978      10977  
     10847      10848      10859      10858      10968      10969      10980      10979  
     10848      10849      10860      10859      10969      10970      10981      10980  
     10849      10850      10861      10860      10970      10971      10982      10981  
     10850      10851      10862      10861      10971      10972      10983      10982  
     10851      10852      10863      10862      10972      10973      10984      10983  
     10852      10853      10864      10863      10973      10974      10985      10984  
     10853      10854      10865      10864      10974      10975      10986      10985  
     10854      10855      10866      10865      10975      10976      10987      10986  
     10855      10856      10867      10866      10976      10977      10988      10987  
     10856      10857      10868      10867      10977      10978      10989      10988  
     10858      10859      10870      10869      10979      10980      10991      10990  
     10859      10860      10871      10870      10980      10981      10992      10991  
     10860      10861      10872      10871      10981      10982      10993      10992  
     10861      10862      10873      10872      10982      10983      10994      10993  
     10862      10863      10874      10873      10983      10984      10995      10994  
     10863      10864      10875      10874      10984      10985      10996      10995  
     10864      10865      10876      10875      10985      10986      10997      10996  
     10865      10866      10877      10876      10986      10987      10998      10997  
     10866      10867      10878      10877      10987      10988      10999      10998  
     10867      10868      10879      10878      10988      10989      11000      10999  
     10869      10870      10881      10880      10990      10991      11002      11001  
     10870      10871      10882      10881      10991      10992      11003      11002  
     10871      10872      10883      10882      10992      10993      11004      11003  
     10872      10873      10884      10883      10993      10994      11005      11004  
     10873      10874      10885      10884      10994      10995      11006      11005  
     10874      10875      10886      10885      10995      10996      11007      11006  
     10875      10876      10887      10886      10996      10997      11008      11007  
     10876      10877      10888      10887      10997      10998      11009      11008  
     10877      10878      10889      10888      10998      10999      11010      11009  
     10878      10879      10890      10889      10999      11000      11011      11010  
     10891      10892      10903      10902      11012      11013      11024      11023  
     10892      10893      10904      10903      11013      11014      11025      11024  
     10893      10894      10905      10904      11014      11015      11026      11025  
     10894      10895      10906      10905      11015      11016      11027      11026  
     10895      10896      10907      10906      11016      11017      11028      11027  
     10896      10897      10908      10907      11017      11018      11029      11028  
     10897      10898      10909      10908      11018      11019      11030      11029  
     10898      10899      10910      10909      11019      11020      11031      11030  
     10899      10900      10911      10910      11020      11021      11032      11031  
     10900      10901      10912      10911      11021      11022      11033      11032  
     10902      10903      10914      10913      11023      11024      11035      11034  
     10903      10904      10915      10914      11024      11025      11036      11035  
     10904      10905      10916      10915      11025      11026      11037      11036  
     10905      10906      10917      10916      11026      11027      11038      11037  
     10906      10907      10918      10917      11027      11028      11039      11038  
     10907      10908      10919      10918      11028      11029      11040      11039  
     10908      10909      10920      10919      11029      11030      11041      11040  
     10909      10910      10921      10920      11030      11031      11042      11041  
     10910      10911      10922      10921      11031      11032      11043      11042  
     10911      10912      10923      10922      11032      11033      11044      11043  
     10913      10914      10925      10924      11034      11035      11046      11045  
     10914      10915      10926      10925      11035      11036      11047      11046  
     10915      10916      10927      10926      11036      11037      11048      11047  
     10916      10917      10928      10927      11037      11038      11049      11048  
     10917      10918      10929      10928      11038      11039      11050      11049  
     10918      10919      10930      10929      11039      11040      11051      11050  
     10919      10920      10931      10930      11040      11041      11052      11051  
     10920      10921      10932      10931      11041      11042      11053      11052  
     10921      10922      10933      10932      11042      11043      11054      11053  
     10922      10923      10934      10933      11043      11044      11055      11054  
     10924      10925      10936      10935      11045      11046      11057      11056  
     10925      10926      10937      10936      11046      11047      11058      11057  
     10926      10927      10938      10937      11047      11048      11059      11058  
     10927      10928      10939      10938      11048      11049      11060      11059  
     10928      10929      10940      10939      11049      11050      11061      11060  
     10929      10930      10941      10940      11050      11051      11062      11061  
     10930      10931      10942      10941      11051      11052      11063      11062  
     10931      10932      10943      10942      11052      11053      11064      11063  
     10932      10933      10944      10943      11053      11054      11065      11064  
     10933      10934      10945      10944      11054      11055      11066      11065  
     10935      10936      10947      10946      11056      11057      11068      11067  
     10936      10937      10948      10947      11057      11058      11069      11068  
     10937      10938      10949      10948      11058      11059      11070      11069  
     10938      10939      10950      10949      11059      11060      11071      11070  
     10939      10940      10951      10950      11060      11061      11072      11071  
     10940      10941      10952      10951      11061      11062      11073      11072  
     10941      10942      10953      10952      11062      11063      11074      11073  
     10942      10943      10954      10953      11063      11064      11075      11074  
     10943      10944      10955      10954      11064      11065      11076      11075  
     10944      10945      10956      10955      11065      11066      11077      11076  
     10946      10947      10958      10957      11067      11068      11079      11078  
     10947      10948      10959      10958      11068      11069      11080      11079  
     10948      10949      10960      10959      11069      11070      11081      11080  
     10949      10950      10961      10960      11070      11071      11082      11081  
     10950      10951      10962      10961      11071      11072      11083      11082  
     10951      10952      10963      10962      11072      11073      11084      11083  
     10952      10953      10964      10963      11073      11074      11085      11084  
     10953      10954      10965      10964      11074      11075      11086      11085  
     10954      10955      10966      10965      11075      11076      11087      11086  
     10955      10956      10967      10966      11076      11077      11088      11087  
     10957      10958      10969      10968      11078      11079      11090      11089  
     10958      10959      10970      10969      11079      11080      11091      11090  
     10959      10960      10971      10970      11080      11081      11092      11091  
     10960      10961      10972      10971      11081      11082      11093      11092  
     10961      10962      10973      10972      11082      11083      11094      11093  
     10962      10963      10974      10973      11083      11084      11095      11094  
     10963      10964      10975      10974      11084      11085      11096      11095  
     10964      10965      10976      10975      11085      11086      11097      11096  
     10965      10966      10977      10976      11086      11087      11098      11097  
     10966      10967      10978      10977      11087      11088      11099      11098  
     10968      10969      10980      10979      11089      11090      11101      11100  
     10969      10970      10981      10980      11090      11091      11102      11101  
     10970      10971      10982      10981      11091      11092      11103      11102  
     10971      10972      10983      10982      11092      11093      11104      11103  
     10972      10973      10984      10983      11093      11094      11105      11104  
     10973      10974      10985      10984      11094      11095      11106      11105  
     10974      10975      10986      10985      11095      11096      11107      11106  
     10975      10976      10987      10986      11096      11097      11108      11107  
     10976      10977      10988      10987      11097      11098      11109      11108  
     10977      10978      10989      10988      11098      11099      11110      11109  
     10979      10980      10991      10990      11100      11101      11112      11111  
     10980      10981      10992      10991      11101      11102      11113      11112  
     10981      10982      10993      10992      11102      11103      11114      11113  
     10982      10983      10994      10993      11103      11104      11115      11114  
     10983      10984      10995      10994      11104      11105      11116      11115  
     10984      10985      10996      10995      11105      11106      11117      11116  
     10985      10986      10997      10996      11106      11107      11118      11117  
     10986      10987      10998      10997      11107      11108      11119      11118  
     10987      10988      10999      10998      11108      11109      11120      11119  
     10988      10989      11000      10999      11109      11110      11121      11120  
     10990      10991      11002      11001      11111      11112      11123      11122  
     10991      10992      11003      11002      11112      11113      11124      11123  
     10992      10993      11004      11003      11113      11114      11125      11124  
     10993      10994      11005      11004      11114      11115      11126      11125  
     10994      10995      11006      11005      11115      11116      11127      11126  
     10995      10996      11007      11006      11116      11117      11128      11127  
     10996      10997      11008      11007      11117      11118      11129      11128  
     10997      10998      11009      11008      11118      11119      11130      11129  
     10998      10999      11010      11009      11119      11120      11131      11130  
     10999      11000      11011      11010      11120      11121      11132      11131  
     11012      11013      11024      11023      11133      11134      11145      11144  
     11013      11014      11025      11024      11134      11135      11146      11145  
     11014      11015      11026      11025      11135      11136      11147      11146  
     11015      11016      11027      11026      11136      11137      11148      11147  
     11016      11017      11028      11027      11137      11138      11149      11148  
     11017      11018      11029      11028      11138      11139      11150      11149  
     11018      11019      11030      11029      11139      11140      11151      11150  
     11019      11020      11031      11030      11140      11141      11152      11151  
     11020      11021      11032      11031      11141      11142      11153      11152  
     11021      11022      11033      11032      11142      11143      11154      11153  
     11023      11024      11035      11034      11144      11145      11156      11155  
     11024      11025      11036      11035      11145      11146      11157      11156  
     11025      11026      11037      11036      11146      11147      11158      11157  
     11026      11027      11038      11037      11147      11148      11159      11158  
     11027      11028      11039      11038      11148      11149      11160      11159  
     11028      11029      11040      11039      11149      11150      11161      11160  
     11029      11030      11041      11040      11150      11151      11162      11161  
     11030      11031      11042      11041      11151      11152      11163      11162  
     11031      11032      11043      11042      11152      11153      11164      11163  
     11032      11033      11044      11043      11153      11154      11165      11164  
     11034      11035      11046      11045      11155      11156      11167      11166  
     11035      11036      11047      11046      11156      11157      11168      11167  
     11036      11037      11048      11047      11157      11158      11169      11168  
     11037      11038      11049      11048      11158      11159      11170      11169  
     11038      11039      11050      11049      11159      11160      11171      11170  
     11039      11040      11051      11050      11160      11161      11172      11171  
     11040      11041      11052      11051      11161      11162      11173      11172  
     11041      11042      11053      11052      11162      11163      11174      11173  
     11042      11043      11054      11053      11163      11164      11175      11174  
     11043      11044      11055      11054      11164      11165      11176      11175  
     11045      11046      11057      11056      11166      11167      11178      11177  
     11046      11047      11058      11057      11167      11168      11179      11178  
     11047      11048      11059      11058      11168      11169      11180      11179  
     11048      11049      11060      11059      11169      11170      11181      11180  
     11049      11050      11061      11060      11170      11171      11182      11181  
     11050      11051      11062      11061      11171      11172      11183      11182  
     11051      11052      11063      11062      11172      11173      11184      11183  
     11052      11053      11064      11063      11173      11174      11185      11184  
     11053      11054      11065      11064      11174      11175      11186      11185  
     11054      11055      11066      11065      11175      11176      11187      11186  
     11056      11057      11068      11067      11177      11178      11189      11188  
     11057      11058      11069      11068      11178      11179      11190      11189  
     11058      11059      11070      11069      11179      11180      11191      11190  
     11059      11060      11071      11070      11180      11181      11192      11191  
     11060      11061      11072      11071      11181      11182      11193      11192  
     11061      11062      11073      11072      11182      11183      11194      11193  
     11062      11063      11074      11073      11183      11184      11195      11194  
     11063      11064      11075      11074      11184      11185      11196      11195  
     11064      11065      11076      11075      11185      11186      11197      11196  
     11065      11066      11077      11076      11186      11187      11198      11197  
     11067      11068      11079      11078      11188      11189      11200      11199  
     11068      11069      11080      11079      11189      11190      11201      11200  
     11069      11070      11081      11080      11190      11191      11202      11201  
     11070      11071      11082      11081      11191      11192      11203      11202  
     11071      11072      11083      11082      11192      11193      11204      11203  
     11072      11073      11084      11083      11193      11194      11205      11204  
     11073      11074      11085      11084      11194      11195      11206      11205  
     11074      11075      11086      11085      11195      11196      11207      11206  
     11075      11076      11087      11086      11196      11197      11208      11207  
     11076      11077      11088      11087      11197      11198      11209      11208  
     11078      11079      11090      11089      11199      11200      11211      11210  
     11079      11080      11091      11090      11200      11201      11212      11211  
     11080      11081      11092      11091      11201      11202      11213      11212  
     11081      11082      11093      11092      11202      11203      11214      11213  
     11082      11083      11094      11093      11203      11204      11215      11214  
     11083      11084      11095      11094      11204      11205      11216      11215  
     11084      11085      11096      11095      11205      11206      11217      11216  
     11085      11086      11097      11096      11206      11207      11218      11217  
     11086      11087      11098      11097      11207      11208      11219      11218  
     11087      11088      11099      11098      11208      11209      11220      11219  
     11089      11090      11101      11100      11210      11211      11222      11221  
     11090      11091      11102      11101      11211      11212      11223      11222  
     11091      11092      11103      11102      11212      11213      11224      11223  
     11092      11093      11104      11103      11213      11214      11225      11224  
     11093      11094      11105      11104      11214      11215      11226      11225  
     11094      11095      11106      11105      11215      11216      11227      11226  
     11095      11096      11107      11106      11216      11217      11228      11227  
     11096      11097      11108      11107      11217      11218      11229      11228  
     11097      11098      11109      11108      11218      11219      11230      11229  
     11098      11099      11110      11109      11219      11220      11231      11230  
     11100      11101      11112      11111      11221      11222      11233      11232  
     11101      11102      11113      11112      11222      11223      11234      11233  
     11102      11103      11114      11113      11223      11224      11235      11234  
     11103      11104      11115      11114      11224      11225      11236      11235  
     11104      11105      11116      11115      11225      11226      11237      11236  
     11105      11106      11117      11116      11226      11227      11238      11237  
     11106      11107      11118      11117      11227      11228      11239      11238  
     11107      11108      11119      11118      11228      11229      11240      11239  
     11108      11109      11120      11119      11229      11230      11241      11240  
     11109      11110      11121      11120      11230      11231      11242      11241  
     11111      11112      11123      11122      11232      11233      11244      11243  
     11112      11113      11124      11123      11233      11234      11245      11244  
     11113      11114      11125      11124      11234      11235      11246      11245  
     11114      11115      11126      11125      11235      11236      11247      11246  
     11115      11116      11127      11126      11236      11237      11248      11247  
     11116      11117      11128      11127      11237      11238      11249      11248  
     11117      11118      11129      11128      11238      11239      11250      11249  
     11118      11119      11130      11129      11239      11240      11251      11250  
     11119      11120      11131      11130      11240      11241      11252      11251  
     11120      11121      11132      11131      11241      11242      11253      11252  
     11133      11134      11145      11144      11254      11255      11266      11265  
     11134      11135      11146      11145      11255      11256      11267      11266  
     11135      11136      11147      11146      11256      11257      11268      11267  
     11136      11137      11148      11147      11257      11258      11269      11268  
     11137      11138      11149      11148      11258      11259      11270      11269  
     11138      11139      11150      11149      11259      11260      11271      11270  
     11139      11140      11151      11150      11260      11261      11272      11271  
     11140      11141      11152      11151      11261      11262      11273      11272  
     11141      11142      11153      11152      11262      11263      11274      11273  
     11142      11143      11154      11153      11263      11264      11275      11274  
     11144      11145      11156      11155      11265      11266      11277      11276  
     11145      11146      11157      11156      11266      11267      11278      11277  
     11146      11147      11158      11157      11267      11268      11279      11278  
     11147      11148      11159      11158      11268      11269      11280      11279  
     11148      11149      11160      11159      11269      11270      11281      11280  
     11149      11150      11161      11160      11270      11271      11282      11281  
     11150      11151      11162      11161      11271      11272      11283      11282  
     11151      11152      11163      11162      11272      11273      11284      11283  
     11152      11153      11164      11163      11273      11274      11285      11284  
     11153      11154      11165      11164      11274      11275      11286      11285  
     11155      11156      11167      11166      11276      11277      11288      11287  
     11156      11157      11168      11167      11277      11278      11289      11288  
     11157      11158      11169      11168      11278      11279      11290      11289  
     11158      11159      11170      11169      11279      11280      11291      11290  
     11159      11160      11171      11170      11280      11281      11292      11291  
     11160      11161      11172      11171      11281      11282      11293      11292  
     11161      11162      11173      11172      11282      11283      11294      11293  
     11162      11163      11174      11173      11283      11284      11295      11294  
     11163      11164      11175      11174      11284      11285      11296      11295  
     11164      11165      11176      11175      11285      11286      11297      11296  
     11166      11167      11178      11177      11287      11288      11299      11298  
     11167      11168      11179      11178      11288      11289      11300      11299  
     11168      11169      11180      11179      11289      11290      11301      11300  
     11169      11170      11181      11180      11290      11291      11302      11301  
     11170      11171      11182      11181      11291      11292      11303      11302  
     11171      11172      11183      11182      11292      11293      11304      11303  
     11172      11173      11184      11183      11293      11294      11305      11304  
     11173      11174      11185      11184      11294      11295      11306      11305  
     11174      11175      11186      11185      11295      11296      11307      11306  
     11175      11176      11187      11186      11296      11297      11308      11307  
     11177      11178      11189      11188      11298      11299      11310      11309  
     11178      11179      11190      11189      11299      11300      11311      11310  
     11179      11180      11191      11190      11300      11301      11312      11311  
     11180      11181      11192      11191      11301      11302      11313      11312  
     11181      11182      11193      11192      11302      11303      11314      11313  
     11182      11183      11194      11193      11303      11304      11315      11314  
     11183      11184      11195      11194      11304      11305      11316      11315  
     11184      11185      11196      11195      11305      11306      11317      11316  
     11185      11186      11197      11196      11306      11307      11318      11317  
     11186      11187      11198      11197      11307      11308      11319      11318  
     11188      11189      11200      11199      11309      11310      11321      11320  
     11189      11190      11201      11200      11310      11311      11322      11321  
     11190      11191      11202      11201      11311      11312      11323      11322  
     11191      11192      11203      11202      11312      11313      11324      11323  
     11192      11193      11204      11203      11313      11314      11325      11324  
     11193      11194      11205      11204      11314      11315      11326      11325  
     11194      11195      11206      11205      11315      11316      11327      11326  
     11195      11196      11207      11206      11316      11317      11328      11327  
     11196      11197      11208      11207      11317      11318      11329      11328  
     11197      11198      11209      11208      11318      11319      11330      11329  
     11199      11200      11211      11210      11320      11321      11332      11331  
     11200      11201      11212      11211      11321      11322      11333      11332  
     11201      11202      11213      11212      11322      11323      11334      11333  
     11202      11203      11214      11213      11323      11324      11335      11334  
     11203      11204      11215      11214      11324      11325      11336      11335  
     11204      11205      11216      11215      11325      11326      11337      11336  
     11205      11206      11217      11216      11326      11327      11338      11337  
     11206      11207      11218      11217      11327      11328      11339      11338  
     11207      11208      11219      11218      11328      11329      11340      11339  
     11208      11209      11220      11219      11329      11330      11341      11340  
     11210      11211      11222      11221      11331      11332      11343      11342  
     11211      11212      11223      11222      11332      11333      11344      11343  
     11212      11213      11224      11223      11333      11334      11345      11344  
     11213      11214      11225      11224      11334      11335      11346      11345  
     11214      11215      11226      11225      11335      11336      11347      11346  
     11215      11216      11227      11226      11336      11337      11348      11347  
     11216      11217      11228      11227      11337      11338      11349      11348  
     11217      11218      11229      11228      11338      11339      11350      11349  
     11218      11219      11230      11229      11339      11340      11351      11350  
     11219      11220      11231      11230      11340      11341      11352      11351  
     11221      11222      11233      11232      11342      11343      11354      11353  
     11222      11223      11234      11233      11343      11344      11355      11354  
     11223      11224      11235      11234      11344      11345      11356      11355  
     11224      11225      11236      11235      11345      11346      11357      11356  
     11225      11226      11237      11236      11346      11347      11358      11357  
     11226      11227      11238      11237      11347      11348      11359      11358  
     11227      11228      11239      11238      11348      11349      11360      11359  
     11228      11229      11240      11239      11349      11350      11361      11360  
     11229      11230      11241      11240      11350      11351      11362      11361  
     11230      11231      11242      11241      11351      11352      11363      11362  
     11232      11233      11244      11243      11353      11354      11365      11364  
     11233      11234      11245      11244      11354      11355      11366      11365  
     11234      11235      11246      11245      11355      11356      11367      11366  
     11235      11236      11247      11246      11356      11357      11368      11367  
     11236      11237      11248      11247      11357      11358      11369      11368  
     11237      11238      11249      11248      11358      11359      11370      11369  
     11238      11239      11250      11249      11359      11360      11371      11370  
     11239      11240      11251      11250      11360      11361      11372      11371  
     11240      11241      11252      11251      11361      11362      11373      11372  
     11241      11242      11253      11252      11362      11363      11374      11373  
     11254      11255      11266      11265      11375      11376      11387      11386  
     11255      11256      11267      11266      11376      11377      11388      11387  
     11256      11257      11268      11267      11377      11378      11389      11388  
     11257      11258      11269      11268      11378      11379      11390      11389  
     11258      11259      11270      11269      11379      11380      11391      11390  
     11259      11260      11271      11270      11380      11381      11392      11391  
     11260      11261      11272      11271      11381      11382      11393      11392  
     11261      11262      11273      11272      11382      11383      11394      11393  
     11262      11263      11274      11273      11383      11384      11395      11394  
     11263      11264      11275      11274      11384      11385      11396      11395  
     11265      11266      11277      11276      11386      11387      11398      11397  
     11266      11267      11278      11277      11387      11388      11399      11398  
     11267      11268      11279      11278      11388      11389      11400      11399  
     11268      11269      11280      11279      11389      11390      11401      11400  
     11269      11270      11281      11280      11390      11391      11402      11401  
     11270      11271      11282      11281      11391      11392      11403      11402  
     11271      11272      11283      11282      11392      11393      11404      11403  
     11272      11273      11284      11283      11393      11394      11405      11404  
     11273      11274      11285      11284      11394      11395      11406      11405  
     11274      11275      11286      11285      11395      11396      11407      11406  
     11276      11277      11288      11287      11397      11398      11409      11408  
     11277      11278      11289      11288      11398      11399      11410      11409  
     11278      11279      11290      11289      11399      11400      11411      11410  
     11279      11280      11291      11290      11400      11401      11412      11411  
     11280      11281      11292      11291      11401      11402      11413      11412  
     11281      11282      11293      11292      11402      11403      11414      11413  
     11282      11283      11294      11293      11403      11404      11415      11414  
     11283      11284      11295      11294      11404      11405      11416      11415  
     11284      11285      11296      11295      11405      11406      11417      11416  
     11285      11286      11297      11296      11406      11407      11418      11417  
     11287      11288      11299      11298      11408      11409      11420      11419  
     11288      11289      11300      11299      11409      11410      11421      11420  
     11289      11290      11301      11300      11410      11411      11422      11421  
     11290      11291      11302      11301      11411      11412      11423      11422  
     11291      11292      11303      11302      11412      11413      11424      11423  
     11292      11293      11304      11303      11413      11414      11425      11424  
     11293      11294      11305      11304      11414      11415      11426      11425  
     11294      11295      11306      11305      11415      11416      11427      11426  
     11295      11296      11307      11306      11416      11417      11428      11427  
     11296      11297      11308      11307      11417      11418      11429      11428  
     11298      11299      11310      11309      11419      11420      11431      11430  
     11299      11300      11311      11310      11420      11421      11432      11431  
     11300      11301      11312      11311      11421      11422      11433      11432  
     11301      11302      11313      11312      11422      11423      11434      11433  
     11302      11303      11314      11313      11423      11424      11435      11434  
     11303      11304      11315      11314      11424      11425      11436      11435  
     11304      11305      11316      11315      11425      11426      11437      11436  
     11305      11306      11317      11316      11426      11427      11438      11437  
     11306      11307      11318      11317      11427      11428      11439      11438  
     11307      11308      11319      11318      11428      11429      11440      11439  
     11309      11310      11321      11320      11430      11431      11442      11441  
     11310      11311      11322      11321      11431      11432      11443      11442  
     11311      11312      11323      11322      11432      11433      11444      11443  
     11312      11313      11324      11323      11433      11434      11445      11444  
     11313      11314      11325      11324      11434      11435      11446      11445  
     11314      11315      11326      11325      11435      11436      11447      11446  
     11315      11316      11327      11326      11436      11437      11448      11447  
     11316      11317      11328      11327      11437      11438      11449      11448  
     11317      11318      11329      11328      11438      11439      11450      11449  
     11318      11319      11330      11329      11439      11440      11451      11450  
     11320      11321      11332      11331      11441      11442      11453      11452  
     11321      11322      11333      11332      11442      11443      11454      11453  
     11322      11323      11334      11333      11443      11444      11455      11454  
     11323      11324      11335      11334      11444      11445      11456      11455  
     11324      11325      11336      11335      11445      11446      11457      11456  
     11325      11326      11337      11336      11446      11447      11458      11457  
     11326      11327      11338      11337      11447      11448      11459      11458  
     11327      11328      11339      11338      11448      11449      11460      11459  
     11328      11329      11340      11339      11449      11450      11461      11460  
     11329      11330      11341      11340      11450      11451      11462      11461  
     11331      11332      11343      11342      11452      11453      11464      11463  
     11332      11333      11344      11343      11453      11454      11465      11464  
     11333      11334      11345      11344      11454      11455      11466      11465  
     11334      11335      11346      11345      11455      11456      11467      11466  
     11335      11336      11347      11346      11456      11457      11468      11467  
     11336      11337      11348      11347      11457      11458      11469      11468  
     11337      11338      11349      11348      11458      11459      11470      11469  
     11338      11339      11350      11349      11459      11460      11471      11470  
     11339      11340      11351      11350      11460      11461      11472      11471  
     11340      11341      11352      11351      11461      11462      11473      11472  
     11342      11343      11354      11353      11463      11464      11475      11474  
     11343      11344      11355      11354      11464      11465      11476      11475  
     11344      11345      11356      11355      11465      11466      11477      11476  
     11345      11346      11357      11356      11466      11467      11478      11477  
     11346      11347      11358      11357      11467      11468      11479      11478  
     11347      11348      11359      11358      11468      11469      11480      11479  
     11348      11349      11360      11359      11469      11470      11481      11480  
     11349      11350      11361      11360      11470      11471      11482      11481  
     11350      11351      11362      11361      11471      11472      11483      11482  
     11351      11352      11363      11362      11472      11473      11484      11483  
     11353      11354      11365      11364      11474      11475      11486      11485  
     11354      11355      11366      11365      11475      11476      11487      11486  
     11355      11356      11367      11366      11476      11477      11488      11487  
     11356      11357      11368      11367      11477      11478      11489      11488  
     11357      11358      11369      11368      11478      11479      11490      11489  
     11358      11359      11370      11369      11479      11480      11491      11490  
     11359      11360      11371      11370      11480      11481      11492      11491  
     11360      11361      11372      11371      11481      11482      11493      11492  
     11361      11362      11373      11372      11482      11483      11494      11493  
     11362      11363      11374      11373      11483      11484      11495      11494  
     11375      11376      11387      11386      11496      11497      11508      11507  
     11376      11377      11388      11387      11497      11498      11509      11508  
     11377      11378      11389      11388      11498      11499      11510      11509  
     11378      11379      11390      11389      11499      11500      11511      11510  
     11379      11380      11391      11390      11500      11501      11512      11511  
     11380      11381      11392      11391      11501      11502      11513      11512  
     11381      11382      11393      11392      11502      11503      11514      11513  
     11382      11383      11394      11393      11503      11504      11515      11514  
     11383      11384      11395      11394      11504      11505      11516      11515  
     11384      11385      11396      11395      11505      11506      11517      11516  
     11386      11387      11398      11397      11507      11508      11519      11518  
     11387      11388      11399      11398      11508      11509      11520      11519  
     11388      11389      11400      11399      11509      11510      11521      11520  
     11389      11390      11401      11400      11510      11511      11522      11521  
     11390      11391      11402      11401      11511      11512      11523      11522  
     11391      11392      11403      11402      11512      11513      11524      11523  
     11392      11393      11404      11403      11513      11514      11525      11524  
     11393      11394      11405      11404      11514      11515      11526      11525  
     11394      11395      11406      11405      11515      11516      11527      11526  
     11395      11396      11407      11406      11516      11517      11528      11527  
     11397      11398      11409      11408      11518      11519      11530      11529  
     11398      11399      11410      11409      11519      11520      11531      11530  
     11399      11400      11411      11410      11520      11521      11532      11531  
     11400      11401      11412      11411      11521      11522      11533      11532  
     11401      11402      11413      11412      11522      11523      11534      11533  
     11402      11403      11414      11413      11523      11524      11535      11534  
     11403      11404      11415      11414      11524      11525      11536      11535  
     11404      11405      11416      11415      11525      11526      11537      11536  
     11405      11406      11417      11416      11526      11527      11538      11537  
     11406      11407      11418      11417      11527      11528      11539      11538  
     11408      11409      11420      11419      11529      11530      11541      11540  
     11409      11410      11421      11420      11530      11531      11542      11541  
     11410      11411      11422      11421      11531      11532      11543      11542  
     11411      11412      11423      11422      11532      11533      11544      11543  
     11412      11413      11424      11423      11533      11534      11545      11544  
     11413      11414      11425      11424      11534      11535      11546      11545  
     11414      11415      11426      11425      11535      11536      11547      11546  
     11415      11416      11427      11426      11536      11537      11548      11547  
     11416      11417      11428      11427      11537      11538      11549      11548  
     11417      11418      11429      11428      11538      11539      11550      11549  
     11419      11420      11431      11430      11540      11541      11552      11551  
     11420      11421      11432      11431      11541      11542      11553      11552  
     11421      11422      11433      11432      11542      11543      11554      11553  
     11422      11423      11434      11433      11543      11544      11555      11554  
     11423      11424      11435      11434      11544      11545      11556      11555  
     11424      11425      11436      11435      11545      11546      11557      11556  
     11425      11426      11437      11436      11546      11547      11558      11557  
     11426      11427      11438      11437      11547      11548      11559      11558  
     11427      11428      11439      11438      11548      11549      11560      11559  
     11428      11429      11440      11439      11549      11550      11561      11560  
     11430      11431      11442      11441      11551      11552      11563      11562  
     11431      11432      11443      11442      11552      11553      11564      11563  
     11432      11433      11444      11443      11553      11554      11565      11564  
     11433      11434      11445      11444      11554      11555      11566      11565  
     11434      11435      11446      11445      11555      11556      11567      11566  
     11435      11436      11447      11446      11556      11557      11568      11567  
     11436      11437      11448      11447      11557      11558      11569      11568  
     11437      11438      11449      11448      11558      11559      11570      11569  
     11438      11439      11450      11449      11559      11560      11571      11570  
     11439      11440      11451      11450      11560      11561      11572      11571  
     11441      11442      11453      11452      11562      11563      11574      11573  
     11442      11443      11454      11453      11563      11564      11575      11574  
     11443      11444      11455      11454      11564      11565      11576      11575  
     11444      11445      11456      11455      11565      11566      11577      11576  
     11445      11446      11457      11456      11566      11567      11578      11577  
     11446      11447      11458      11457      11567      11568      11579      11578  
     11447      11448      11459      11458      11568      11569      11580      11579  
     11448      11449      11460      11459      11569      11570      11581      11580  
     11449      11450      11461      11460      11570      11571      11582      11581  
     11450      11451      11462      11461      11571      11572      11583      11582  
     11452      11453      11464      11463      11573      11574      11585      11584  
     11453      11454      11465      11464      11574      11575      11586      11585  
     11454      11455      11466      11465      11575      11576      11587      11586  
     11455      11456      11467      11466      11576      11577      11588      11587  
     11456      11457      11468      11467      11577      11578      11589      11588  
     11457      11458      11469      11468      11578      11579      11590      11589  
     11458      11459      11470      11469      11579      11580      11591      11590  
     11459      11460      11471      11470      11580      11581      11592      11591  
     11460      11461      11472      11471      11581      11582      11593      11592  
     11461      11462      11473      11472      11582      11583      11594      11593  
     11463      11464      11475      11474      11584      11585      11596      11595  
     11464      11465      11476      11475      11585      11586      11597      11596  
     11465      11466      11477      11476      11586      11587      11598      11597  
     11466      11467      11478      11477      11587      11588      11599      11598  
     11467      11468      11479      11478      11588      11589      11600      11599  
     11468      11469      11480      11479      11589      11590      11601      11600  
     11469      11470      11481      11480      11590      11591      11602      11601  
     11470      11471      11482      11481      11591      11592      11603      11602  
     11471      11472      11483      11482      11592      11593      11604      11603  
     11472      11473      11484      11483      11593      11594      11605      11604  
     11474      11475      11486      11485      11595      11596      11607      11606  
     11475      11476      11487      11486      11596      11597      11608      11607  
     11476      11477      11488      11487      11597      11598      11609      11608  
     11477      11478      11489      11488      11598      11599      11610      11609  
     11478      11479      11490      11489      11599      11600      11611      11610  
     11479      11480      11491      11490      11600      11601      11612      11611  
     11480      11481      11492      11491      11601      11602      11613      11612  
     11481      11482      11493      11492      11602      11603      11614      11613  
     11482      11483      11494      11493      11603      11604      11615      11614  
     11483      11484      11495      11494      11604      11605      11616      11615  
     11496      11497      11508      11507      11617      11618      11629      11628  
     11497      11498      11509      11508      11618      11619      11630      11629  
     11498      11499      11510      11509      11619      11620      11631      11630  
     11499      11500      11511      11510      11620      11621      11632      11631  
     11500      11501      11512      11511      11621      11622      11633      11632  
     11501      11502      11513      11512      11622      11623      11634      11633  
     11502      11503      11514      11513      11623      11624      11635      11634  
     11503      11504      11515      11514      11624      11625      11636      11635  
     11504      11505      11516      11515      11625      11626      11637      11636  
     11505      11506      11517      11516      11626      11627      11638      11637  
     11507      11508      11519      11518      11628      11629      11640      11639  
     11508      11509      11520      11519      11629      11630      11641      11640  
     11509      11510      11521      11520      11630      11631      11642      11641  
     11510      11511      11522      11521      11631      11632      11643      11642  
     11511      11512      11523      11522      11632      11633      11644      11643  
     11512      11513      11524      11523      11633      11634      11645      11644  
     11513      11514      11525      11524      11634      11635      11646      11645  
     11514      11515      11526      11525      11635      11636      11647      11646  
     11515      11516      11527      11526      11636      11637      11648      11647  
     11516      11517      11528      11527      11637      11638      11649      11648  
     11518      11519      11530      11529      11639      11640      11651      11650  
     11519      11520      11531      11530      11640      11641      11652      11651  
     11520      11521      11532      11531      11641      11642      11653      11652  
     11521      11522      11533      11532      11642      11643      11654      11653  
     11522      11523      11534      11533      11643      11644      11655      11654  
     11523      11524      11535      11534      11644      11645      11656      11655  
     11524      11525      11536      11535      11645      11646      11657      11656  
     11525      11526      11537      11536      11646      11647      11658      11657  
     11526      11527      11538      11537      11647      11648      11659      11658  
     11527      11528      11539      11538      11648      11649      11660      11659  
     11529      11530      11541      11540      11650      11651      11662      11661  
     11530      11531      11542      11541      11651      11652      11663      11662  
     11531      11532      11543      11542      11652      11653      11664      11663  
     11532      11533      11544      11543      11653      11654      11665      11664  
     11533      11534      11545      11544      11654      11655      11666      11665  
     11534      11535      11546      11545      11655      11656      11667      11666  
     11535      11536      11547      11546      11656      11657      11668      11667  
     11536      11537      11548      11547      11657      11658      11669      11668  
     11537      11538      11549      11548      11658      11659      11670      11669  
     11538      11539      11550      11549      11659      11660      11671      11670  
     11540      11541      11552      11551      11661      11662      11673      11672  
     11541      11542      11553      11552      11662      11663      11674      11673  
     11542      11543      11554      11553      11663      11664      11675      11674  
     11543      11544      11555      11554      11664      11665      11676      11675  
     11544      11545      11556      11555      11665      11666      11677      11676  
     11545      11546      11557      11556      11666      11667      11678      11677  
     11546      11547      11558      11557      11667      11668      11679      11678  
     11547      11548      11559      11558      11668      11669      11680      11679  
     11548      11549      11560      11559      11669      11670      11681      11680  
     11549      11550      11561      11560      11670      11671      11682      11681  
     11551      11552      11563      11562      11672      11673      11684      11683  
     11552      11553      11564      11563      11673      11674      11685      11684  
     11553      11554      11565      11564      11674      11675      11686      11685  
     11554      11555      11566      11565      11675      11676      11687      11686  
     11555      11556      11567      11566      11676      11677      11688      11687  
     11556      11557      11568      11567      11677      11678      11689      11688  
     11557      11558      11569      11568      11678      11679      11690      11689  
     11558      11559      11570      11569      11679      11680      11691      11690  
     11559      11560      11571      11570      11680      11681      11692      11691  
     11560      11561      11572      11571      11681      11682      11693      11692  
     11562      11563      11574      11573      11683      11684      11695      11694  
     11563      11564      11575      11574      11684      11685      11696      11695  
     11564      11565      11576      11575      11685      11686      11697      11696  
     11565      11566      11577      11576      11686      11687      11698      11697  
     11566      11567      11578      11577      11687      11688      11699      11698  
     11567      11568      11579      11578      11688      11689      11700      11699  
     11568      11569      11580      11579      11689      11690      11701      11700  
     11569      11570      11581      11580      11690      11691      11702      11701  
     11570      11571      11582      11581      11691      11692      11703      11702  
     11571      11572      11583      11582      11692      11693      11704      11703  
     11573      11574      11585      11584      11694      11695      11706      11705  
     11574      11575      11586      11585      11695      11696      11707      11706  
     11575      11576      11587      11586      11696      11697      11708      11707  
     11576      11577      11588      11587      11697      11698      11709      11708  
     11577      11578      11589      11588      11698      11699      11710      11709  
     11578      11579      11590      11589      11699      11700      11711      11710  
     11579      11580      11591      11590      11700      11701      11712      11711  
     11580      11581      11592      11591      11701      11702      11713      11712  
     11581      11582      11593      11592      11702      11703      11714      11713  
     11582      11583      11594      11593      11703      11704      11715      11714  
     11584      11585      11596      11595      11705      11706      11717      11716  
     11585      11586      11597      11596      11706      11707      11718      11717  
     11586      11587      11598      11597      11707      11708      11719      11718  
     11587      11588      11599      11598      11708      11709      11720      11719  
     11588      11589      11600      11599      11709      11710      11721      11720  
     11589      11590      11601      11600      11710      11711      11722      11721  
     11590      11591      11602      11601      11711      11712      11723      11722  
     11591      11592      11603      11602      11712      11713      11724      11723  
     11592      11593      11604      11603      11713      11714      11725      11724  
     11593      11594      11605      11604      11714      11715      11726      11725  
     11595      11596      11607      11606      11716      11717      11728      11727  
     11596      11597      11608      11607      11717      11718      11729      11728  
     11597      11598      11609      11608      11718      11719      11730      11729  
     11598      11599      11610      11609      11719      11720      11731      11730  
     11599      11600      11611      11610      11720      11721      11732      11731  
     11600      11601      11612      11611      11721      11722      11733      11732  
     11601      11602      11613      11612      11722      11723      11734      11733  
     11602      11603      11614      11613      11723      11724      11735      11734  
     11603      11604      11615      11614      11724      11725      11736      11735  
     11604      11605      11616      11615      11725      11726      11737      11736  
     11617      11618      11629      11628      11738      11739      11750      11749  
     11618      11619      11630      11629      11739      11740      11751      11750  
     11619      11620      11631      11630      11740      11741      11752      11751  
     11620      11621      11632      11631      11741      11742      11753      11752  
     11621      11622      11633      11632      11742      11743      11754      11753  
     11622      11623      11634      11633      11743      11744      11755      11754  
     11623      11624      11635      11634      11744      11745      11756      11755  
     11624      11625      11636      11635      11745      11746      11757      11756  
     11625      11626      11637      11636      11746      11747      11758      11757  
     11626      11627      11638      11637      11747      11748      11759      11758  
     11628      11629      11640      11639      11749      11750      11761      11760  
     11629      11630      11641      11640      11750      11751      11762      11761  
     11630      11631      11642      11641      11751      11752      11763      11762  
     11631      11632      11643      11642      11752      11753      11764      11763  
     11632      11633      11644      11643      11753      11754      11765      11764  
     11633      11634      11645      11644      11754      11755      11766      11765  
     11634      11635      11646      11645      11755      11756      11767      11766  
     11635      11636      11647      11646      11756      11757      11768      11767  
     11636      11637      11648      11647      11757      11758      11769      11768  
     11637      11638      11649      11648      11758      11759      11770      11769  
     11639      11640      11651      11650      11760      11761      11772      11771  
     11640      11641      11652      11651      11761      11762      11773      11772  
     11641      11642      11653      11652      11762      11763      11774      11773  
     11642      11643      11654      11653      11763      11764      11775      11774  
     11643      11644      11655      11654      11764      11765      11776      11775  
     11644      11645      11656      11655      11765      11766      11777      11776  
     11645      11646      11657      11656      11766      11767      11778      11777  
     11646      11647      11658      11657      11767      11768      11779      11778  
     11647      11648      11659      11658      11768      11769      11780      11779  
     11648      11649      11660      11659      11769      11770      11781      11780  
     11650      11651      11662      11661      11771      11772      11783      11782  
     11651      11652      11663      11662      11772      11773      11784      11783  
     11652      11653      11664      11663      11773      11774      11785      11784  
     11653      11654      11665      11664      11774      11775      11786      11785  
     11654      11655      11666      11665      11775      11776      11787      11786  
     11655      11656      11667      11666      11776      11777      11788      11787  
     11656      11657      11668      11667      11777      11778      11789      11788  
     11657      11658      11669      11668      11778      11779      11790      11789  
     11658      11659      11670      11669      11779      11780      11791      11790  
     11659      11660      11671      11670      11780      11781      11792      11791  
     11661      11662      11673      11672      11782      11783      11794      11793  
     11662      11663      11674      11673      11783      11784      11795      11794  
     11663      11664      11675      11674      11784      11785      11796      11795  
     11664      11665      11676      11675      11785      11786      11797      11796  
     11665      11666      11677      11676      11786      11787      11798      11797  
     11666      11667      11678      11677      11787      11788      11799      11798  
     11667      11668      11679      11678      11788      11789      11800      11799  
     11668      11669      11680      11679      11789      11790      11801      11800  
     11669      11670      11681      11680      11790      11791      11802      11801  
     11670      11671      11682      11681      11791      11792      11803      11802  
     11672      11673      11684      11683      11793      11794      11805      11804  
     11673      11674      11685      11684      11794      11795      11806      11805  
     11674      11675      11686      11685      11795      11796      11807      11806  
     11675      11676      11687      11686      11796      11797      11808      11807  
     11676      11677      11688      11687      11797      11798      11809      11808  
     11677      11678      11689      11688      11798      11799      11810      11809  
     11678      11679      11690      11689      11799      11800      11811      11810  
     11679      11680      11691      11690      11800      11801      11812      11811  
     11680      11681      11692      11691      11801      11802      11813      11812  
     11681      11682      11693      11692      11802      11803      11814      11813  
     11683      11684      11695      11694      11804      11805      11816      11815  
     11684      11685      11696      11695      11805      11806      11817      11816  
     11685      11686      11697      11696      11806      11807      11818      11817  
     11686      11687      11698      11697      11807      11808      11819      11818  
     11687      11688      11699      11698      11808      11809      11820      11819  
     11688      11689      11700      11699      11809      11810      11821      11820  
     11689      11690      11701      11700      11810      11811      11822      11821  
     11690      11691      11702      11701      11811      11812      11823      11822  
     11691      11692      11703      11702      11812      11813      11824      11823  
     11692      11693      11704      11703      11813      11814      11825      11824  
     11694      11695      11706      11705      11815      11816      11827      11826  
     11695      11696      11707      11706      11816      11817      11828      11827  
     11696      11697      11708      11707      11817      11818      11829      11828  
     11697      11698      11709      11708      11818      11819      11830      11829  
     11698      11699      11710      11709      11819      11820      11831      11830  
     11699      11700      11711      11710      11820      11821      11832      11831  
     11700      11701      11712      11711      11821      11822      11833      11832  
     11701      11702      11713      11712      11822      11823      11834      11833  
     11702      11703      11714      11713      11823      11824      11835      11834  
     11703      11704      11715      11714      11824      11825      11836      11835  
     11705      11706      11717      11716      11826      11827      11838      11837  
     11706      11707      11718      11717      11827      11828      11839      11838  
     11707      11708      11719      11718      11828      11829      11840      11839  
     11708      11709      11720      11719      11829      11830      11841      11840  
     11709      11710      11721      11720      11830      11831      11842      11841  
     11710      11711      11722      11721      11831      11832      11843      11842  
     11711      11712      11723      11722      11832      11833      11844      11843  
     11712      11713      11724      11723      11833      11834      11845      11844  
     11713      11714      11725      11724      11834      11835      11846      11845  
     11714      11715      11726      11725      11835      11836      11847      11846  
     11716      11717      11728      11727      11837      11838      11849      11848  
     11717      11718      11729      11728      11838      11839      11850      11849  
     11718      11719      11730      11729      11839      11840      11851      11850  
     11719      11720      11731      11730      11840      11841      11852      11851  
     11720      11721      11732      11731      11841      11842      11853      11852  
     11721      11722      11733      11732      11842      11843      11854      11853  
     11722      11723      11734      11733      11843      11844      11855      11854  
     11723      11724      11735      11734      11844      11845      11856      11855  
     11724      11725      11736      11735      11845      11846      11857      11856  
     11725      11726      11737      11736      11846      11847      11858      11857  
     11738      11739      11750      11749      11859      11860      11871      11870  
     11739      11740      11751      11750      11860      11861      11872      11871  
     11740      11741      11752      11751      11861      11862      11873      11872  
     11741      11742      11753      11752      11862      11863      11874      11873  
     11742      11743      11754      11753      11863      11864      11875      11874  
     11743      11744      11755      11754      11864      11865      11876      11875  
     11744      11745      11756      11755      11865      11866      11877      11876  
     11745      11746      11757      11756      11866      11867      11878      11877  
     11746      11747      11758      11757      11867      11868      11879      11878  
     11747      11748      11759      11758      11868      11869      11880      11879  
     11749      11750      11761      11760      11870      11871      11882      11881  
     11750      11751      11762      11761      11871      11872      11883      11882  
     11751      11752      11763      11762      11872      11873      11884      11883  
     11752      11753      11764      11763      11873      11874      11885      11884  
     11753      11754      11765      11764      11874      11875      11886      11885  
     11754      11755      11766      11765      11875      11876      11887      11886  
     11755      11756      11767      11766      11876      11877      11888      11887  
     11756      11757      11768      11767      11877      11878      11889      11888  
     11757      11758      11769      11768      11878      11879      11890      11889  
     11758      11759      11770      11769      11879      11880      11891      11890  
     11760      11761      11772      11771      11881      11882      11893      11892  
     11761      11762      11773      11772      11882      11883      11894      11893  
     11762      11763      11774      11773      11883      11884      11895      11894  
     11763      11764      11775      11774      11884      11885      11896      11895  
     11764      11765      11776      11775      11885      11886      11897      11896  
     11765      11766      11777      11776      11886      11887      11898      11897  
     11766      11767      11778      11777      11887      11888      11899      11898  
     11767      11768      11779      11778      11888      11889      11900      11899  
     11768      11769      11780      11779      11889      11890      11901      11900  
     11769      11770      11781      11780      11890      11891      11902      11901  
     11771      11772      11783      11782      11892      11893      11904      11903  
     11772      11773      11784      11783      11893      11894      11905      11904  
     11773      11774      11785      11784      11894      11895      11906      11905  
     11774      11775      11786      11785      11895      11896      11907      11906  
     11775      11776      11787      11786      11896      11897      11908      11907  
     11776      11777      11788      11787      11897      11898      11909      11908  
     11777      11778      11789      11788      11898      11899      11910      11909  
     11778      11779      11790      11789      11899      11900      11911      11910  
     11779      11780      11791      11790      11900      11901      11912      11911  
     11780      11781      11792      11791      11901      11902      11913      11912  
     11782      11783      11794      11793      11903      11904      11915      11914  
     11783      11784      11795      11794      11904      11905      11916      11915  
     11784      11785      11796      11795      11905      11906      11917      11916  
     11785      11786      11797      11796      11906      11907      11918      11917  
     11786      11787      11798      11797      11907      11908      11919      11918  
     11787      11788      11799      11798      11908      11909      11920      11919  
     11788      11789      11800      11799      11909      11910      11921      11920  
     11789      11790      11801      11800      11910      11911      11922      11921  
     11790      11791      11802      11801      11911      11912      11923      11922  
     11791      11792      11803      11802      11912      11913      11924      11923  
     11793      11794      11805      11804      11914      11915      11926      11925  
     11794      11795      11806      11805      11915      11916      11927      11926  
     11795      11796      11807      11806      11916      11917      11928      11927  
     11796      11797      11808      11807      11917      11918      11929      11928  
     11797      11798      11809      11808      11918      11919      11930      11929  
     11798      11799      11810      11809      11919      11920      11931      11930  
     11799      11800      11811      11810      11920      11921      11932      11931  
     11800      11801      11812      11811      11921      11922      11933      11932  
     11801      11802      11813      11812      11922      11923      11934      11933  
     11802      11803      11814      11813      11923      11924      11935      11934  
     11804      11805      11816      11815      11925      11926      11937      11936  
     11805      11806      11817      11816      11926      11927      11938      11937  
     11806      11807      11818      11817      11927      11928      11939      11938  
     11807      11808      11819      11818      11928      11929      11940      11939  
     11808      11809      11820      11819      11929      11930      11941      11940  
     11809      11810      11821      11820      11930      11931      11942      11941  
     11810      11811      11822      11821      11931      11932      11943      11942  
     11811      11812      11823      11822      11932      11933      11944      11943  
     11812      11813      11824      11823      11933      11934      11945      11944  
     11813      11814      11825      11824      11934      11935      11946      11945  
     11815      11816      11827      11826      11936      11937      11948      11947  
     11816      11817      11828      11827      11937      11938      11949      11948  
     11817      11818      11829      11828      11938      11939      11950      11949  
     11818      11819      11830      11829      11939      11940      11951      11950  
     11819      11820      11831      11830      11940      11941      11952      11951  
     11820      11821      11832      11831      11941      11942      11953      11952  
     11821      11822      11833      11832      11942      11943      11954      11953  
     11822      11823      11834      11833      11943      11944      11955      11954  
     11823      11824      11835      11834      11944      11945      11956      11955  
     11824      11825      11836      11835      11945      11946      11957      11956  
     11826      11827      11838      11837      11947      11948      11959      11958  
     11827      11828      11839      11838      11948      11949      11960      11959  
     11828      11829      11840      11839      11949      11950      11961      11960  
     11829      11830      11841      11840      11950      11951      11962      11961  
     11830      11831      11842      11841      11951      11952      11963      11962  
     11831      11832      11843      11842      11952      11953      11964      11963  
     11832      11833      11844      11843      11953      11954      11965      11964  
     11833      11834      11845      11844      11954      11955      11966      11965  
     11834      11835      11846      11845      11955      11956      11967      11966  
     11835      11836      11847      11846      11956      11957      11968      11967  
     11837      11838      11849      11848      11958      11959      11970      11969  
     11838      11839      11850      11849      11959      11960      11971      11970  
     11839      11840      11851      11850      11960      11961      11972      11971  
     11840      11841      11852      11851      11961      11962      11973      11972  
     11841      11842      11853      11852      11962      11963      11974      11973  
     11842      11843      11854      11853      11963      11964      11975      11974  
     11843      11844      11855      11854      11964      11965      11976      11975  
     11844      11845      11856      11855      11965      11966      11977      11976  
     11845      11846      11857      11856      11966      11967      11978      11977  
     11846      11847      11858      11857      11967      11968      11979      11978  
     11859      11860      11871      11870      11980      11981      11992      11991  
     11860      11861      11872      11871      11981      11982      11993      11992  
     11861      11862      11873      11872      11982      11983      11994      11993  
     11862      11863      11874      11873      11983      11984      11995      11994  
     11863      11864      11875      11874      11984      11985      11996      11995  
     11864      11865      11876      11875      11985      11986      11997      11996  
     11865      11866      11877      11876      11986      11987      11998      11997  
     11866      11867      11878      11877      11987      11988      11999      11998  
     11867      11868      11879      11878      11988      11989      12000      11999  
     11868      11869      11880      11879      11989      11990      12001      12000  
     11870      11871      11882      11881      11991      11992      12003      12002  
     11871      11872      11883      11882      11992      11993      12004      12003  
     11872      11873      11884      11883      11993      11994      12005      12004  
     11873      11874      11885      11884      11994      11995      12006      12005  
     11874      11875      11886      11885      11995      11996      12007      12006  
     11875      11876      11887      11886      11996      11997      12008      12007  
     11876      11877      11888      11887      11997      11998      12009      12008  
     11877      11878      11889      11888      11998      11999      12010      12009  
     11878      11879      11890      11889      11999      12000      12011      12010  
     11879      11880      11891      11890      12000      12001      12012      12011  
     11881      11882      11893      11892      12002      12003      12014      12013  
     11882      11883      11894      11893      12003      12004      12015      12014  
     11883      11884      11895      11894      12004      12005      12016      12015  
     11884      11885      11896      11895      12005      12006      12017      12016  
     11885      11886      11897      11896      12006      12007      12018      12017  
     11886      11887      11898      11897      12007      12008      12019      12018  
     11887      11888      11899      11898      12008      12009      12020      12019  
     11888      11889      11900      11899      12009      12010      12021      12020  
     11889      11890      11901      11900      12010      12011      12022      12021  
     11890      11891      11902      11901      12011      12012      12023      12022  
     11892      11893      11904      11903      12013      12014      12025      12024  
     11893      11894      11905      11904      12014      12015      12026      12025  
     11894      11895      11906      11905      12015      12016      12027      12026  
     11895      11896      11907      11906      12016      12017      12028      12027  
     11896      11897      11908      11907      12017      12018      12029      12028  
     11897      11898      11909      11908      12018      12019      12030      12029  
     11898      11899      11910      11909      12019      12020      12031      12030  
     11899      11900      11911      11910      12020      12021      12032      12031  
     11900      11901      11912      11911      12021      12022      12033      12032  
     11901      11902      11913      11912      12022      12023      12034      12033  
     11903      11904      11915      11914      12024      12025      12036      12035  
     11904      11905      11916      11915      12025      12026      12037      12036  
     11905      11906      11917      11916      12026      12027      12038      12037  
     11906      11907      11918      11917      12027      12028      12039      12038  
     11907      11908      11919      11918      12028      12029      12040      12039  
     11908      11909      11920      11919      12029      12030      12041      12040  
     11909      11910      11921      11920      12030      12031      12042      12041  
     11910      11911      11922      11921      12031      12032      12043      12042  
     11911      11912      11923      11922      12032      12033      12044      12043  
     11912      11913      11924      11923      12033      12034      12045      12044  
     11914      11915      11926      11925      12035      12036      12047      12046  
     11915      11916      11927      11926      12036      12037      12048      12047  
     11916      11917      11928      11927      12037      12038      12049      12048  
     11917      11918      11929      11928      12038      12039      12050      12049  
     11918      11919      11930      11929      12039      12040      12051      12050  
     11919      11920      11931      11930      12040      12041      12052      12051  
     11920      11921      11932      11931      12041      12042      12053      12052  
     11921      11922      11933      11932      12042      12043      12054      12053  
     11922      11923      11934      11933      12043      12044      12055      12054  
     11923      11924      11935      11934      12044      12045      12056      12055  
     11925      11926      11937      11936      12046      12047      12058      12057  
     11926      11927      11938      11937      12047      12048      12059      12058  
     11927      11928      11939      11938      12048      12049      12060      12059  
     11928      11929      11940      11939      12049      12050      12061      12060  
     11929      11930      11941      11940      12050      12051      12062      12061  
     11930      11931      11942      11941      12051      12052      12063      12062  
     11931      11932      11943      11942      12052      12053      12064      12063  
     11932      11933      11944      11943      12053      12054      12065      12064  
     11933      11934      11945      11944      12054      12055      12066      12065  
     11934      11935      11946      11945      12055      12056      12067      12066  
     11936      11937      11948      11947      12057      12058      12069      12068  
     11937      11938      11949      11948      12058      12059      12070      12069  
     11938      11939      11950      11949      12059      12060      12071      12070  
     11939      11940      11951      11950      12060      12061      12072      12071  
     11940      11941      11952      11951      12061      12062      12073      12072  
     11941      11942      11953      11952      12062      12063      12074      12073  
     11942      11943      11954      11953      12063      12064      12075      12074  
     11943      11944      11955      11954      12064      12065      12076      12075  
     11944      11945      11956      11955      12065      12066      12077      12076  
     11945      11946      11957      11956      12066      12067      12078      12077  
     11947      11948      11959      11958      12068      12069      12080      12079  
     11948      11949      11960      11959      12069      12070      12081      12080  
     11949      11950      11961      11960      12070      12071      12082      12081  
     11950      11951      11962      11961      12071      12072      12083      12082  
     11951      11952      11963      11962      12072      12073      12084      12083  
     11952      11953      11964      11963      12073      12074      12085      12084  
     11953      11954      11965      11964      12074      12075      12086      12085  
     11954      11955      11966      11965      12075      12076      12087      12086  
     11955      11956      11967      11966      12076      12077      12088      12087  
     11956      11957      11968      11967      12077      12078      12089      12088  
     11958      11959      11970      11969      12079      12080      12091      12090  
     11959      11960      11971      11970      12080      12081      12092      12091  
     11960      11961      11972      11971      12081      12082      12093      12092  
     11961      11962      11973      11972      12082      12083      12094      12093  
     11962      11963      11974      11973      12083      12084      12095      12094  
     11963      11964      11975      11974      12084      12085      12096      12095  
     11964      11965      11976      11975      12085      12086      12097      12096  
     11965      11966      11977      11976      12086      12087      12098      12097  
     11966      11967      11978      11977      12087      12088      12099      12098  
     11967      11968      11979      11978      12088      12089      12100      12099  
     11980      11981      11992      11991      12101      12102      12113      12112  
     11981      11982      11993      11992      12102      12103      12114      12113  
     11982      11983      11994      11993      12103      12104      12115      12114  
     11983      11984      11995      11994      12104      12105      12116      12115  
     11984      11985      11996      11995      12105      12106      12117      12116  
     11985      11986      11997      11996      12106      12107      12118      12117  
     11986      11987      11998      11997      12107      12108      12119      12118  
     11987      11988      11999      11998      12108      12109      12120      12119  
     11988      11989      12000      11999      12109      12110      12121      12120  
     11989      11990      12001      12000      12110      12111      12122      12121  
     11991      11992      12003      12002      12112      12113      12124      12123  
     11992      11993      12004      12003      12113      12114      12125      12124  
     11993      11994      12005      12004      12114      12115      12126      12125  
     11994      11995      12006      12005      12115      12116      12127      12126  
     11995      11996      12007      12006      12116      12117      12128      12127  
     11996      11997      12008      12007      12117      12118      12129      12128  
     11997      11998      12009      12008      12118      12119      12130      12129  
     11998      11999      12010      12009      12119      12120      12131      12130  
     11999      12000      12011      12010      12120      12121      12132      12131  
     12000      12001      12012      12011      12121      12122      12133      12132  
     12002      12003      12014      12013      12123      12124      12135      12134  
     12003      12004      12015      12014      12124      12125      12136      12135  
     12004      12005      12016      12015      12125      12126      12137      12136  
     12005      12006      12017      12016      12126      12127      12138      12137  
     12006      12007      12018      12017      12127      12128      12139      12138  
     12007      12008      12019      12018      12128      12129      12140      12139  
     12008      12009      12020      12019      12129      12130      12141      12140  
     12009      12010      12021      12020      12130      12131      12142      12141  
     12010      12011      12022      12021      12131      12132      12143      12142  
     12011      12012      12023      12022      12132      12133      12144      12143  
     12013      12014      12025      12024      12134      12135      12146      12145  
     12014      12015      12026      12025      12135      12136      12147      12146  
     12015      12016      12027      12026      12136      12137      12148      12147  
     12016      12017      12028      12027      12137      12138      12149      12148  
     12017      12018      12029      12028      12138      12139      12150      12149  
     12018      12019      12030      12029      12139      12140      12151      12150  
     12019      12020      12031      12030      12140      12141      12152      12151  
     12020      12021      12032      12031      12141      12142      12153      12152  
     12021      12022      12033      12032      12142      12143      12154      12153  
     12022      12023      12034      12033      12143      12144      12155      12154  
     12024      12025      12036      12035      12145      12146      12157      12156  
     12025      12026      12037      12036      12146      12147      12158      12157  
     12026      12027      12038      12037      12147      12148      12159      12158  
     12027      12028      12039      12038      12148      12149      12160      12159  
     12028      12029      12040      12039      12149      12150      12161      12160  
     12029      12030      12041      12040      12150      12151      12162      12161  
     12030      12031      12042      12041      12151      12152      12163      12162  
     12031      12032      12043      12042      12152      12153      12164      12163  
     12032      12033      12044      12043      12153      12154      12165      12164  
     12033      12034      12045      12044      12154      12155      12166      12165  
     12035      12036      12047      12046      12156      12157      12168      12167  
     12036      12037      12048      12047      12157      12158      12169      12168  
     12037      12038      12049      12048      12158      12159      12170      12169  
     12038      12039      12050      12049      12159      12160      12171      12170  
     12039      12040      12051      12050      12160      12161      12172      12171  
     12040      12041      12052      12051      12161      12162      12173      12172  
     12041      12042      12053      12052      12162      12163      12174      12173  
     12042      12043      12054      12053      12163      12164      12175      12174  
     12043      12044      12055      12054      12164      12165      12176      12175  
     12044      12045      12056      12055      12165      12166      12177      12176  
     12046      12047      12058      12057      12167      12168      12179      12178  
     12047      12048      12059      12058      12168      12169      12180      12179  
     12048      12049      12060      12059      12169      12170      12181      12180  
     12049      12050      12061      12060      12170      12171      12182      12181  
     12050      12051      12062      12061      12171      12172      12183      12182  
     12051      12052      12063      12062      12172      12173      12184      12183  
     12052      12053      12064      12063      12173      12174      12185      12184  
     12053      12054      12065      12064      12174      12175      12186      12185  
     12054      12055      12066      12065      12175      12176      12187      12186  
     12055      12056      12067      12066      12176      12177      12188      12187  
     12057      12058      12069      12068      12178      12179      12190      12189  
     12058      12059      12070      12069      12179      12180      12191      12190  
     12059      12060      12071      12070      12180      12181      12192      12191  
     12060      12061      12072      12071      12181      12182      12193      12192  
     12061      12062      12073      12072      12182      12183      12194      12193  
     12062      12063      12074      12073      12183      12184      12195      12194  
     12063      12064      12075      12074      12184      12185      12196      12195  
     12064      12065      12076      12075      12185      12186      12197      12196  
     12065      12066      12077      12076      12186      12187      12198      12197  
     12066      12067      12078      12077      12187      12188      12199      12198  
     12068      12069      12080      12079      12189      12190      12201      12200  
     12069      12070      12081      12080      12190      12191      12202      12201  
     12070      12071      12082      12081      12191      12192      12203      12202  
     12071      12072      12083      12082      12192      12193      12204      12203  
     12072      12073      12084      12083      12193      12194      12205      12204  
     12073      12074      12085      12084      12194      12195      12206      12205  
     12074      12075      12086      12085      12195      12196      12207      12206  
     12075      12076      12087      12086      12196      12197      12208      12207  
     12076      12077      12088      12087      12197      12198      12209      12208  
     12077      12078      12089      12088      12198      12199      12210      12209  
     12079      12080      12091      12090      12200      12201      12212      12211  
     12080      12081      12092      12091      12201      12202      12213      12212  
     12081      12082      12093      12092      12202      12203      12214      12213  
     12082      12083      12094      12093      12203      12204      12215      12214  
     12083      12084      12095      12094      12204      12205      12216      12215  
     12084      12085      12096      12095      12205      12206      12217      12216  
     12085      12086      12097      12096      12206      12207      12218      12217  
     12086      12087      12098      12097      12207      12208      12219      12218  
     12087      12088      12099      12098      12208      12209      12220      12219  
     12088      12089      12100      12099      12209      12210      12221      12220  
